##TITLE=Parameter file, TopSpin 3.6.2
##JCAMP-DX=6.00
##DATA TYPE= NMR SPECTRUM
##DATA CLASS= XYDATA
##ORIGIN=
##OWNER=chm343
##.SHIFT REFERENCE=INTERNAL, MeOD, 1, 17.50623728154614
##.OBSERVE FREQUENCY=400.13311072
##.OBSERVE NUCLEUS=1H
##.SOLVENT=MeOD
##$JCAMPDX=5
##$NPOINTS=10	$$ modification sequence number
##$ORIGIN=Bruker BioSpin GmbH
##$epoch=1685912383000
##$date=Sun, 04 Jun 2023 20:59:43 GMT
##$ABSF1=17.48814
##$ABSF2=-1.975939
##$ABSG=5
##$ABSL=50
##$ALPHA=0
##$AQORDER=0
##$ASSFAC=0
##$ASSFACI=0
##$ASSFACX=0
##$ASSWID=0
##$AUNMP=<proc_1d_spintropy_auto>
##$AXLEFT=0
##$AXNAME=<>
##$AXNUC=<1H>
##$AXRIGHT=0
##$AXTYPE=0
##$AXUNIT=<>
##$AZFE=0.1
##$AZFW=0.1
##$BCFW=0
##$BC_mod=0
##$BYTORDP=0
##$COROFFS=0
##$CY=15
##$DATMOD=1
##$DC=0
##$DFILT=<>
##$DTYPP=0
##$ERETIC=no
##$F1P=0
##$F2P=0
##$FCOR=1
##$FTSIZE=131072
##$FT_mod=6
##$GAMMA=0
##$GB=0
##$INTBC=1
##$INTSCL=1
##$ISEN=128
##$LB=0.3
##$LEV0=0
##$LPBIN=0
##$MAXI=10000
##$MC2=0
##$MEAN=0
##$ME_mod=0
##$MI=0.1
##$MddCEXP=no
##$MddCT_SP=no
##$MddF180=no
##$MddLAMBDA=0
##$MddMEMORY=0
##$MddMERGE=0
##$MddNCOMP=0
##$MddNITER=0
##$MddNOISE=0
##$MddPHASE=0
##$MddSEED=0
##$MddSRSIZE=0
##$Mdd_CsALG=0
##$Mdd_CsLAMBDA=0
##$Mdd_CsNITER=0
##$Mdd_CsNORM=0
##$Mdd_CsVE=no
##$Mdd_CsZF=0
##$Mdd_LrLAMBDA=0
##$Mdd_LrNITER=0
##$Mdd_LrRANK=0
##$Mdd_LrZF=0
##$Mdd_mod=0
##$NCOEF=0
##$NLEV=6
##$NOISF1=0
##$NOISF2=0
##$NSP=0
##$NTH_PI=0
##$NZP=0
##$PC=1
##$PHC0=108.06
##$PHC1=0
##$PH_mod=1
##$PKNL=yes
##$PPARMOD=0
##$PPDIAG=0
##$PPIPTYP=0
##$PPMPNUM=2147483647
##$PPRESOL=1
##$PSCAL=4
##$PSIGN=0
##$PYNMP=<>
##$RDF1=0
##$RDF2=0
##$RDFWHM=0
##$RDINT=0
##$RDPOS=0
##$REVERSE=no
##$SF=400.130007272487
##$SI=131072
##$SIGF1=0
##$SIGF2=0
##$SINO=0
##$SIOLD=131072
##$SPECTYP=<PROTON>
##$SREF_mod=1
##$SREGLST=<1H.MeOD>
##$SSB=0
##$STSI=131072
##$STSR=0
##$SW_p=7788.16199376948
##$SYMM=0
##$S_DEV=0
##$TDeff=65536
##$TDoff=0
##$TI=<Spintropy Username asu_chm343
2023_02_15_AcAc_D2O_1H_1Scan_VT_Bruker400>
##$TILT=no
##$TM1=0
##$TM2=0
##$TOPLEV=0
##$USERP1=<>
##$USERP2=<>
##$USERP3=<>
##$USERP4=<>
##$USERP5=<>
##$WDW=1
##$XDIM=0
##$YMAX_p=502262766
##$YMIN_p=-1200680
##$ACQT0=-1.70581753891579
##$AMP=(0..31)
100 100 100 100 100 100 100 100 100 100 100 100 100 100 100 100 100 100
100 100 100 100 100 100 100 100 100 100 100 100 100 100
##$AMPCOIL=(0..19)
-1 0 0 0 0 0 0 0 0 0 0 0 0 0 0 0 0 0 0 0
##$ANAVPT=-1
##$AQSEQ=0
##$AQ_mod=3
##$AUNM=<au_zg_no_rga_lock1>
##$AUTOPOS=<13 >
##$BF2=400.13
##$BF3=400.13
##$BF4=400.13
##$BF5=400.13
##$BF6=400.13
##$BF7=400.13
##$BF8=400.13
##$BWFAC=(0..63)
0 0 0 0 0 0 0 0 0 0 0 0 0 0 0 0 0 0 0 0 0 0 0 0 0 0 0 0 0 0 0 0 0 0 0 0
0 0 0 0 0 0 0 0 0 0 0 0 0 0 0 0 0 0 0 0 0 0 0 0 0 0 0 0
##$BYTORDA=0
##$CAGPARS=(0..11)
0 0 0 0 0 0 0 0 0 0 0 0
##$CHEMSTR=<none>
##$CNST=(0..63)
1 1 1 1 1 1 1 1 1 1 1 1 1 1 1 1 1 1 1 1 1 1 1 1 1 1 1 1 1 1 1 1 1 1 1 1
1 1 1 1 1 1 1 1 1 1 1 1 1 1 1 1 1 1 1 1 1 1 1 1 1 1 1 1
##$CPDPRG=(0..8)
<> <> <> <> <> <> <> <> <>
##$D=(0..63)
0 60 0 0 0 0 0 0 0 0 0 0 0 0 0 0 0.0002 0 0 0 0 0 0 0 0 0 0 0 0 0 0 0 0
0 0 0 0 0 0 0 0 0 0 0 0 0 0 0 0 0 0 0 0 0 0 0 0 0 0 0 0 0 0 0
##$DATE=1685912383
##$DE=10.51916
##$DECBNUC=<off>
##$DECNUC=<off>
##$DECSTAT=4
##$DIGMOD=3
##$DIGTYP=12
##$DQDMODE=0
##$DR=22
##$DS=0
##$DSPFIRM=4
##$DTYPA=0
##$EXP=<CHM343_Proton_1scan_318K>
##$FCUCHAN=(0..9)
0 2 0 0 0 0 0 0 0 0
##$FL1=0
##$FL2=0
##$FL3=0
##$FL4=0
##$FN_INDIRECT=(0..7)
0 0 0 0 0 0 0 0
##$FOV=0
##$FQ1LIST=<>
##$FQ2LIST=<>
##$FQ3LIST=<>
##$FQ4LIST=<>
##$FQ5LIST=<>
##$FQ6LIST=<>
##$FQ7LIST=<>
##$FQ8LIST=<>
##$FRQLO3=1116889.28000003
##$FRQLO3N=0
##$FS=(0..7)
83 83 83 83 83 83 83 83
##$FTLPGN=0
##$FW=4032000
##$FnILOOP=0
##$FnMODE=0
##$FnTYPE=0
##$GPNAM=(0..31)
<> <> <> <> <> <> <> <> <> <> <> <> <> <> <> <> <> <> <> <> <> <> <> <>
<> <> <> <> <> <> <> <>
##$GPX=(0..31)
0 0 0 0 0 0 0 0 0 0 0 0 0 0 0 0 0 0 0 0 0 0 0 0 0 0 0 0 0 0 0 0
##$GPY=(0..31)
0 0 0 0 0 0 0 0 0 0 0 0 0 0 0 0 0 0 0 0 0 0 0 0 0 0 0 0 0 0 0 0
##$GPZ=(0..31)
0 0 0 0 0 0 0 0 0 0 0 0 0 0 0 0 0 0 0 0 0 0 0 0 0 0 0 0 0 0 0 0
##$GRDPROG=<>
##$HDDUTY=20
##$HDRATE=1
##$HGAIN=(0..3)
0 0 0 0
##$HL1=90
##$HL2=90
##$HL3=90
##$HL4=90
##$HOLDER=13
##$HPMOD=(0..7)
0 0 0 0 0 0 0 0
##$HPPRGN=0
##$IN=(0..63)
0 0 0 0 0 0 0 0 0 0 0 0 0 0 0 0 0 0 0 0 0 0 0 0 0 0 0 0 0 0 0 0 0 0 0 0
0 0 0 0 0 0 0 0 0 0 0 0 0 0 0 0 0 0 0 0 0 0 0 0 0 0 0 0
##$INF=(0..7)
0 0 0 0 0 0 0 0
##$INP=(0..63)
0 0 0 0 0 0 0 0 0 0 0 0 0 0 0 0 0 0 0 0 0 0 0 0 0 0 0 0 0 0 0 0 0 0 0 0
0 0 0 0 0 0 0 0 0 0 0 0 0 0 0 0 0 0 0 0 0 0 0 0 0 0 0 0
##$INSTRUM=<spect>
##$INTEGFAC=(0..63)
0 0 0 0 0 0 0 0 0 0 0 0 0 0 0 0 0 0 0 0 0 0 0 0 0 0 0 0 0 0 0 0 0 0 0 0
0 0 0 0 0 0 0 0 0 0 0 0 0 0 0 0 0 0 0 0 0 0 0 0 0 0 0 0
##$L=(0..31)
1 1 1 1 1 1 1 1 1 1 1 1 1 1 1 1 1 1 1 1 1 1 1 1 1 1 1 1 1 1 1 1
##$LFILTER=20
##$LGAIN=-2
##$LINPSTP=0
##$LOCKED=yes
##$LOCKFLD=-2876
##$LOCKGN=116.679374694824
##$LOCKPOW=-35
##$LOCKPPM=3.29999995231628
##$LOCNUC=<2H>
##$LOCPHAS=205.5
##$LOCSHFT=yes
##$LOCSW=0
##$LTIME=0.680999994277954
##$MASR=5000
##$MASRLST=<masrlst>
##$MULEXPNO=(0..15)
0 0 0 0 0 0 0 0 0 0 0 0 0 0 0 0
##$NBL=1
##$NC=-6
##$NLOGCH=2
##$NOVFLW=0
##$NS=1
##$NUC1=<1H>
##$NUC2=<off>
##$NUC3=<off>
##$NUC4=<off>
##$NUC5=<off>
##$NUC6=<off>
##$NUC7=<off>
##$NUC8=<off>
##$NUCLEUS=<off>
##$NUSLIST=<automatic>
##$NusAMOUNT=25
##$NusFPNZ=no
##$NusJSP=0
##$NusSEED=54321
##$NusSPTYPE=0
##$NusT2=1
##$NusTD=0
##$O1=3110.71999999513
##$O2=2470.803
##$O3=2470.803
##$O4=2470.803
##$O5=2470.803
##$O6=2470.803
##$O7=2470.803
##$O8=2470.803
##$OVERFLW=0
##$P=(0..63)
3.333333 10 20 0 0 19.8 30 60 20000 0 0 80000 80000 1000 0 0 1000 2500
100000 600 0 0 0 0 0 270 100000 10 1000 1000 0 0 20000 0 0 0 0 0 0 0 2000
0 0 0 300 0 80000 46600 10000 0 80000 0 0 0 0 0 0 0 0 0 0 0 0 0
##$PACOIL=(0..15)
2 3 1 0 0 0 0 0 0 0 0 0 0 0 0 0
##$PAPS=0
##$PARMODE=0
##$PCPD=(0..9)
0 90 0 0 0 0 0 0 0 0
##$PEXSEL=(0..9)
1 1 1 1 1 1 1 1 1 1
##$PHCOR=(0..31)
0 0 0 0 0 0 0 0 0 0 0 0 0 0 0 0 0 0 0 0 0 0 0 0 0 0 0 0 0 0 0 0
##$PHLIST=<>
##$PHP=1
##$PH_ref=0
##$PL=(0..63)
120 120 120 120 120 120 120 120 120 120 120 120 120 120 120 120 120 120
120 120 120 120 120 120 120 120 120 120 120 120 120 120 120 120 120 120
120 120 120 120 120 120 120 120 120 120 120 120 120 120 120 120 120 120
120 120 120 120 120 120 120 120 120 120
##$PLSTEP=0.1
##$PLSTRT=-6
##$PLW=(0..63)
0 25 0 0 0 0 0 0 0 0.0001 2.7778 0.14793 0 0 0 0 0 0 25 0.30864 0 0 0 0
0 0 0 0.13717 0 2.7778 0 0 4e-006 0 0 0 0 0 0 0 0 0 0 0 0 0 0 0 0 0 0 0
0 0 0 0 0 0 0 0 0 0 0 0
##$PLWMAX=(0..7)
50 0 0 0 0 0 0 0
##$PQPHASE=0
##$PQSCALE=1
##$PR=1
##$PRECHAN=(0..15)
-1 2 3 0 1 -1 -1 -1 -1 -1 -1 -1 -1 -1 -1 -1
##$PRGAIN=0
##$PROBHD=<Z104450_0191 (PA BBO 400S1 BBF-H-D-05 Z)>
##$PROBINPUTS=(0..15)
<19F-109Ag> <1H> <2H> <> <> <> <> <> <> <> <> <> <> <> <> <>
##$PULPROG=<zg30>
##$PW=0
##$PYNM=<>
##$ProjAngle=0
##$QNP=0
##$RD=0
##$RECCHAN=(0..15)
0 2 0 0 0 0 0 0 0 0 0 0 0 0 0 0
##$RECPH=0
##$RECPRE=(0..15)
-1 0 -1 -1 -1 -1 -1 -1 -1 -1 -1 -1 -1 -1 -1 -1
##$RECPRFX=(0..15)
1 0 0 0 0 0 0 0 0 0 0 0 0 0 0 0
##$RECSEL=(0..15)
0 0 1 0 0 0 0 0 0 0 0 0 0 0 0 0
##$RG=30.14
##$RO=0
##$RSEL=(0..15)
0 0 2 0 0 0 0 0 0 0 0 0 0 0 0 0
##$S=(0..7)
83 83 83 83 83 83 83 83
##$SELREC=(0..9)
0 0 0 0 0 0 0 0 0 0
##$SFO1=400.13311072
##$SFO2=400.132470803
##$SFO3=400.132470803
##$SFO4=400.132470803
##$SFO5=400.132470803
##$SFO6=400.132470803
##$SFO7=400.132470803
##$SFO8=400.132470803
##$SOLVENT=<MeOD>
##$SOLVOLD=<off>
##$SP=(0..63)
120 120 120 120 120 120 120 120 120 120 120 120 120 120 120 120 120 120
120 120 120 120 120 120 120 120 120 120 120 120 120 120 120 120 120 120
120 120 120 120 120 120 120 120 120 120 120 120 120 120 120 120 120 120
120 120 120 120 120 120 120 120 120 120
##$SPECTR=0
##$SPINCNT=0
##$SPNAM=(0..63)
<> <Gaus1_270.1000> <Gaus1_180r.1000> <> <> <Sinc1.1000> <Squa100.1000>
<> <Squa100.1000> <> <Sinc1.1000> <Sinc1.1000> <> <> <> <> <> <> <> <Sinc1.1000>
<Sinc1.1000> <Sinc1.1000> <Sinc1.1000> <> <> <> <> <> <> <Crp60,20,20.10>
<Bip720,50,20.1> <> <> <> <Rsnob.1000> <Gaus1_180r.1000> <Gaus1_180r.1000>
<> <> <> <Gaus1_180r.1000> <Squa100.1000> <> <> <> <> <> <> <> <> <> <>
<> <> <> <> <> <> <> <> <> <> <> <>
##$SPOAL=(0..63)
0.5 1 0.5 0.5 0.5 0.5 0.5 0.5 0.5 0.5 0.5 0.5 0.5 0.5 0.5 0.5 0.5 0.5 0.5
1 1 1 1 0.5 0.5 0.5 0.5 0.5 0.5 0.5 0.5 0.5 0.5 0.5 0.5 0.5 0.5 0.5 0.5
0.5 0.5 0.5 0.5 0.5 0.5 0.5 0.5 0.5 0.5 0.5 0.5 0.5 0.5 0.5 0.5 0.5 0.5
0.5 0.5 0.5 0.5 0.5 0.5 0.5
##$SPOFFS=(0..63)
0 0 0 0 0 0 0 0 0 0 0 0 0 0 0 0 0 0 0 0 0 0 0 0 0 0 0 0 0 0 0 0 0 0 0 0
0 0 0 0 0 0 0 0 0 0 0 0 0 0 0 0 0 0 0 0 0 0 0 0 0 0 0 0
##$SPPEX=(0..63)
0 0 0 0 0 0 0 0 0 0 0 0 0 0 0 0 0 0 0 0 0 0 0 0 0 0 0 0 0 0 0 0 0 0 0 0
0 0 0 0 0 0 0 0 0 0 0 0 0 0 0 0 0 0 0 0 0 0 0 0 0 0 0 0
##$SPW=(0..63)
0 2.0754e-005 9.2239e-006 0 0 0.0072087 0.0001 0 2.5e-007 0 0.0072087 0.0072087
0 0 0 0 0 0 0 1.472397e-005 2.288794e-005 1.068705e-005 5.763436e-005 0
0 0 0 0 0 0.095493 1.7778 0 0 0 0.00010084 9.2239e-006 0.00059033 0 0 0
9.2239e-006 2.5e-007 0 0 0 0 0 0 0 0 0 0 0 0 0 0 0 0 0 0 0 0 0 0
##$SUBNAM=(0..9)
<> <> <> <> <> <> <> <> <> <>
##$SWIBOX=(0..19)
0 0 3 0 0 0 0 0 0 0 0 0 0 0 0 0 0 0 0 0
##$SW_h=7788.16199376947
##$SWfinal=0
##$SigLockShift=0
##$TD=65536
##$TD0=1
##$TD_INDIRECT=(0..7)
0 0 0 0 0 0 0 0
##$TDav=1
##$TE=318.099
##$TE1=300
##$TE2=300
##$TE3=300
##$TE4=300
##$TEG=300
##$TE_MAGNET=0
##$TE_PIDX=0
##$TE_STAB=(0..9)
0 0 0 0 0 0 0 0 0 0
##$TL=(0..7)
120 120 120 120 120 120 120 120
##$TOTROT=(0..63)
0 0 0 0 0 0 0 0 0 0 0 0 0 0 0 0 0 0 0 0 0 0 0 0 0 0 0 0 0 0 0 0 0 0 0 0
0 0 0 0 0 0 0 0 0 0 0 0 0 0 0 0 0 0 0 0 0 0 0 0 0 0 0 0
##$TUBE_TYPE=<>
##$USERA1=<>
##$USERA2=<>
##$USERA3=<>
##$USERA4=<>
##$USERA5=<>
##$V9=5
##$VALIDCODE=-1
##$VALIST=<>
##$VCLIST=<>
##$VDLIST=<>
##$VPLIST=<>
##$VTLIST=<>
##$WBST=1024
##$WBSW=4
##$XGAIN=(0..3)
0 0 0 0
##$XL=0
##$YL=0
##$YMAX_a=14118
##$YMIN_a=-12972
##$ZGOPTNS=<>
##$ZL1=120
##$ZL2=120
##$ZL3=120
##$ZL4=120
##$scaledByNS=no
##$scaledByRG=no
##$AMP0=100
##$AMP1=100
##$AMP2=100
##$AMP3=100
##$AMP4=100
##$AMP5=100
##$AMP6=100
##$AMP7=100
##$AMP8=100
##$AMP9=100
##$AMP10=100
##$AMP11=100
##$AMP12=100
##$AMP13=100
##$AMP14=100
##$AMP15=100
##$AMP16=100
##$AMP17=100
##$AMP18=100
##$AMP19=100
##$AMP20=100
##$AMP21=100
##$AMP22=100
##$AMP23=100
##$AMP24=100
##$AMP25=100
##$AMP26=100
##$AMP27=100
##$AMP28=100
##$AMP29=100
##$AMP30=100
##$AMP31=100
##$AMPCOIL0=-1
##$AMPCOIL1=0
##$AMPCOIL2=0
##$AMPCOIL3=0
##$AMPCOIL4=0
##$AMPCOIL5=0
##$AMPCOIL6=0
##$AMPCOIL7=0
##$AMPCOIL8=0
##$AMPCOIL9=0
##$AMPCOIL10=0
##$AMPCOIL11=0
##$AMPCOIL12=0
##$AMPCOIL13=0
##$AMPCOIL14=0
##$AMPCOIL15=0
##$AMPCOIL16=0
##$AMPCOIL17=0
##$AMPCOIL18=0
##$AMPCOIL19=0
##$BWFAC0=0
##$BWFAC1=0
##$BWFAC2=0
##$BWFAC3=0
##$BWFAC4=0
##$BWFAC5=0
##$BWFAC6=0
##$BWFAC7=0
##$BWFAC8=0
##$BWFAC9=0
##$BWFAC10=0
##$BWFAC11=0
##$BWFAC12=0
##$BWFAC13=0
##$BWFAC14=0
##$BWFAC15=0
##$BWFAC16=0
##$BWFAC17=0
##$BWFAC18=0
##$BWFAC19=0
##$BWFAC20=0
##$BWFAC21=0
##$BWFAC22=0
##$BWFAC23=0
##$BWFAC24=0
##$BWFAC25=0
##$BWFAC26=0
##$BWFAC27=0
##$BWFAC28=0
##$BWFAC29=0
##$BWFAC30=0
##$BWFAC31=0
##$BWFAC32=0
##$BWFAC33=0
##$BWFAC34=0
##$BWFAC35=0
##$BWFAC36=0
##$BWFAC37=0
##$BWFAC38=0
##$BWFAC39=0
##$BWFAC40=0
##$BWFAC41=0
##$BWFAC42=0
##$BWFAC43=0
##$BWFAC44=0
##$BWFAC45=0
##$BWFAC46=0
##$BWFAC47=0
##$BWFAC48=0
##$BWFAC49=0
##$BWFAC50=0
##$BWFAC51=0
##$BWFAC52=0
##$BWFAC53=0
##$BWFAC54=0
##$BWFAC55=0
##$BWFAC56=0
##$BWFAC57=0
##$BWFAC58=0
##$BWFAC59=0
##$BWFAC60=0
##$BWFAC61=0
##$BWFAC62=0
##$BWFAC63=0
##$CAGPARS0=0
##$CAGPARS1=0
##$CAGPARS2=0
##$CAGPARS3=0
##$CAGPARS4=0
##$CAGPARS5=0
##$CAGPARS6=0
##$CAGPARS7=0
##$CAGPARS8=0
##$CAGPARS9=0
##$CAGPARS10=0
##$CAGPARS11=0
##$CNST0=1
##$CNST1=1
##$CNST2=1
##$CNST3=1
##$CNST4=1
##$CNST5=1
##$CNST6=1
##$CNST7=1
##$CNST8=1
##$CNST9=1
##$CNST10=1
##$CNST11=1
##$CNST12=1
##$CNST13=1
##$CNST14=1
##$CNST15=1
##$CNST16=1
##$CNST17=1
##$CNST18=1
##$CNST19=1
##$CNST20=1
##$CNST21=1
##$CNST22=1
##$CNST23=1
##$CNST24=1
##$CNST25=1
##$CNST26=1
##$CNST27=1
##$CNST28=1
##$CNST29=1
##$CNST30=1
##$CNST31=1
##$CNST32=1
##$CNST33=1
##$CNST34=1
##$CNST35=1
##$CNST36=1
##$CNST37=1
##$CNST38=1
##$CNST39=1
##$CNST40=1
##$CNST41=1
##$CNST42=1
##$CNST43=1
##$CNST44=1
##$CNST45=1
##$CNST46=1
##$CNST47=1
##$CNST48=1
##$CNST49=1
##$CNST50=1
##$CNST51=1
##$CNST52=1
##$CNST53=1
##$CNST54=1
##$CNST55=1
##$CNST56=1
##$CNST57=1
##$CNST58=1
##$CNST59=1
##$CNST60=1
##$CNST61=1
##$CNST62=1
##$CNST63=1
##$CPDPRG0=<>
##$CPDPRG1=<>
##$CPDPRG2=<>
##$CPDPRG3=<>
##$CPDPRG4=<>
##$CPDPRG5=<>
##$CPDPRG6=<>
##$CPDPRG7=<>
##$CPDPRG8=<>
##$D0=0
##$D1=60
##$D2=0
##$D3=0
##$D4=0
##$D5=0
##$D6=0
##$D7=0
##$D8=0
##$D9=0
##$D10=0
##$D11=0
##$D12=0
##$D13=0
##$D14=0
##$D15=0
##$D16=0.0002
##$D17=0
##$D18=0
##$D19=0
##$D20=0
##$D21=0
##$D22=0
##$D23=0
##$D24=0
##$D25=0
##$D26=0
##$D27=0
##$D28=0
##$D29=0
##$D30=0
##$D31=0
##$D32=0
##$D33=0
##$D34=0
##$D35=0
##$D36=0
##$D37=0
##$D38=0
##$D39=0
##$D40=0
##$D41=0
##$D42=0
##$D43=0
##$D44=0
##$D45=0
##$D46=0
##$D47=0
##$D48=0
##$D49=0
##$D50=0
##$D51=0
##$D52=0
##$D53=0
##$D54=0
##$D55=0
##$D56=0
##$D57=0
##$D58=0
##$D59=0
##$D60=0
##$D61=0
##$D62=0
##$D63=0
##$FCUCHAN0=0
##$FCUCHAN1=2
##$FCUCHAN2=0
##$FCUCHAN3=0
##$FCUCHAN4=0
##$FCUCHAN5=0
##$FCUCHAN6=0
##$FCUCHAN7=0
##$FCUCHAN8=0
##$FCUCHAN9=0
##$FN_INDIRECT0=0
##$FN_INDIRECT1=0
##$FN_INDIRECT2=0
##$FN_INDIRECT3=0
##$FN_INDIRECT4=0
##$FN_INDIRECT5=0
##$FN_INDIRECT6=0
##$FN_INDIRECT7=0
##$FS0=83
##$FS1=83
##$FS2=83
##$FS3=83
##$FS4=83
##$FS5=83
##$FS6=83
##$FS7=83
##$GPNAM0=<>
##$GPNAM1=<>
##$GPNAM2=<>
##$GPNAM3=<>
##$GPNAM4=<>
##$GPNAM5=<>
##$GPNAM6=<>
##$GPNAM7=<>
##$GPNAM8=<>
##$GPNAM9=<>
##$GPNAM10=<>
##$GPNAM11=<>
##$GPNAM12=<>
##$GPNAM13=<>
##$GPNAM14=<>
##$GPNAM15=<>
##$GPNAM16=<>
##$GPNAM17=<>
##$GPNAM18=<>
##$GPNAM19=<>
##$GPNAM20=<>
##$GPNAM21=<>
##$GPNAM22=<>
##$GPNAM23=<>
##$GPNAM24=<>
##$GPNAM25=<>
##$GPNAM26=<>
##$GPNAM27=<>
##$GPNAM28=<>
##$GPNAM29=<>
##$GPNAM30=<>
##$GPNAM31=<>
##$GPX0=0
##$GPX1=0
##$GPX2=0
##$GPX3=0
##$GPX4=0
##$GPX5=0
##$GPX6=0
##$GPX7=0
##$GPX8=0
##$GPX9=0
##$GPX10=0
##$GPX11=0
##$GPX12=0
##$GPX13=0
##$GPX14=0
##$GPX15=0
##$GPX16=0
##$GPX17=0
##$GPX18=0
##$GPX19=0
##$GPX20=0
##$GPX21=0
##$GPX22=0
##$GPX23=0
##$GPX24=0
##$GPX25=0
##$GPX26=0
##$GPX27=0
##$GPX28=0
##$GPX29=0
##$GPX30=0
##$GPX31=0
##$GPY0=0
##$GPY1=0
##$GPY2=0
##$GPY3=0
##$GPY4=0
##$GPY5=0
##$GPY6=0
##$GPY7=0
##$GPY8=0
##$GPY9=0
##$GPY10=0
##$GPY11=0
##$GPY12=0
##$GPY13=0
##$GPY14=0
##$GPY15=0
##$GPY16=0
##$GPY17=0
##$GPY18=0
##$GPY19=0
##$GPY20=0
##$GPY21=0
##$GPY22=0
##$GPY23=0
##$GPY24=0
##$GPY25=0
##$GPY26=0
##$GPY27=0
##$GPY28=0
##$GPY29=0
##$GPY30=0
##$GPY31=0
##$GPZ0=0
##$GPZ1=0
##$GPZ2=0
##$GPZ3=0
##$GPZ4=0
##$GPZ5=0
##$GPZ6=0
##$GPZ7=0
##$GPZ8=0
##$GPZ9=0
##$GPZ10=0
##$GPZ11=0
##$GPZ12=0
##$GPZ13=0
##$GPZ14=0
##$GPZ15=0
##$GPZ16=0
##$GPZ17=0
##$GPZ18=0
##$GPZ19=0
##$GPZ20=0
##$GPZ21=0
##$GPZ22=0
##$GPZ23=0
##$GPZ24=0
##$GPZ25=0
##$GPZ26=0
##$GPZ27=0
##$GPZ28=0
##$GPZ29=0
##$GPZ30=0
##$GPZ31=0
##$HGAIN0=0
##$HGAIN1=0
##$HGAIN2=0
##$HGAIN3=0
##$HPMOD0=0
##$HPMOD1=0
##$HPMOD2=0
##$HPMOD3=0
##$HPMOD4=0
##$HPMOD5=0
##$HPMOD6=0
##$HPMOD7=0
##$IN0=0
##$IN1=0
##$IN2=0
##$IN3=0
##$IN4=0
##$IN5=0
##$IN6=0
##$IN7=0
##$IN8=0
##$IN9=0
##$IN10=0
##$IN11=0
##$IN12=0
##$IN13=0
##$IN14=0
##$IN15=0
##$IN16=0
##$IN17=0
##$IN18=0
##$IN19=0
##$IN20=0
##$IN21=0
##$IN22=0
##$IN23=0
##$IN24=0
##$IN25=0
##$IN26=0
##$IN27=0
##$IN28=0
##$IN29=0
##$IN30=0
##$IN31=0
##$IN32=0
##$IN33=0
##$IN34=0
##$IN35=0
##$IN36=0
##$IN37=0
##$IN38=0
##$IN39=0
##$IN40=0
##$IN41=0
##$IN42=0
##$IN43=0
##$IN44=0
##$IN45=0
##$IN46=0
##$IN47=0
##$IN48=0
##$IN49=0
##$IN50=0
##$IN51=0
##$IN52=0
##$IN53=0
##$IN54=0
##$IN55=0
##$IN56=0
##$IN57=0
##$IN58=0
##$IN59=0
##$IN60=0
##$IN61=0
##$IN62=0
##$IN63=0
##$INF0=0
##$INF1=0
##$INF2=0
##$INF3=0
##$INF4=0
##$INF5=0
##$INF6=0
##$INF7=0
##$INP0=0
##$INP1=0
##$INP2=0
##$INP3=0
##$INP4=0
##$INP5=0
##$INP6=0
##$INP7=0
##$INP8=0
##$INP9=0
##$INP10=0
##$INP11=0
##$INP12=0
##$INP13=0
##$INP14=0
##$INP15=0
##$INP16=0
##$INP17=0
##$INP18=0
##$INP19=0
##$INP20=0
##$INP21=0
##$INP22=0
##$INP23=0
##$INP24=0
##$INP25=0
##$INP26=0
##$INP27=0
##$INP28=0
##$INP29=0
##$INP30=0
##$INP31=0
##$INP32=0
##$INP33=0
##$INP34=0
##$INP35=0
##$INP36=0
##$INP37=0
##$INP38=0
##$INP39=0
##$INP40=0
##$INP41=0
##$INP42=0
##$INP43=0
##$INP44=0
##$INP45=0
##$INP46=0
##$INP47=0
##$INP48=0
##$INP49=0
##$INP50=0
##$INP51=0
##$INP52=0
##$INP53=0
##$INP54=0
##$INP55=0
##$INP56=0
##$INP57=0
##$INP58=0
##$INP59=0
##$INP60=0
##$INP61=0
##$INP62=0
##$INP63=0
##$INTEGFAC0=0
##$INTEGFAC1=0
##$INTEGFAC2=0
##$INTEGFAC3=0
##$INTEGFAC4=0
##$INTEGFAC5=0
##$INTEGFAC6=0
##$INTEGFAC7=0
##$INTEGFAC8=0
##$INTEGFAC9=0
##$INTEGFAC10=0
##$INTEGFAC11=0
##$INTEGFAC12=0
##$INTEGFAC13=0
##$INTEGFAC14=0
##$INTEGFAC15=0
##$INTEGFAC16=0
##$INTEGFAC17=0
##$INTEGFAC18=0
##$INTEGFAC19=0
##$INTEGFAC20=0
##$INTEGFAC21=0
##$INTEGFAC22=0
##$INTEGFAC23=0
##$INTEGFAC24=0
##$INTEGFAC25=0
##$INTEGFAC26=0
##$INTEGFAC27=0
##$INTEGFAC28=0
##$INTEGFAC29=0
##$INTEGFAC30=0
##$INTEGFAC31=0
##$INTEGFAC32=0
##$INTEGFAC33=0
##$INTEGFAC34=0
##$INTEGFAC35=0
##$INTEGFAC36=0
##$INTEGFAC37=0
##$INTEGFAC38=0
##$INTEGFAC39=0
##$INTEGFAC40=0
##$INTEGFAC41=0
##$INTEGFAC42=0
##$INTEGFAC43=0
##$INTEGFAC44=0
##$INTEGFAC45=0
##$INTEGFAC46=0
##$INTEGFAC47=0
##$INTEGFAC48=0
##$INTEGFAC49=0
##$INTEGFAC50=0
##$INTEGFAC51=0
##$INTEGFAC52=0
##$INTEGFAC53=0
##$INTEGFAC54=0
##$INTEGFAC55=0
##$INTEGFAC56=0
##$INTEGFAC57=0
##$INTEGFAC58=0
##$INTEGFAC59=0
##$INTEGFAC60=0
##$INTEGFAC61=0
##$INTEGFAC62=0
##$INTEGFAC63=0
##$L0=1
##$L1=1
##$L2=1
##$L3=1
##$L4=1
##$L5=1
##$L6=1
##$L7=1
##$L8=1
##$L9=1
##$L10=1
##$L11=1
##$L12=1
##$L13=1
##$L14=1
##$L15=1
##$L16=1
##$L17=1
##$L18=1
##$L19=1
##$L20=1
##$L21=1
##$L22=1
##$L23=1
##$L24=1
##$L25=1
##$L26=1
##$L27=1
##$L28=1
##$L29=1
##$L30=1
##$L31=1
##$MULEXPNO0=0
##$MULEXPNO1=0
##$MULEXPNO2=0
##$MULEXPNO3=0
##$MULEXPNO4=0
##$MULEXPNO5=0
##$MULEXPNO6=0
##$MULEXPNO7=0
##$MULEXPNO8=0
##$MULEXPNO9=0
##$MULEXPNO10=0
##$MULEXPNO11=0
##$MULEXPNO12=0
##$MULEXPNO13=0
##$MULEXPNO14=0
##$MULEXPNO15=0
##$P0=3.333333
##$P1=10
##$P2=20
##$P3=0
##$P4=0
##$P5=19.8
##$P6=30
##$P7=60
##$P8=20000
##$P9=0
##$P10=0
##$P11=80000
##$P12=80000
##$P13=1000
##$P14=0
##$P15=0
##$P16=1000
##$P17=2500
##$P18=100000
##$P19=600
##$P20=0
##$P21=0
##$P22=0
##$P23=0
##$P24=0
##$P25=270
##$P26=100000
##$P27=10
##$P28=1000
##$P29=1000
##$P30=0
##$P31=0
##$P32=20000
##$P33=0
##$P34=0
##$P35=0
##$P36=0
##$P37=0
##$P38=0
##$P39=0
##$P40=2000
##$P41=0
##$P42=0
##$P43=0
##$P44=300
##$P45=0
##$P46=80000
##$P47=46600
##$P48=10000
##$P49=0
##$P50=80000
##$P51=0
##$P52=0
##$P53=0
##$P54=0
##$P55=0
##$P56=0
##$P57=0
##$P58=0
##$P59=0
##$P60=0
##$P61=0
##$P62=0
##$P63=0
##$PACOIL0=2
##$PACOIL1=3
##$PACOIL2=1
##$PACOIL3=0
##$PACOIL4=0
##$PACOIL5=0
##$PACOIL6=0
##$PACOIL7=0
##$PACOIL8=0
##$PACOIL9=0
##$PACOIL10=0
##$PACOIL11=0
##$PACOIL12=0
##$PACOIL13=0
##$PACOIL14=0
##$PACOIL15=0
##$PCPD0=0
##$PCPD1=90
##$PCPD2=0
##$PCPD3=0
##$PCPD4=0
##$PCPD5=0
##$PCPD6=0
##$PCPD7=0
##$PCPD8=0
##$PCPD9=0
##$PEXSEL0=1
##$PEXSEL1=1
##$PEXSEL2=1
##$PEXSEL3=1
##$PEXSEL4=1
##$PEXSEL5=1
##$PEXSEL6=1
##$PEXSEL7=1
##$PEXSEL8=1
##$PEXSEL9=1
##$PHCOR0=0
##$PHCOR1=0
##$PHCOR2=0
##$PHCOR3=0
##$PHCOR4=0
##$PHCOR5=0
##$PHCOR6=0
##$PHCOR7=0
##$PHCOR8=0
##$PHCOR9=0
##$PHCOR10=0
##$PHCOR11=0
##$PHCOR12=0
##$PHCOR13=0
##$PHCOR14=0
##$PHCOR15=0
##$PHCOR16=0
##$PHCOR17=0
##$PHCOR18=0
##$PHCOR19=0
##$PHCOR20=0
##$PHCOR21=0
##$PHCOR22=0
##$PHCOR23=0
##$PHCOR24=0
##$PHCOR25=0
##$PHCOR26=0
##$PHCOR27=0
##$PHCOR28=0
##$PHCOR29=0
##$PHCOR30=0
##$PHCOR31=0
##$PL0=120
##$PL1=120
##$PL2=120
##$PL3=120
##$PL4=120
##$PL5=120
##$PL6=120
##$PL7=120
##$PL8=120
##$PL9=120
##$PL10=120
##$PL11=120
##$PL12=120
##$PL13=120
##$PL14=120
##$PL15=120
##$PL16=120
##$PL17=120
##$PL18=120
##$PL19=120
##$PL20=120
##$PL21=120
##$PL22=120
##$PL23=120
##$PL24=120
##$PL25=120
##$PL26=120
##$PL27=120
##$PL28=120
##$PL29=120
##$PL30=120
##$PL31=120
##$PL32=120
##$PL33=120
##$PL34=120
##$PL35=120
##$PL36=120
##$PL37=120
##$PL38=120
##$PL39=120
##$PL40=120
##$PL41=120
##$PL42=120
##$PL43=120
##$PL44=120
##$PL45=120
##$PL46=120
##$PL47=120
##$PL48=120
##$PL49=120
##$PL50=120
##$PL51=120
##$PL52=120
##$PL53=120
##$PL54=120
##$PL55=120
##$PL56=120
##$PL57=120
##$PL58=120
##$PL59=120
##$PL60=120
##$PL61=120
##$PL62=120
##$PL63=120
##$PLW0=0
##$PLW1=25
##$PLW2=0
##$PLW3=0
##$PLW4=0
##$PLW5=0
##$PLW6=0
##$PLW7=0
##$PLW8=0
##$PLW9=0.0001
##$PLW10=2.7778
##$PLW11=0.14793
##$PLW12=0
##$PLW13=0
##$PLW14=0
##$PLW15=0
##$PLW16=0
##$PLW17=0
##$PLW18=25
##$PLW19=0.30864
##$PLW20=0
##$PLW21=0
##$PLW22=0
##$PLW23=0
##$PLW24=0
##$PLW25=0
##$PLW26=0
##$PLW27=0.13717
##$PLW28=0
##$PLW29=2.7778
##$PLW30=0
##$PLW31=0
##$PLW32=0.000004
##$PLW33=0
##$PLW34=0
##$PLW35=0
##$PLW36=0
##$PLW37=0
##$PLW38=0
##$PLW39=0
##$PLW40=0
##$PLW41=0
##$PLW42=0
##$PLW43=0
##$PLW44=0
##$PLW45=0
##$PLW46=0
##$PLW47=0
##$PLW48=0
##$PLW49=0
##$PLW50=0
##$PLW51=0
##$PLW52=0
##$PLW53=0
##$PLW54=0
##$PLW55=0
##$PLW56=0
##$PLW57=0
##$PLW58=0
##$PLW59=0
##$PLW60=0
##$PLW61=0
##$PLW62=0
##$PLW63=0
##$PLWMAX0=50
##$PLWMAX1=0
##$PLWMAX2=0
##$PLWMAX3=0
##$PLWMAX4=0
##$PLWMAX5=0
##$PLWMAX6=0
##$PLWMAX7=0
##$PRECHAN0=-1
##$PRECHAN1=2
##$PRECHAN2=3
##$PRECHAN3=0
##$PRECHAN4=1
##$PRECHAN5=-1
##$PRECHAN6=-1
##$PRECHAN7=-1
##$PRECHAN8=-1
##$PRECHAN9=-1
##$PRECHAN10=-1
##$PRECHAN11=-1
##$PRECHAN12=-1
##$PRECHAN13=-1
##$PRECHAN14=-1
##$PRECHAN15=-1
##$PROBINPUTS0=<19F-109Ag>
##$PROBINPUTS1=<1H>
##$PROBINPUTS2=<2H>
##$PROBINPUTS3=<>
##$PROBINPUTS4=<>
##$PROBINPUTS5=<>
##$PROBINPUTS6=<>
##$PROBINPUTS7=<>
##$PROBINPUTS8=<>
##$PROBINPUTS9=<>
##$PROBINPUTS10=<>
##$PROBINPUTS11=<>
##$PROBINPUTS12=<>
##$PROBINPUTS13=<>
##$PROBINPUTS14=<>
##$PROBINPUTS15=<>
##$RECCHAN0=0
##$RECCHAN1=2
##$RECCHAN2=0
##$RECCHAN3=0
##$RECCHAN4=0
##$RECCHAN5=0
##$RECCHAN6=0
##$RECCHAN7=0
##$RECCHAN8=0
##$RECCHAN9=0
##$RECCHAN10=0
##$RECCHAN11=0
##$RECCHAN12=0
##$RECCHAN13=0
##$RECCHAN14=0
##$RECCHAN15=0
##$RECPRE0=-1
##$RECPRE1=0
##$RECPRE2=-1
##$RECPRE3=-1
##$RECPRE4=-1
##$RECPRE5=-1
##$RECPRE6=-1
##$RECPRE7=-1
##$RECPRE8=-1
##$RECPRE9=-1
##$RECPRE10=-1
##$RECPRE11=-1
##$RECPRE12=-1
##$RECPRE13=-1
##$RECPRE14=-1
##$RECPRE15=-1
##$RECPRFX0=1
##$RECPRFX1=0
##$RECPRFX2=0
##$RECPRFX3=0
##$RECPRFX4=0
##$RECPRFX5=0
##$RECPRFX6=0
##$RECPRFX7=0
##$RECPRFX8=0
##$RECPRFX9=0
##$RECPRFX10=0
##$RECPRFX11=0
##$RECPRFX12=0
##$RECPRFX13=0
##$RECPRFX14=0
##$RECPRFX15=0
##$RECSEL0=0
##$RECSEL1=0
##$RECSEL2=1
##$RECSEL3=0
##$RECSEL4=0
##$RECSEL5=0
##$RECSEL6=0
##$RECSEL7=0
##$RECSEL8=0
##$RECSEL9=0
##$RECSEL10=0
##$RECSEL11=0
##$RECSEL12=0
##$RECSEL13=0
##$RECSEL14=0
##$RECSEL15=0
##$RSEL0=0
##$RSEL1=0
##$RSEL2=2
##$RSEL3=0
##$RSEL4=0
##$RSEL5=0
##$RSEL6=0
##$RSEL7=0
##$RSEL8=0
##$RSEL9=0
##$RSEL10=0
##$RSEL11=0
##$RSEL12=0
##$RSEL13=0
##$RSEL14=0
##$RSEL15=0
##$S0=83
##$S1=83
##$S2=83
##$S3=83
##$S4=83
##$S5=83
##$S6=83
##$S7=83
##$SELREC0=0
##$SELREC1=0
##$SELREC2=0
##$SELREC3=0
##$SELREC4=0
##$SELREC5=0
##$SELREC6=0
##$SELREC7=0
##$SELREC8=0
##$SELREC9=0
##$SP0=120
##$SP1=120
##$SP2=120
##$SP3=120
##$SP4=120
##$SP5=120
##$SP6=120
##$SP7=120
##$SP8=120
##$SP9=120
##$SP10=120
##$SP11=120
##$SP12=120
##$SP13=120
##$SP14=120
##$SP15=120
##$SP16=120
##$SP17=120
##$SP18=120
##$SP19=120
##$SP20=120
##$SP21=120
##$SP22=120
##$SP23=120
##$SP24=120
##$SP25=120
##$SP26=120
##$SP27=120
##$SP28=120
##$SP29=120
##$SP30=120
##$SP31=120
##$SP32=120
##$SP33=120
##$SP34=120
##$SP35=120
##$SP36=120
##$SP37=120
##$SP38=120
##$SP39=120
##$SP40=120
##$SP41=120
##$SP42=120
##$SP43=120
##$SP44=120
##$SP45=120
##$SP46=120
##$SP47=120
##$SP48=120
##$SP49=120
##$SP50=120
##$SP51=120
##$SP52=120
##$SP53=120
##$SP54=120
##$SP55=120
##$SP56=120
##$SP57=120
##$SP58=120
##$SP59=120
##$SP60=120
##$SP61=120
##$SP62=120
##$SP63=120
##$SPNAM0=<>
##$SPNAM1=<Gaus1_270.1000>
##$SPNAM2=<Gaus1_180r.1000>
##$SPNAM3=<>
##$SPNAM4=<>
##$SPNAM5=<Sinc1.1000>
##$SPNAM6=<Squa100.1000>
##$SPNAM7=<>
##$SPNAM8=<Squa100.1000>
##$SPNAM9=<>
##$SPNAM10=<Sinc1.1000>
##$SPNAM11=<Sinc1.1000>
##$SPNAM12=<>
##$SPNAM13=<>
##$SPNAM14=<>
##$SPNAM15=<>
##$SPNAM16=<>
##$SPNAM17=<>
##$SPNAM18=<>
##$SPNAM19=<Sinc1.1000>
##$SPNAM20=<Sinc1.1000>
##$SPNAM21=<Sinc1.1000>
##$SPNAM22=<Sinc1.1000>
##$SPNAM23=<>
##$SPNAM24=<>
##$SPNAM25=<>
##$SPNAM26=<>
##$SPNAM27=<>
##$SPNAM28=<>
##$SPNAM29=<Crp60
##$SPNAM30=20
##$SPNAM31=20.10>
##$SPNAM32=<Bip720
##$SPNAM33=50
##$SPNAM34=20.1>
##$SPNAM35=<>
##$SPNAM36=<>
##$SPNAM37=<>
##$SPNAM38=<Rsnob.1000>
##$SPNAM39=<Gaus1_180r.1000>
##$SPNAM40=<Gaus1_180r.1000>
##$SPNAM41=<>
##$SPNAM42=<>
##$SPNAM43=<>
##$SPNAM44=<Gaus1_180r.1000>
##$SPNAM45=<Squa100.1000>
##$SPNAM46=<>
##$SPNAM47=<>
##$SPNAM48=<>
##$SPNAM49=<>
##$SPNAM50=<>
##$SPNAM51=<>
##$SPNAM52=<>
##$SPNAM53=<>
##$SPNAM54=<>
##$SPNAM55=<>
##$SPNAM56=<>
##$SPNAM57=<>
##$SPNAM58=<>
##$SPNAM59=<>
##$SPNAM60=<>
##$SPNAM61=<>
##$SPNAM62=<>
##$SPNAM63=<>
##$SPOAL0=0.5
##$SPOAL1=1
##$SPOAL2=0.5
##$SPOAL3=0.5
##$SPOAL4=0.5
##$SPOAL5=0.5
##$SPOAL6=0.5
##$SPOAL7=0.5
##$SPOAL8=0.5
##$SPOAL9=0.5
##$SPOAL10=0.5
##$SPOAL11=0.5
##$SPOAL12=0.5
##$SPOAL13=0.5
##$SPOAL14=0.5
##$SPOAL15=0.5
##$SPOAL16=0.5
##$SPOAL17=0.5
##$SPOAL18=0.5
##$SPOAL19=1
##$SPOAL20=1
##$SPOAL21=1
##$SPOAL22=1
##$SPOAL23=0.5
##$SPOAL24=0.5
##$SPOAL25=0.5
##$SPOAL26=0.5
##$SPOAL27=0.5
##$SPOAL28=0.5
##$SPOAL29=0.5
##$SPOAL30=0.5
##$SPOAL31=0.5
##$SPOAL32=0.5
##$SPOAL33=0.5
##$SPOAL34=0.5
##$SPOAL35=0.5
##$SPOAL36=0.5
##$SPOAL37=0.5
##$SPOAL38=0.5
##$SPOAL39=0.5
##$SPOAL40=0.5
##$SPOAL41=0.5
##$SPOAL42=0.5
##$SPOAL43=0.5
##$SPOAL44=0.5
##$SPOAL45=0.5
##$SPOAL46=0.5
##$SPOAL47=0.5
##$SPOAL48=0.5
##$SPOAL49=0.5
##$SPOAL50=0.5
##$SPOAL51=0.5
##$SPOAL52=0.5
##$SPOAL53=0.5
##$SPOAL54=0.5
##$SPOAL55=0.5
##$SPOAL56=0.5
##$SPOAL57=0.5
##$SPOAL58=0.5
##$SPOAL59=0.5
##$SPOAL60=0.5
##$SPOAL61=0.5
##$SPOAL62=0.5
##$SPOAL63=0.5
##$SPOFFS0=0
##$SPOFFS1=0
##$SPOFFS2=0
##$SPOFFS3=0
##$SPOFFS4=0
##$SPOFFS5=0
##$SPOFFS6=0
##$SPOFFS7=0
##$SPOFFS8=0
##$SPOFFS9=0
##$SPOFFS10=0
##$SPOFFS11=0
##$SPOFFS12=0
##$SPOFFS13=0
##$SPOFFS14=0
##$SPOFFS15=0
##$SPOFFS16=0
##$SPOFFS17=0
##$SPOFFS18=0
##$SPOFFS19=0
##$SPOFFS20=0
##$SPOFFS21=0
##$SPOFFS22=0
##$SPOFFS23=0
##$SPOFFS24=0
##$SPOFFS25=0
##$SPOFFS26=0
##$SPOFFS27=0
##$SPOFFS28=0
##$SPOFFS29=0
##$SPOFFS30=0
##$SPOFFS31=0
##$SPOFFS32=0
##$SPOFFS33=0
##$SPOFFS34=0
##$SPOFFS35=0
##$SPOFFS36=0
##$SPOFFS37=0
##$SPOFFS38=0
##$SPOFFS39=0
##$SPOFFS40=0
##$SPOFFS41=0
##$SPOFFS42=0
##$SPOFFS43=0
##$SPOFFS44=0
##$SPOFFS45=0
##$SPOFFS46=0
##$SPOFFS47=0
##$SPOFFS48=0
##$SPOFFS49=0
##$SPOFFS50=0
##$SPOFFS51=0
##$SPOFFS52=0
##$SPOFFS53=0
##$SPOFFS54=0
##$SPOFFS55=0
##$SPOFFS56=0
##$SPOFFS57=0
##$SPOFFS58=0
##$SPOFFS59=0
##$SPOFFS60=0
##$SPOFFS61=0
##$SPOFFS62=0
##$SPOFFS63=0
##$SPPEX0=0
##$SPPEX1=0
##$SPPEX2=0
##$SPPEX3=0
##$SPPEX4=0
##$SPPEX5=0
##$SPPEX6=0
##$SPPEX7=0
##$SPPEX8=0
##$SPPEX9=0
##$SPPEX10=0
##$SPPEX11=0
##$SPPEX12=0
##$SPPEX13=0
##$SPPEX14=0
##$SPPEX15=0
##$SPPEX16=0
##$SPPEX17=0
##$SPPEX18=0
##$SPPEX19=0
##$SPPEX20=0
##$SPPEX21=0
##$SPPEX22=0
##$SPPEX23=0
##$SPPEX24=0
##$SPPEX25=0
##$SPPEX26=0
##$SPPEX27=0
##$SPPEX28=0
##$SPPEX29=0
##$SPPEX30=0
##$SPPEX31=0
##$SPPEX32=0
##$SPPEX33=0
##$SPPEX34=0
##$SPPEX35=0
##$SPPEX36=0
##$SPPEX37=0
##$SPPEX38=0
##$SPPEX39=0
##$SPPEX40=0
##$SPPEX41=0
##$SPPEX42=0
##$SPPEX43=0
##$SPPEX44=0
##$SPPEX45=0
##$SPPEX46=0
##$SPPEX47=0
##$SPPEX48=0
##$SPPEX49=0
##$SPPEX50=0
##$SPPEX51=0
##$SPPEX52=0
##$SPPEX53=0
##$SPPEX54=0
##$SPPEX55=0
##$SPPEX56=0
##$SPPEX57=0
##$SPPEX58=0
##$SPPEX59=0
##$SPPEX60=0
##$SPPEX61=0
##$SPPEX62=0
##$SPPEX63=0
##$SPW0=0
##$SPW1=0.000020754
##$SPW2=0.0000092239
##$SPW3=0
##$SPW4=0
##$SPW5=0.0072087
##$SPW6=0.0001
##$SPW7=0
##$SPW8=2.5e-7
##$SPW9=0
##$SPW10=0.0072087
##$SPW11=0.0072087
##$SPW12=0
##$SPW13=0
##$SPW14=0
##$SPW15=0
##$SPW16=0
##$SPW17=0
##$SPW18=0
##$SPW19=0.00001472397
##$SPW20=0.00002288794
##$SPW21=0.00001068705
##$SPW22=0.00005763436
##$SPW23=0
##$SPW24=0
##$SPW25=0
##$SPW26=0
##$SPW27=0
##$SPW28=0
##$SPW29=0.095493
##$SPW30=1.7778
##$SPW31=0
##$SPW32=0
##$SPW33=0
##$SPW34=0.00010084
##$SPW35=0.0000092239
##$SPW36=0.00059033
##$SPW37=0
##$SPW38=0
##$SPW39=0
##$SPW40=0.0000092239
##$SPW41=2.5e-7
##$SPW42=0
##$SPW43=0
##$SPW44=0
##$SPW45=0
##$SPW46=0
##$SPW47=0
##$SPW48=0
##$SPW49=0
##$SPW50=0
##$SPW51=0
##$SPW52=0
##$SPW53=0
##$SPW54=0
##$SPW55=0
##$SPW56=0
##$SPW57=0
##$SPW58=0
##$SPW59=0
##$SPW60=0
##$SPW61=0
##$SPW62=0
##$SPW63=0
##$SUBNAM0=<>
##$SUBNAM1=<>
##$SUBNAM2=<>
##$SUBNAM3=<>
##$SUBNAM4=<>
##$SUBNAM5=<>
##$SUBNAM6=<>
##$SUBNAM7=<>
##$SUBNAM8=<>
##$SUBNAM9=<>
##$SWIBOX0=0
##$SWIBOX1=0
##$SWIBOX2=3
##$SWIBOX3=0
##$SWIBOX4=0
##$SWIBOX5=0
##$SWIBOX6=0
##$SWIBOX7=0
##$SWIBOX8=0
##$SWIBOX9=0
##$SWIBOX10=0
##$SWIBOX11=0
##$SWIBOX12=0
##$SWIBOX13=0
##$SWIBOX14=0
##$SWIBOX15=0
##$SWIBOX16=0
##$SWIBOX17=0
##$SWIBOX18=0
##$SWIBOX19=0
##$TD_INDIRECT0=0
##$TD_INDIRECT1=0
##$TD_INDIRECT2=0
##$TD_INDIRECT3=0
##$TD_INDIRECT4=0
##$TD_INDIRECT5=0
##$TD_INDIRECT6=0
##$TD_INDIRECT7=0
##$TE_STAB0=0
##$TE_STAB1=0
##$TE_STAB2=0
##$TE_STAB3=0
##$TE_STAB4=0
##$TE_STAB5=0
##$TE_STAB6=0
##$TE_STAB7=0
##$TE_STAB8=0
##$TE_STAB9=0
##$TL0=120
##$TL1=120
##$TL2=120
##$TL3=120
##$TL4=120
##$TL5=120
##$TL6=120
##$TL7=120
##$TOTROT0=0
##$TOTROT1=0
##$TOTROT2=0
##$TOTROT3=0
##$TOTROT4=0
##$TOTROT5=0
##$TOTROT6=0
##$TOTROT7=0
##$TOTROT8=0
##$TOTROT9=0
##$TOTROT10=0
##$TOTROT11=0
##$TOTROT12=0
##$TOTROT13=0
##$TOTROT14=0
##$TOTROT15=0
##$TOTROT16=0
##$TOTROT17=0
##$TOTROT18=0
##$TOTROT19=0
##$TOTROT20=0
##$TOTROT21=0
##$TOTROT22=0
##$TOTROT23=0
##$TOTROT24=0
##$TOTROT25=0
##$TOTROT26=0
##$TOTROT27=0
##$TOTROT28=0
##$TOTROT29=0
##$TOTROT30=0
##$TOTROT31=0
##$TOTROT32=0
##$TOTROT33=0
##$TOTROT34=0
##$TOTROT35=0
##$TOTROT36=0
##$TOTROT37=0
##$TOTROT38=0
##$TOTROT39=0
##$TOTROT40=0
##$TOTROT41=0
##$TOTROT42=0
##$TOTROT43=0
##$TOTROT44=0
##$TOTROT45=0
##$TOTROT46=0
##$TOTROT47=0
##$TOTROT48=0
##$TOTROT49=0
##$TOTROT50=0
##$TOTROT51=0
##$TOTROT52=0
##$TOTROT53=0
##$TOTROT54=0
##$TOTROT55=0
##$TOTROT56=0
##$TOTROT57=0
##$TOTROT58=0
##$TOTROT59=0
##$TOTROT60=0
##$TOTROT61=0
##$TOTROT62=0
##$TOTROT63=0
##$XGAIN0=0
##$XGAIN1=0
##$XGAIN2=0
##$XGAIN3=0
##$TITLE_FILE=Spintropy Username asu_chm343
2023_06_04_AcAc_MeOH_1H_1Scan_Temp_Bruker400
3 mm FS NMR Tube, AcAc in d4-MeOD
1H, 32 Scans, 60 s Delay, Bruker 400 MHz NMR.
Temperature - 318K 2 of 4

##$observeFrequency=400.130007272487
##$brukerReference=400.130007272487
##$OFFSET=-1.9759388049314488
##$SW=19.4639278408014
##$BF1=400.13
##$NC_proc=-13
##XUNITS=HZ
##YUNITS=ARBITRARY UNITS
##XFACTOR=0.05941987472069672
##YFACTOR=1
##DELTAX=0.059419874720902044
##FIRSTX=0
##FIRSTY=148216
##LASTX=7788.22239951644
##MAXY=502262766
##MINY=-1200680
##NPOINTS=131072
##XYDATA=(X++(Y..Y))
131071A48216O4347R7099R7698L7805m2640q5507q4987p8327q0364o6383k4503J2471J0169j5592j9134J1811M0676
131054B2855L1432r725m9471o5319n4968k1719K8957P9485J04936R6113O8596M1517J6113j4377m2417n2582m8811
131037A30615n2715o6254n8340p320N9765R5039Q7197O4468M6658K7213M926l170N171L905k0061m0355l3274k1147
131019B22321l7059o3828n3527n265K3039n353n2427n6757j2937K9016L0447K731j8123j3767M147J1771j306j9824
131001a6701j7784J0370L9506M2668K3612Q037N808o82k5272n0509m5640o293L8592O0862O1534N8361N5930M2403
130983B84802J4366j0654j4626l403P80j0743k1139j0386J6395L0244J0366k8191m5091j7349L2350N8457M3559J4918
130965C44655M259M246j8145o8841j08942j00108n3819j7435j5000k2153p633J9569K6225R914P279L7419O5279M7021
130947A53790n585l9096l0231p128M656J7443M4237O2152M5308J0934m570l354k1504o9036j11372j18523j01441
130930a73320q5468p2414m7855j0528K4534M5915N6022O3999P4568Q0786O6912K6205k2693m7094l2574J818K1949
130913b9238P508l2360o2440m7445R304N8861N9028K9496K7396O7095R9138Q2053M0207K3050L3043L0103m688m6448
130895C43663o7662p1275p4438q1200q3116p4425n6600l3592p891K0647N1512P6698Q2129O1890K6848n594k4760
130878H2834k6806j3173L641O439k798R03K9693N6537M5917J789l7699m7542l5071j7446o492j3955m2124o4329m3080
130859a22762K1798Q6442J13758J07528Q6107N0202l472n8701r3936j06514j04024q5777n2736k2633j3417k1136
130843b19273l1866m1832m5298k0946L7722R0419Q7402L7751K054J0057K3341l695n8875r3037q2702m5346o374K3803
130825c36695M5763O3217P6696P5610M6296k295l5530l0448k562K0368L4703M9200N3327K8795j3155l7208k9087
130808F995j0521p304k4944n5399q2347p9807l5907J6672K5132j8105o3244o7398m0093j0535J5576M2946O2282O9005
130790b56996P9984R9604R4318L9184l0243n4769k7207J0628L4817N5633P1857O1020K4301m075n692K116N887J4124
130772B14491K1712J325m5440o9078l5166K5927O2543O4748N3075L5279J1745j837J620o346n1149j05160j19107
130755E9182r1883o4784n4012l7551r879J32k0573m3378m1687k6687j8541j0980R652K9998K1392k0633o6806q2417
130737d69455n7040j0159K7289L9561L5018K7699K0188J3013J6264L3274M4799L2447Q092n491j2102k7974l9842
130720c24419j8812K4182M1375J5450j8421l0577l2813l6787k1668K4785O9203P3752M8505K9335K6602K7842K8042
130703g4424K2983n242n7834r2982p0332q433M0904O1423P2363P2041L5183k9415o8091m6109J2676O3568Q7919Q9918
130685A06116P6060N3080K4832j6642p2672j06894o8380L6732J26906J23916L3749o7877j13479r1843l8115Q00o83
130668E606l0685n7239o3203n3428l1195O446M3938M8422J3694k1766k2486m73J3183K2584N9101J22892J62305
130651B17696J24017J5919q5975j00279k2564N9172N5082j9967o4777k5925L2676K4750l8625p7449o2241l9036m1435
130634d8961m4554k2440M432P554l709n262J599K452Q04R644K5996L5007K8460O130k5021m1598j6823M0262Q2545
130615C6517Q2920O9794P8232R2028P2322K5323m735Tq640l7792o6927o6009m3522k7954k9511l8774m5154m0489
130597D2894k0262L733O605j9739n2918o7350n9564l5513N629N4787P9455N6181R053j1774R960M0921M5464K9132
130579A16694K6781N8456J03726J16987P0632j2638p7574r2688p7606o5631n8203l7794r452L632P21M756J8770J4710
130561A04279k1407o1123o7124l4872J3223N4513P2505N8356K5312M590Q817J6720J1855J4488M7590Q8381Q7809
130544D23912L1912m6660j14104j60419j78549j54405r2394k7022Q427J2580O058L863O532P403j03j5020k4738j6834
130526c29561L672J9465K3108K0364J2073q085l3029l9211j4554K5608N9542Q0480Q7404P3820M3086J9602K2033
130509F5817L3069J8900k2286n3148m4350j1718M613j1663l7816m1764j6155J9550M2536M4807L2685K0141K4394
130492F7612N4358R3687J05335O7346k6n4002p0257n2686j3681L2584O1989N3402J5950j7290k7583k2490r066J5322
130474C00504L6982K4231k7515p5021p5575l5868Q853M1327O0844N7573K3812k1338n0804o1907n8868k0916O5253
130457A91567J47381J37868J9434j20736j83818j54511q6090k7562M213Q913m31N263M3896R2259J05096O4259n756
130440B41245o6184r1720p5773k9146K2777N5405O3964O3565P1565R2780J15278J14547P0470r176q7578j30564
130424D21455j34375j15051q1652l5002J4281M6111N1032L7228J6396o220k7513m3842n4987o2166o1934n0678l3291
130407a20208j5541J1446O3689J35364J89203J84921J13134j74j12061j80826j80659j16270k4357M9426Q0686P4782
130391A52555N0666K3184R6j2888j2634m736k815j4349k6825j5935K6007P4356R3077P0254K5340j6648m6951o7902
130373B93852p9663q0383p0463m7654o125M7255Q2093O7656J0738m2523n0311j3739L2589N9179O1806N0649L4946
130356C49902K2325K1851L6190N1330M3560L337n0425q6740r3397q3888p1934n1939j6155J9638K9837J8694K2131
130339A64317N7927R3237Q0775J6611n6115r2737p8710k6380L3568O0294L1470k8198o8128o8745n8230o7970r5025
130322a02039j16991j17578q4394j0683P8848J30775J21154R0569Q9228J05493Q7569K4611l7271n8667m5450k0048
130306A35126M954J4190r945n5966q3845p3448m2938o593M5226J00176J02115K0613q4252j16702n5756L0374P2974
130289c697O3158K5389k2110o4736q3503p0757l6107J2674P3860J28868J41252R6794K8375j6204k1183p049j44j0275
130271B34605k8907l8665l0893j9210k5822n0550o7358n7433k9510M48L0010N6770O3242L6614p388l9590m7463l4387
130253e5487l636L3684M8106K0715k2620l8655k7376k8647n2701n6354r798N0698P0610N0867L4437L7301L7262K5117
130235A13523K0289K8516K5713Pk5154k9415k5834l0435l1633j8446j0955k5605l2431P034O9417Q6366L5151l2975
130217A23133o6648p4131q8549j10442j15052r2563n1941j231M9830Q0008P3358L9227J517j9149k790O2832J48680
130200d3911J85544J35276M2992j9778m5744p7079j12970r8496k0722M6275L1517l8483p9261n6914j3296L048j2506
130183a74508l7704n2500m1625K438O2272R7932Q3931L9572J1036K0972M1153K3347l8590q8521o8353M983N1740
130166f2425K9037j3446m330M9817P9167N3701J8621J6033K2129m373m7690n6658k6035n772k3273m1465j7991K6026
130148h927L2540r984m5555j9987N1697R9210O8096k8802j20951j37701o9126K3055O3394L5464j2578l3304k8607
130131a42066k5431l1245l7597m6853o1786n9146j1467O3451J10398J03072P1800N3653M7187L6214K7837L5295M1462
130114A74778J4863m0599p9509o4021m473N1001N9187J8547k7886l2339P424M6511M6150J0668l6958q7142j26975
130097g0773j21196n4469K1015L1857j8678m7918m684O3418Q2930N5780M3044O7915Q5136N1422j2444m8999l4207p22
130079H8427M494k6066n2434l1252L4107R0261Q1582P74j02507j55543j12924N107J18382J51128J04977N4846N9715
130062C13074R4557Q9942K2036o6272j24768j40552j21529p4093j5890J8162R690j7966l0279k3833j5640m549K4730
130045f3180O3238P7769N7588L3024L3617N0527N6841M5068K4529j268k9594m1769j9692K2530M8185M2353K5989
130028D25755K1097K1231N145l4974q6625j26910j34415j03969n6161k2008j3370j5907r610J5281N6806R6217R9927
130011A37510N4965K533J935N2761Q8963O4339N282m2248p4141j02133j08863p9566m7680n0516n9431j7612O1921
129994a11981J03166P5255K6949p98l0216q6455j41768j59503j46911j23194p7117k208O1577P3170N3771N6039Q7160
129977c43064J09420J03658Q4954O3406L5658J2802J3108K6371K5817J5727K4448M6921M1672j128l4532k2656L819
129960B06401o988n2634q1845o4153k3069m51j0355l2923m0268k1382J3180M4059N6373M4300J5504m032J3664O1955
129942A17336R3101O9465J1282k9442l1653j3292J1414M1677N9160L6517q086j1333N1411J18578J13873L8673m3396
129925F25285r1848j15879j27638j17833q5516n3963l9741l0704j1244R577J3656N539P292K2813K5252j0176o8965
129908d4093j06886r8943o6465m6369m3823l1779O361N1764P0064M3093j7320p0585o6915P270R9227J32692Q9978
129891i2729K4907j3247l0784m6118m0102P988O4796P4846L5553p232l0796n2025p1375n4948Q623P6567J02640Q8626
129873D5190O3163L8193J1468j2165k9538n2010q4661j06476r3139m7745Q380N8658Q6462P0704J6434k7686j8778
129856g3546K2009L5977N643l0617m0137k8289k938M4868J01952J17319O1787k4044p7282q6253p9414o2644j7945
129839a33554M0828O3617K8646k8467o4709p2777n8700j7989L6192N6538J6092l9761l8957K5918R0135J00716P3162
129822G6930N7823P8159J13143J22449Q2824J3991l1874k3124J2715K2330r011n2447q5932j12622j28996j15533
129806B0825p0410j8470K2912N3064N9076K4602k0059j2552M9175Q5882M9963L865K7468R5054J19491Q5971N5077
129789F30934M5880R016p1477j35516j38056j11894r9209q1769l0177K4993L0549o514k6666K818N6892R3508R1825
129772B85137N5351N056l3264n3082p0827r2363r4226n8698q474J9776K0925J4063N941o606j0592R521L5976L2270
129754E5884k110k4404o794K4871K5447j4512o1837p6692m5673R580M6970L6623j0184m9364m8944k0029O770K9391
129736a25007P6463J49167J82907J06489n3660j70392j50639m6210J4247j3998n6626m2500Q359M2837N6437P0714
129720D8588P5461M7974J649l4366o0924q6748q4949k8083M8056P4609M0699K355K781L4122P4774J07261R6291J2043
129702C71593j07350j71238j36514m8561K8325O6445M8123m2672j61355j99933j03945M7265J31210J19459P3268
129687h5880M0021K0110J4481L4155O2791O5649L8738N260k9590o9902q3223k7368O8375J12010O3634j0969l2772
129670A85520j0070o657m3368p9042p6668m7626k7328l2183m7933n0403l4086j8592k0816k7624j3585J8701M1432
129653b90328M4455M3931M2959K0759k2849m9307l2931J522K1796L5807N8893O4914K2292l9082n5546k1889J929
129636a52675j4391k7173O325N9300P9598O4201M3662J8118l7129j07905j34996q6994m032N1115O1281N3103M5424
129619h3168K7293j5519p3862j20613j30667r3338j9614N4091Q2288M8990r385l3352J432O1616R2542O7451Q56o7958
129601b10917r4033m9192M9373J38777J62342J23433P0240L1393n971n1376p9720o6962l2927j8271k9093l3312j0925
129584a07141J8085K3568M584j3525j3432n471j0994l1261m2352k7862p637j4456m2254m3617Q512Q0844J22856
129567a01553J29155J29305J29977J05392M6031j7534n0319m9062l4065k5479l5389o3087q8614q7732n9925k4665
129551i7564J2115O1411J12474J22550O9220q129m6561k8155J1905L3625K2427j9566p8272j18610j02655l7058J6227
129534g4616K884n4024p2811j0364Q0730J12437O4460k929l5252m2939n9399p9979p7678n3698l1461j5617L082J5987
129516c31187J3957K3810P3623J27396J17277M7675J055K1149N7407N5781L6434L5289L1648m565m3332m0208j4131
129499B09078j1143k1094k569L1860L0493j0368m7724p1819j07449j35902r8906R07P8155P4101K8604J2814M2250
129482A288Q6324J16531J14660P4866K5392R068J8184r062j00300j98082k27202j77048r0084n877N3961P9887Q4256
129465a43238Q9920R0386N6919m72l0517k3602l8031j03943j60541j44420q8090o2067n9440j6672P1326J33238
129449d29244J15155L2428o6388j31348j17235k2954P3609Q0973K536p1897q4427n9936l3561L170N7962J00667
129433e50490J09979J12719J36277J55777J28075N3468l2124j04154j50846j45994o8064M8807J20801R3273P41o7308
129417a59063n6346Q787O6626Q6526P8696N3686Q036m4070o3336l5347j034o320m1886o5254o2336m8141k4193J6860
129399b88109N2813M9333J6519j355L016p698l9699m1368J8517R2472J11833P0885K0029J972K5491P5251J12441
129382B72343Q8686j289r4100j19398p6443j8239K4218N8677P9882N5295j7620p9995p3189j5707J4908k2081p8841
129365b893p5620N458J01421J39586J08313N0805P671j4982k8333l4820k6048L561M5031P2881O0310O583n4177q1552
129347B83195o3321j5989L6669P3069P7043N3713L3106L5467M0557J4048m4013j01417j33560j33351r6403l5541N87
129330B3859k8408r2359j21042r9435p7713p8179n8901J885N1516M2575J3965K9994P4440P4922J7082l3548k7295
129313b86642Q992K3079O248j1719j0449J147M983J023R342L9490O4677N1695J9428K8200Q9005J26059P2738k8063
129295B09233p5748m5455p025j4298m0328l7291l505L5381O5684P6170M8859n648l4860m953M6710N6875J9090j5657
129277B73234j0530K3546O1491Q7979P8748K218j28337k28939k12356q3761N6446J12023P5518R618l2245m7968o1641
129260b4956p9820p9118l2969M7472J02204P2033k9975j18092j25077p2858k6518n267J5427L4837K6736P259K8189
129243b60493Q1756Q7944J8063m1719j2708N3991N9506J2479J712M0351N1691J4149L495N3557Q0630J2626q8894
129226A68136j17643p6292n2608p4981q1454k5983O1782J30379J57917J39381P9431J2865j8436k6444o6102j42456
129210F7492j79982j20923j3173M4357J6777m9939j03412j24470j03435l4829N2171J03168J00186Q3768R4741J21007
129194d6496J22983Q7916L5293j1821l5819k2971J7510M5343L1537O16l291J1969r884q7819j58896j44799m2678
129177b11307P2869J25759R8463K8372l3575o0080n5672l4274K417N0687P7083L8695n3704j21083r4674K647Q1350
129160h6027Q7390N2875M1289O7578Q9717O9008J7406k3130l5869m3024o1327o9451m2073J394J6170n535k8422l1928
129142A6041l3431m2875l7268l863K8081K7947O634q813j3209p621J8296N1678M3251j9424n9563l42J11010J43918
129124B20447N2610o7429j07787o5961p003L3628O2934Q5596R6121R8820R8571Q0566K5659n9499j42425j86060
129108B18788j65207q4466P986M8977K1901k6969m5735k8381K436L2284N0474L6972j2146o2059p2758m4594o046
129091a28543K8054N6475O5669M2454P681r81J6799K0915j1005n4283p6857p6774o2800k8063K7357O6577M5123l0200
129073i2402r9604j14199q1775m1948j5963L783K8171N5202P6440Q4481P3882M5962J3615o358l938K5197P7993
129056B8539J27012J23602N0439l8380p1510n5263o3182j16778j38409o5854L9377O4713k913p2261q0258n1703k1966
129039c44795K0071Q1625J24195J16515Q4468O6196N4358K4966q282j4410K074J1577O578k51r045k4839l1606j6178
129021A43217m936k9780o5889n7174n131K6480J2179J0417P1120J45084J41083N0295m2126o5461l2826M750K4661
129004C25963K7564K546o2173j44315j95176j84293j19634k8217O4012J36249J77979J92832J84379J44037P1462k965
128988E90250m5715o5359r4412j26423j17563o3314k2443l4627n9675m0490J0522L7039K3113l9j0981r650J0201
128971a9566M3703M4817k2208j05860j09849k0500P2047R3522O3420L3870J6503M852J3139M7613P7015P0623L7839
128954C40980M643j6086j0946L2385Q2650P2981j1241r6113j10517p1414l7218k3194j4298j7299l8015m2831q172
128937C6295K3062L312l2110j9231J8770Q057l0875J1212J51988K50711J86937K5197q0004q6064p3766q7743p6231
128920B29517q349M5000R195p0416p8627J1800J02907J03175L5034k1266m0415n5027p5634p3078l8694l985J1673
128903H2810K4522M3401N0586M5045N7483R4744J11950P2428n43o0145q4931o4926P849R0759Q7328l9459j86199
128886C32702k14932j20841k3350k031j7942m470L6704N9702M6974K5404K8608N4942N6007j5526j27035j70548r0790
128869a46422K6073N6330N357j1796N2641J15750R6303K2351l3651n4521o2006n7400l4857j5500j6417j3411J9294
128852e1882N4725M4226q330m2375j1184O5907J22242J06779L4252k9510m5530n0240r4040j49779j42661p0316j6380
128835b84096j8554m067Q5780J75136J45009J1442q0720m2818N8058J03782O3820m691m5265m2775k014O3280J18334
128818B99641J22006P1299J2626q722J230M627p963o194K8576P3284R8721J02051Q1024J3312r6544j79214j66686
128801D43074q4618k1665j0646j625M0160P5330N4660j2279q3934j36003j51414j06317r892P2933Q2761L4481o189
128784A78817j54L4562N2616K1681m8676j03646r2034l0689J0234j637k4498j4981J2216K9457N0149Q7579J00611
128767B61607M3588n0367r7829p1474k5580j4773l5122n4365o0186o0713o0835n4383l3285j752J8544J0113r571q34
128749b97217M4211Q5819Q9388O5634M0358J7768j654l553N970j5368q3742j42179j26854n7191m313J3638M2069
128732c27216R8064J31570R8097K4843k2573j4716J9882L5062J7783r7J5201M8028N0661J8514O650M4408P6820L7447
128714C58428n3549j18369j23129r1975m2779K0416O1051L5405k5292l1648M0636J08062R1462J4059n1418q3283
128698A08077j07222j25424j07133m3593L0401P5325Q1739O2255K9355p777l3123k6012J5756O0292O9358M7989M2915
128681A73178P6673J10805J00798N9853K9018P074l7106r1818j01310m7961J3473K3152j8686o9885r6865r1237o5600
128664b6444m7565n1605m6999J5296J29556K18982K11379J10526j8724j11200j36035j01106m6429j7245k6215m9716
128648F456o2483n7824l5381K111L4876M0448L2963N6805J23696J83547J80657J19954N5930K8267K6835J3655l3143
128631G17369r4455j25823j03092m9859j0629l709j3928k2307k3329j9804j9977l3107n2543n8393n4552p6523j31862
128614a76523j61858j07797N650J01415J43350J44686J09146L8218j4929J4292R7019J27437O5317j3418l4000j3545
128598C24460J653J5147M6690P8263Q2570N9120Q415p2749j39054j14849j3490M0800k1021j00227p2218K4794N4696
128581B03000l181l1804L3332J08488R0182n988q0331o9279O649P9134Q9016L1199m0972p1021n7013l5367k3693
128564B22351j4925j5449m3831r0377j14955r0367k5328M8003Q7785O5658Q306j0195M0607R2281O6555p818l6490
128547A81811j464J8975k4834q9700j19777j17058r9712n5272K0433Q5321R6526O1829J2857l9493q9126j06212o5690
128530c30586J1015P3639R3416P8045N0605K9080J4781o506l7499m7491o252O2202R8944Q6743O1678M1455J127n7003
128512B17393p4809k6550K0128n117o4720o7627j0014K1583j3577n4957m6143k2337m4354r5981j07506n7333Q783
128495d23138N5250R7791J51358J81675J43788M9369l7924p0620n6205k9137j0055n74L086O086J2688J6419K495
128478I2352l0582o2644p4497o7956n4421l7066j5164Q685L7004P4589J02552P9647l888r3195j22449q9555m4663
128461c01251j7030N428K9004L5573K2969K2280N2888R0178J00750Q7095P4769P2055O4852M2706J2321j1026j5632
128444C67929j549J7943K8784L1718L7029M4127L9308J6440j2287l1014l7844m4764o2587q2511p3648j6319N4984
128427B75739O8355k527r3673j19201o7017N894N2090O1875K9317m8901j35313j68589j36894r0355o5181m0594J0259
128410d64716P4029J28462J76061K14132K11924J57219R2916O4452N6032K2353l6880q1236r5727j02362j05162p3664
128394B37833j383N5131L0214o5864j43029j22335j8576Q0954J11441P9727J8743o3732j58009k09679j64203m8608
128378c81375M9340R2234J27566J92617K41748K08052R9740q109n9202o1759o1727r1904j37158j42553p4891K4470
128362A7089Q0161P4062N0652L1192j2449p9444j06973n6271K8715R2865J39316J77137J66972Q9958J2091n779j6054
128345F83240j05886k41622k97133k29379j24853o3222k8727K2032Q7942J48902J95309K05920J58661Q4953M9259
128330E45396N3193K8741m6078r9112p3586j6880m836l3532m8174l6069k4537j4541J7015N7929N9890K408p7612
128313B89615j23540j05450l6551L5244O0075K9360j8276m0680k6844J3509O4505R6534P8343J9054k9208l1307n399
128296B68984J6476K7618K3818j5279q2699j18020p4863N764L7578n624o7483q4265m5433J5384N5809N3125K3652
128279C4542Q254J7825R401n4650j40709j73649j23702l0790M8783Q6230P9645M6922J8958J1534P684r207k1142n710
128261a89781K0478L1440M4776Q8541J27943R5694K762n3508j8907M3571M7810k838m6997o4011p8703r2549p5690
128244a19969k5949J7772L0442K8281K9238K1864o973l8462l9056r76M9029P3419M6915l0999j26993j80346j41937
128227d14700k2760J03456J61239J38248P9956K4797l1608r8906j47137j30321m5266O3078J51389K02236K00858
128212B34559J31184J4954p9624j00129o3607k3126K61K1063L9748L1603r166m6107l7180J9013Q0467R5997M6422
128195C56332l1236o6266k5659L9274M8675j170k9254J7548Q6777R1836K7838l4530n3563n7515p9812j09310j23166
128178E6799j21979j05491n4717K6080Q2769O9879J4852j9188k0321l1447p2624j07432r4936l7282L5338R5474
128162b84226J24301J16691R1046O8076L5520l2252j12538j34892o6366L7451R2680P2761J3154l9188n4684k7542
128146a00008J6353L9063M0774O1377J06795J14482L7810o8286j05565o1356j9798m5547j09745j40319j02615j9716
128130c56301N3273O8916L1227M78K6156Q4103J15024J08929R9881Q8593L8456m3554r1407p1749l3312l3175o3671
128113B1867q6015q9940q2222n6124j1266K9150N4075Q3033J18243J20117O8822Q217j6620k4868n0697o8031k9609
128096a1868M5419R0988Q5627N9492K3478l5804r1481q3218p959N8966N9945K1478k246n619j8107m8817p8709q8320
128078b6755o9958k9489P662J0234k5133o8426r0178q2604m7822M779M3259K8963l5871j00433j18125q5485k2930
128061g08312N1761J16648J43331J24641Q7545O3694O2111P5612R0807Q7293N6898L1111N4509J18266J56214J24123
128045G36252M6957k9951r2667j33795j24083n7639O234J715n5587q5822m3576M0618J10738J35208J05372K6073
128029E86047p4717j48486j55895r5044o515M8055L2955k2731n3443l7067j7102k6039k8685J6734P7383Q5709M2365
128012B23524J5540L9739P4782P3077L3896k0492p0706q6814m1676L6835P1302K1656o8127j31663j47984j23410
127996a00521n5657L8806R8921P6108O28n4990o4219n2677l0887K0234R1865J32522J16584Q6455R1484J10822P8390
127979E83868k0003j11302j12231k3560P1594R8315N9900J3741k119Q34o816l8627r2367j56147k01977j96619j37697
127962b71213o2482k879M9104J06326J37360R4531q826q9952q3288j0516N2248N5366O114n7949r6022p7694o805
127945b66577O3557P1692J8438k5538l684N4028P0427K1938l5735m7080k5710k2896n4068q8741j01421r7009q2800
127928e51179m6697J9482R1060J23352R3059K2227l6172l7713J8931R2646J38591J45872J34458J23587J13963R3967
127912E39434M9894k2881j02744j44577j22963o8826l8326m7582o4955o4461n0452k5366K4322R1851J37800J38762
127896B28930J16956R7067O7579J5952l2153n0333o0138r4367j31396j18531n2372J3081L4159P391o0079j52896
127880a71150k17819j93107q6322K7234J00181J53231J99821J96474J14151O898m7976m3071j9897J0703O0769J00359
127864A90479P7925Q435k7599Q986O5451P4099K9909l3136r4300j38412j35207p2262J1568O4908Q3228R5388J03184
127847C12644P3824n094r5150j42640j27387p0960j0853K8126M6619O0367P6714Q6886Q3031O9579N1071K5685J637
127830D64099j152J5887J7094k1267p2097r5614r4375q7291m9605N6573J90851K45712J77884O8555J1393n887n1237
127813G69523j21787j44569r3569l3561l1702p8974j21287j26565r4897l5830L0900O9223N2859k510m9240n1472
127797f3458j4371K6451M1129L3443L0728M4113N0429K4699k1983n4177n0420j1917M8320R5501P3467l5011j54062
127780F2881j79108j07230m4932o0296q7992l1768Q5402J44631Q9393p629m6234j4265K3702J9749p159o213M0922
127763a26146R7958J14368Q0522L0910l930k5080l8816l2778P21M2051O8859P9943O9497R470j00933j94620k00942
127746a28946j38320q4611n9893n641J06690K13851K40436J87065J01783J2449o5378r6767o7134l2228o4601j52373
127730c3618k05673j69603q2010p006M2555R2082J50365J98381K13829J83298J05423K848q2510j26115j41667j49309
127714h730j41184j03487n5609l0247k1113O918N0984O1305K0852j2105J7602P5157Q2693L4839K252J8676L5253
127697C4056J3660k915L3950P9774N0414m4101r6557m5969M0449O0285L398n5839o4221l8361j4058O902M0419P5368
127679G6654P4619K3999l7690n4369j5876L2235M7750L9995M1250M7969K3153m3579j09816j27162r3783m5550q202
127662a28403K4522O7025J08102J11300N6712k2171o3588m6824j2252K525J2874M0470N2365O317o1747p1282k2937
127645E3008j0252p7313j43969j27128o8381o3044j07242j08151l2152M7965O6755M9693N1913P2718P2999M1359M018
127628b77204j1240O158N0328R7149J15687R7300O1195K4525j1695m0232m2471k2633j5451l3698l7399R165P2573
127611D2057Q6785M4189L631N413K4117K0975K130l426N146P147L305J5758M5052N7488K6469l1057p0062n9723m744
127592B20650O4747J16301J33623J18072P3093l762j00702j72918j72937j08147m2029k1493k6348j3658J1879R203
127576H5574l0242o9366q4108r1940j06371j02318n5871Q061M2033L7509K9511M4186O7776P0452M3052O307o882
127559a12637J9509O3520P8595M1082j8836m6666k2781J9758L7029K3555J5315M5600R9099J15840N2808n8135j30458
127542B22197j09727k8377L3234K7048k8671p8914q3475n1704l4241o5686j13218j10038m7538O717P755M877O6118
127525c83643J63193J97152J30932L2495k3881m2162o7458j10380j42210j40174j09372p0899m1635j6285K9406R9364
127509d95557J50355J37812Q2023M3146L0009p780q0481j16911o5068J8535L7596j9463q1758r9561q4170n4120m049
127492f09442O3490J23349J59960J79572J80073J41700O1760k6197p9901p9996l7234Q190K482o7256j30835r1559
127476b01844N5061J94827K13942J19149J2843k8788k0352k2793o8569j34903j71946j52142r8163n8204n0112m4106
127460d56100j0889L2062M3941J8448p858j248L9162R4922J43495J54276J00432l496r3815j13236o9300j7995O268
127443a40931K1198N4414R5708J08184P3823J0557m9131p9528o6371j2122N6948J03844J10005Q4270M2494o193m8617
127426C58552o4852n3114m2676o0777r4042j03154p2274k4172J2606L1922M3077N2743N7220L9838k0497j16944
127410e6544j91862j75805o2659P5449J60590J75067J43819Q4117N362o2876q6676o9663m2609j0737M6985J14462
127394D6420J21634K8570j01806j61823j21693n0130j1619O607M3373Q6282R3052O6101M9454N2261L1669k8565p2335
127377G7452m2570L5642Q9466R5287R1298J02828J09434R1476N7050P004p5169j70000k06357j43577l7230K4852
127361A06886K9700L0894M7508L3203m2321j31399j56982r8737q911M4935M0392J1435M332K1487K3173n326j9263
127344f8994J7982O0827L3859m9954r0303l0336P6815J52303J75766J53237P3484m4725j20305j00178m3924m1630
127328A53924p7584o2972J1635N5991K4067j7267p57M0195L6770r145m4106m6699l3563j2461J2559J0290m3266
127311b389j07061j08055l7647L3380M9001L4179M4622Q5293J13754J08178R3546R5360R9038P8449M7245M6128P6703
127294G49724Q6751M3506j3119k8677j8099l7710q7981j10574q6841o7678q0006p3528p499O7232P4417K0742k5950
127277D04710l8670m5689o0371o3410n0621l8257k0223K3629P3449P9847L7921n47m43J9263L2298L8858L7270J2084
127259D41098k7824m3937k2388Q334L1119O1637R3645Q1244J5357l4703q813N4302P0220K1163m0475p4333p6708
127242E48938m2663K6067P6780L8980p8862j79106j86647j29833q4889p6808o9723l3455J6267M0036J4180n2840
127226a73578j28478j75121j67308j00603L613R9191J39025J15546O9379M3162L8246L4523L3670M8863O3066M2750
127210a4054k668k0465R575M1329L1559M616P286K6403L737p3702j48312j66390j37276j01502p5238n1442k8143k222
127192f96909M8002J35455K21737K38042J60258L9115n5797r9536j05907q4525l5039K4306N4833L5694r943l5937
127176a66151j6448L2052O7072O1061L1256K2828N5640R7437J01172N8110j948n1896q5154r9086r0580p3384p3838
127159a31857r7165j15122r7595m4380J9705O8032Q7387Q5801Q8608J10715J31151J14157N7161m996m6580p3725
127143A51297r2002q2170k8924M6714J03765J16764Q3704J9175m4128o6477l5969J5573M3455K8049k0600p5664
127127A62562j04157q7836m4041o286J7801L9666M2797p525r2310j33443r5358m0796l7918n8816l2524L7044Q2213
127110c58927Q4903R9291J51847J87675J46114M6100l3916l9901Q754L9172p549j11933j85874j66048q3655j7476r18
127093b42341j1906k9203m5590m0014L223M9986M8637R179o417K2648N2563N4410N2865O3800N4574Q45o5001r6360
127075a24102q6232n2994j1208K0720K5438K2196N3286J11606J32374Q7165L2337K3007L1477L896m6666o6326m9711
127058A06263m0687n9654q3490q6972n9350N118Q7637J30875R3048O717n9459q4590r4386r1727m9360K5840P9517
127041a74660P7988M6655K3922J4443O233P67L135M848l035j3975j7162j2856o183L264J5316J9771L935k8106m8531
127022h4231k9908J4691K9963j7290q0151p8005n843N1072L2223j9598l2194p951J865r395n489J3941Q620k4091
127004b41771l0722J8892Q2069R5690M4520l8123j05959j22290p8016o664L8047L3241M669p105J6190O0348Q5727
126987a51257N4518k3791q5238p8180k4387J7915L2918M5714O0608N9132N2582P0748R1805N2064n1180j28967j08937
126970a13933k5304L6530M3218K1718J035r141m305J0106J3513J94o0M0549J00708J24562P7441k4540j26985j71899
126952f593j41573p8946m3153l9252k1244L0729P8591Q7190P0761N2399K3045k1752m5718k0578J8882J7641k2707
126935f2278n6017o0620m7686j7745L6153Q8615J00631Q1252P7407R0829N9272m8417j58088j57771l2232J04904
126919a791J25343J7438j10555j51428j00506k9165R921J3078j6506p5897j17966o9631O4984J74298J65416P8971
126903b3996K0777J8990K2807J4449L0363P0522P7012K8448k0051k7020k8016o3113r9990q9802n7640o6853j11461
126886c04574j13635l3676P4480J37210J47362J45997J45094J09422J8978p8279r9399j3960J14422J84795J53567
126871E87804O3075j9524p2086j17086j67768j97894j70508q5476J1818O9037P0142M1654K3067L2930N4378M6330
126855A69893j9638j17019j68813j22536k1284L2948k029o1025o3378j5774J5641R090R462N0676J06626J33476
126839f3684J22921R3219N4301N694m3993p4733p0998l5444R607L7474M1924M0029M0943K7418j1134m5130l9723
126822H8691j3827j9266n6269n8311J4541J05653J22644M9739l6169n8737k5121q735o0854j48174j84503j28257
126806d16955l5066P481j1153j5882M5454J23001J24097L0359q0171j24825r8625n3752k0422K2492R4824J61662
126790b47481J64319R9269K6843j1838m3372r5088j24277p6601R694L8085m026j9817M9542J26846J03960q020r9782
126773a11744j04644n3577m033K3746L6558M4531N9578Q3899R2669N6544j3397o8096p2515l5791Q812L2701K4383
126756c76k722j6241o51J7090J837l5518m7770j3857L9223P8450R5915R1901O1417J3215k4748l5958l0780j9755K306
126737A72978K8140K2144l6697j10424j31536p4875J9974R2851J09198O9261J139m8945m6274n464J6389j7066p4073
126720a3280r0089m5837J2995L7274L0274K6617L6768M0177K5159M142j4924m3151q2091j02978p6478j2505M8526
126703b19401P8141P7395N7376K1369k9352q4788j30098j58323j73808j78598j56912q6323K3926J17796J39806R7167
126687f04627N1379M5444O5261P8342P8395P4650O5392M5392J9396j0409m7406p3045m7940L0000R7711R4778L5896
126670a391k2798o2644r6111j02735l9525Q0245J77878J94652J41751N7703l0745r0606q4892k6840J4149k096l4025
126653G1970k9474r994l2949r5337j32376j04677l7514K7364P4215R8897R2448O0147L2390L4223N3707N5379K1722
126636A80141k6887n3823m5074k2073j0056k75L5775R1094J11012N8410k9222p7798o1208j7339J4107L2989N1243
126619B31016N9000L9563p15l7794n5942n6026m8147m6569n9029o8039l8783L1711Q4118M8906o4269j57173j41629
126602b79801l1243Q2520J30039J15217P9542N0193L1096J6427m113l6330o4802o2466l0771j0620l3518p9308j05484
126585b33422j01278q2803m9700J1929Q4678J21026J03325O9271N9259O5758N7000K8320K287j0338k1527l7630m1895
126568B4260j6230K7302M9333K5208k0204l5148l474L4160L4275L186k7007m9693p2057p1083j5399P0093J16967
126551G4489J02452P4387P0466O6296L1265j5607m2657n2941n4330k8517J9525K5076n5429j53393j52168l7479Q1029
126534d7536J04047M3180k0611k7995K1228P5885O4262m1899j77880k34483j69677m3032O3925J21188J36689J19698
126518a3011Q5672O1578N5008L9896l979n6574q1040o4211k2154J4007J1133l7816q8791q4175l0200J111l1007p7634
126500c22187p0906j4359M2079Q6535J46404K14201K29690J51588J2994j09971j64383j47928r0772k4412L6070Q4748
126484E9391J07975R2123N2024K7496L6843N6691O4627P0948P8948M8457m8845j55314j70673p6069L7314P8262M7714
126467D07912J780k8985m6701m7442k2702J1254K3131O668j2425r181J7361M8556N7397K3189m3687r4734q3973k0222
126449A87196L8696N0150L0005K2584M0060M8187J2274n6002j08135j12051q2972n4865l5433q894K2854L2052R090
126432C4796j2180L332M1226N7108L7815J2911O235O344p835l8517p6426j11535j22968q4028N63Q1336J12103R7170
126414C7450O7744K9912k7174p9589p2456O419Q8493Q8436l034j06904j31967n5875O0620J31701J23352P4895M0387
126397B72410K0857k1721r0078j31670j08260m9739j0263J791J4437L2184K8772m366m1998o2893p1134p1420n2869
126380c45960j0976L7290P3810R6581J05908R3100N7881K1897Q418J6394K5269J8898j258j8090j1862J5459K7867
126363B10626j1498q7000j33896j11892n6514l5850o8949j09692j04044m1660M5350J13460J35773J16431Q3568O1732
126347E945N2455M5386L5930J9165j7865p2423j04892p7793k0311j3823q9883j74506j71916q7046j9973l8193r9931
126330h29674j21419p8658p650O4875J39012J98576K05849J55729R4702O3273N1059L2520J4179J2396J1005j5137
126314i363m8154m3466L770M7942N1804K2194j4597l7242k5308K9741R6955J24312R9834O3207M3838K3873j7381
126297D11959n9152o8649m6873j6523J0133K3079K737m6965p7493n0850o46P834k8788m7591j4377K4926J0798m6511
126279a2952q2714o3369k0215j858j2514j6370O604L3111L3074J2851Q96N724J7620M0461Q0723J08330Q0404J5598
126261B25404j1085K6663O3372M4028J2553L7193R3013R7478L9448j0438j3978q713k4456l2493q711J3364p932o1205
126243D73505j05245j23095j25229j23577j22628j13557o8289K7923J29087J56446R2877Q654k9334l3231n3474
126228i167j04673j63867k02398j84329p6703R0350K09420J98673R8003J2072j8973l2918m9721l9461N673L6742
126212b31277J4776l5527o7087o6578m1998Q075P5817J20591J04850M3265j7029n8591j02547j53174j67741j02628
126196f76803K3758J33337J54987Q3790k0827q6323p8223j5144N3007Q0360N0109j9911q6282r9574l5826P3562
126180d66003J52221J46415Q8971O9965J28080J96343J82388Q1976k3943p1972p0480n2300k6067M108J3293j3871
126164C39124m9204m8764m775N0006P8771O7379K9890J275O886K5598N466o6751j36072j42176q9296k8177Q465K1209
126146F8854J4954p954l5200n5350p0674p3895l5386M6688J05093O8915l3634r4777n8710J9577O3577O8414P1193
126129F1685P4769N3007J1463r053P371K5302N885m0573o8500n6341l2863l5437n4992m6841j72L3269M178o2258
126111a30101r5532p2196l8500l7419n3912m9979k1871L056Q543O137J7244M9978Q7317R8152P4996N6445Q4270
126094a3372J36672J41174O8277k3724o0557l6112L702K9086L9177L1483O889n453K3141O6918O5460M526o5805
126077D11482j05361j29650j56636j54542r1212r217Q079n2255j06725q0454R11N5130N1990L7319N6824R7224J14301
126060e2792R0511M6372J1698K670J5945K9951K0502j0796l1073j2357L4338P4179Q7948P8291M5778j4259q6836
126043C30070j32417j21674o7069j1398J1995N864J913L0034R2356J65266K20189K32690J80083N9358q3460j72724
126027G41076j75703j34014j00428p3043k6911J8724J9428k0022m7206l8455j9727p041J5707M6321N2898L8259N6603
126010C46466J27425J83686J52143M5852o7058j46049j79735j46895m5022O2951R7923N6045k701m5746q6912j20997
125994B31376j11394n7454j1449m572r654l177j0406n0767q4190o1847k813K9805J5555o938q359j0336m3754r2846
125976b93220j04759n1201L3135Q0458N6366j0999o9969r8384j04295r1363n6304j8943j7699n9358r9314r0276l1824
125959a027949M2969J08312J52522J63471J34432P8600K0047k3375l7788j2029M1011P8172O8832L4394J7039J7587l3
125942a43786m2822o8742m9723j9649k9239p3546r7724o6421M253Q0522J40168J58884J06940p740j13355j30525
125926c52505n4969M4813J11326J44994J61260J45172P9755r917q0548j23212j54141j64430j24384l9344M3214R3048
125910b79868J21947J34411J02180K3108l5583r424O2489O7004m1575j73887k04344j10229J5944P7736O6864M3703
125894a39524N5980R6891J30719J32379R6184K8102n2898j17338j46680j45242j18647n9869J6905N1081m228r9376
125878b75561j25986n6413J4974P437k9300J272Q6700J22957P5661K8106M5442P7440M9756j2365k5081K1522M8314
125861E4875L583o8346r2710n3246R197N5434P5278P2547N2988K7583Q778l478k3111n8272r2968r6029n3509J0851
125843a70555N5462O1126M1239J1057l3816r3806j37693j28349p5426l3101l3116m2399o647P6639J49072J52055
125827b08258Q2690p383n6135l7085K4736P9588J00334R9340R5992Q3883M5830j3582p4875j31715j80932j93624
125811b91196j41029n5645j7029n1717r0364n9887J9918P7915R7441J19879J58664J76997J55239J18818Q4372L5205
125795C37581k6849n8902l8157J283K7573O0078J13736J37463P0662n9643j57724j68599j19900o2804k4200j7517
125779A4081m5963p9149o9041j0492M1835L2359l8338j18393j44776q3646L6907J34550J46720R7834O0379N7305
125763C2172N0916K4931J2157K2617R570n5291j26506j49309j34232j18472r3648l0360N4632J17196J53346J86574
125747d3707J98879J40169J3651j03302j39106r0274R95Q6822J21748P9053j4651r0025j01039o2714j8217M825Q10
125730a6083j8019k2278Q255N1241O5307M9009L5077K2424k7181j02142j17249l0521O5918M5359q2778j73790j22955
125713c70406J9710J25105J25988N7185q391l0299k1311k2130n5012r6636j03161o1980o607K0309N774l0738n6458
125696e09058m4966O847P4594J27021J50187J44044J07401M7628l562j4982J520L446k1677l9769k5637m33P931J0839
125678B1374L3390O3759O4267K4986k4274n2144n1518l2957j7592l0801p5019j11997j01662n7320k9656l4268l4287
125661d45719o902J3945j1411o5356r5160q0249m4819j4174J0548L7137O6578R2530J01474Q1919M9527M6848R1275
125644a72009J36685J20955M5721k5679m7305l1927j4364j4633m3127r7497j38372j10814j4055Q6426J40530J68393
125628a1072K03063K19880J70911O4063m1566j04742j22855r9202m0162J9331L6178J1240j5421k2629k5648l7426
125612B03943n2447p1281r9770j18035r0939j8598O0535J22808J74810K09529J95707J28916N0539m274l9573o3690
125596E88180o4356l8684o068K7385P1891J05931Q4502K1145p216K1013K2800n6547j31933q9961L8306J17874R4505
125579G98767L4875l708l3000n4823l1581L0185N7757J7577l2298l7623k4863l5353n1345m6932n4102j08422j68891
125562B56220j61236p8834J5837P0427P3712L1662l1596o5051l8097J1440K4232L340J57K4976K9777j3460o9548
125545H3958r0740o9897k8290J2839L1901J0837l9802q1531q8440o8530l7371M661N7122J04867J32661J35366J05200
125528A74811L5968m4133p4583k9164L7011M3100j9663p9564p5996k4099K5391N4045P0945O6521K2402l5052m7114
125511A00826j0910m753q1773j76461j77841p6842K6553N9532M6886L3517J7685Q08K8222J13103J73980J29944K8634
125494B31110o004N3610J00904M4489p5315j48951j24320l7841M3122P4561N4650J5323j2357k9840n4443p9498q2330
125477c3130o6564n4192l4352K7600J14460J46449Q1940j3086l9968J4508P4800P2122O306p2633j09168p8462r957
125460B6673L2029J7153j2735j446M1444N7306K8228L603K4942O3116N7441l392o8047q5534n8918l0469k8933m6838
125442A5623o5114p7150p5870l8201M6012J34476J58730J02403K3607j8025k9031n2335r4220j16799r5719n3157
125426b34770k7821k9606k9024J2600R5270J60769J42765M9948k5564p172P8621J40566J27322N8062l1799j23546
125410C56621j93879k12186j78535j30606r5933o6179l2216j0126q461N5M1612R6269J24630J27168J38056J60420
125394A16710J48495P3200k3367o9490m9590j7784k2740m8308m6651q262L1102M4427L9592K8322N262k5787l7817
125377A37314j9337m79p995j7574O782M1307K3072n5222j21572j13665n1358K626K0647K0757K5762M3611P3339
125360H015J01086R7721M4952l7592j06114j30462j11845p5285n2694n5894n4903m931Q7676J51447J29480N3290M669
125343D8616J9629O5927J00709J04238O3616k0671j01378j12825n8686k3983o4436j26925j26756o7672k3069j8810
125327c42476r370K5277L5720r890n6213l2868L9652P5346L8911j8464l7301j1861L5096R0093J36610J42892R7963
125310A99117M2229L0667P0091J12117J03899L4631n6890j07933q0277k724M5760J6545n2371p9386k9701N8346
125294C04120J26381J44910J10886L1520p2213j62525k01274j69951q0365K1331P1029L5089n1725j16113j18377
125279a27277p7780k9096J5858N4342P1045N4060J9180J72J8377O4659J00686Q2252M946p3367q6061l9078l311j6080
125261C3527l5370j5996J7955K1335Q976K9164P7552R9557P1636K1460l1432r2069j36608j08563j763J01950J18202
125244A79513N2174k6285o8140p0924m7554j1827J8868M0454P0350J10876J22743P1016j5477p0051o8488m6966m2333
125227A97949n1378n2529l4855j132K8398J5963n3515j29913j38753p6032j8348j9662m4533l5656l506N8l0918n0004
125209d98366k8407J6594N9878R1202R8325O9278K0189j2374j4190l87J9040M5137O2557N1345L1801M6576Q4351
125192A42549P9609J5748l4502j8745N907l4892r7973p6196K7616Q3267J1842j06559j49211j05481n5608m3090l7781
125175c93500o847L9633P6255R2963R1423P8375O5859N9018M6499J8913j2374l2342m4755n6766n8265m4741m4187
125158a24839q2921j31984j28958n6636L6089R7354J21079J25617J23024J26411J50899J80184J60482O0305p9042
125143E77064j80147k06108j77808j28307p0954j1962L2550M3998J8689k2965m1345l669Q0336J56494J76601J46500
125127C88967J08408Q1213M0479l8653j37847k05190k00060j23981j6957O9411J01023P4342R551o1217j00687q0291
125111i1489n141Q0191J27682J27794J04682P7013M4039P652j9650l8137o6677j07846j28550j00263m4967j1890
125095d5557j3194j2536J9510O8138J02692J13517J01462N8273r039n1179j9715N7071Q3511N564j16961j75743
125079A65814j33738m9945K237M994j3293j8839Q320O5418J18627J25087Q1165L0139N181j3041n6621j07099j07815
125062A06591l6950O1793J25390J26197P9295J9862j9900l1381l4850n0207o3822m6762o092J3901p202l5040l1304
125045A69519q960j0003m7606r8014j33309j33312q2590N335O9927N4851j7261o0543k7333M2550Q7493R8244R9605
125028H593R4349O7084K5028p781l1318o7026j12430j30865r5102j7998O5688J26475J46255J22891P7398L5332m605
125011C01968n8588j09192j05995l6934L4142L7946j2297m4126k6479j020p702k4015k692N7744J08231J02297L3717
124994B47005o6783j49723j69036j13359k3254L8322M2845J7286N402J9765M1730N7553P1809Q1230N9763o751q1770
124977G2034j05236o5616j7330j2049l8354n1852m0157k2567j625L8419Q3894Q9462M1540j1729j7730J9130N4867
124960A5101O0947L8204j722m0124n1831l0631m985n571k7655m5898n0443m3553j9878J5886K8308q077n4868m4738
124942b71528K5507Q3613P5829K6764j5100m6388q7554j25464j22815p4055j5822J6746K0046J3474K3988P3598
124926c99161J55099K17915K03162J05972r342o8005n5403k3202k6741o3598q2138n1182o585j3150q6267j71158
124910c73784k00639j54676o1572L4611R6512J05827P3612L0650k051k4733l9853m2102l5256l5369m1575k4059L9003
124893f55454J26160J90891K03497J64169R2779K0987k2424l3932k9855j4013K1819N8018M9477r008o1594o7613
124877C3904n5371n8982n1200j755M1170J2455n1071n0210J8840M7857j6793q8042p1608o763j345p5749j45578
124860e20241j36344n4713M2077R8805R1210M1188l58q778q353k0324j8904K6596R3179J30024J23464R4626N0847
124843B4001j2632p2225q6158m7639R248N7343R7071J31402J53474J58087J36864P0355l9328j35822j52558r3157
124827A98326k9700j6507m1437o4610o3209k8446M0001J17800J65452J69608J48903J12153M6853l8245r8656j06149
124811E12137q5411p5142p7233o6555l0364J9649N4230L5649m8309j43435j59947p3239L7111Q0709N9923M4110O7469
124794A51352R8645R7298N5212j3277p9687j01538n5974J9798N6625L1396j3069l3334l5333m0724l4873J6112J02976
124777B21605J57974J17189o681j24809j54072r6969k9880j3217l4277m7282m0917l7311m2739l8973k1587r642r052
124760b10640K120L7176P3636P9196M9186O611k0380j2052L3451R0640J20879J09735P9752N7305M1394J7194j4557
124743E40646l8726m8320n2213o4928r4263j27851j28150o2778M5250J18955J03093K5207m0685n5101k9995J5792
124727A05933P0441R8848N1413o9850j86801k18159j60429p4300j0623K2146L3883L4062L6751N2511O7866N6273
124711i0035J7666j3806j1512J2626L0643L4897L5534L5113K7494J8242K4562M8067O1943L8817j0454l7281l428
124694B19088P2353J24902J05282K6634n7936j11142j29167j14591o5100k70K9798p162p6070j00358m3935M6753
124678h0921R0149N3048j8892n3627l1775m208k4099p4384q6858l1029M7670Q8300P9850M6137J327m1823m7138P330
124660h0943P2524O2527m1748j61798k07697j62096o9292J8316O2485M7687L206n688N7437J53749K08998J87427
124644A45094J09396J6882n1423o7018k8079L1172O9328P5988O8961O2698N4828L4410r982p6087j27999j13543k7416
124627A67210O3295Q9178N8820L4361M1351M6054J6736l7118q7676j07465o4968M3656J44229J25950k7554j91193
124611C14866k28754j41271l8525J1301L9238Q3851J09859N7733n7208j40619j17389j1146Q4559J04405O7107L2903
124595A70910K4905J6668o798j4329J9869N6835K9936n9072j23673r2308M118P1434O1166R362k5837k9717k4754
124578H8715k8423m0348n7195p5946q4533o8339k9134J4463M6281O1647N9760M2079J7791n376l4382p3801r7089
124561b63830o8153k032L4608J0792j5767K4689J08513J43286Q9071j877p0183j11813j32472j02203q652Q1820Q1411
124544b02792o128q1850o7986J3708R1346J28325J30907J01662L3114n0736q8449m6331K5945M0038k4270q7238o5273
124527a56008K4689R1829Q9998O2852O3118P6309N6607L235m3851o7486q6527j08725j14477r6991q0581q0341p3736
124510d40086l6405J6061M9715N9894O5795O5535L4587k2704n6213l1400J3690P762o1659j28061j24127n1470L8928
124493f00158J05527J33434J20267P9759M5399L5442K2614k6584r0090j08964o6276l359M4324P6825Q8434N9564
124477h3842J3414J3686O3199P0987j5985j07946q6270J9347P2267L0728p287K5503O7626M9877J1921K1274N2181
124460B10680L6913j0596j7785K3406M8559L3086K7147O1547R1492O6273K047m9951o9114o5113m1121N312N6613
124443D09395P9166N4042n503o2391q1012n8672l4220m8716r5588j29637j26636j06497q9249n9813P15O9655R6342
124426a88619N7075j7720o7314m7548L2340J11828J30954Q5792J9371l7477q4678j10766q2840q401L7419k160p7324
124409b50068q5827n317Q5383J17846J06875R4636P9676M0452q920l3371l1095l3755n7745q5548r4653q0700n0643
124392b92774j2550K3861M9367O0567N7046L7725P037k3068m5754o3376o9273m2020K2494Q5687R8679N6385j996
124375e1963m0775n1564l5669K071L5615K9103j5101m5797k3387K7760N0835K6760j0931k1088R657O8627J25112
124358G9265J35786P2591l8852j25508j30100o5485K595K4604J3236K0863P4293J35869J36616N2086o2924j25457
124342A99478j06422n1792k6733n2828j00054j23849j02322m7406J0505M9354O7685O9921N0143M979m3442n9360
124326b62143l2578J1946M8350P3981R1503Q9498N8341J1117k8227m8329n0882m1308l1217l3738m1031k4681K2680
124309a86718O6245P4175O3060O5845P2801M7157r131n0931n2718l3914j8319j0795j8791m8425o8267l0667M8755
124292i0638Q7068M2793k1650k8865R258L0394K5429L5801O7457P5912L6484k4828p3116r2822p7291l5404n834j9458
124274e9310n1044n3535l1362k5098l2113j1684K8068K6698k3846m8056J603P0345Q6065N7895L3293J0346l7032
124257e8767q0979o0275L0780J29034J71769J39243M5807o4265j24942j00398k6430L2999N7669O7272O9816O0429
124241B88762N4493P0618Q7957O6152J076q0052j63779k41287k69089k00589n8026Q0269J66072K05702K05583J57493
124225C71355Q4191L4850J7348r080n7104q4175o2644k1525O854K9625N5985O7405N4298L6095J9059j5898n7378
124208D69261n3942K574M2535J4871l5214l9928j2580j4699n7752j04064j36270j56336j35255l7969J00084J81263
124192B6579J42171P575j45118k38904k30628j40460m5334n543m976O971M0151P2640J02725J32397J26197O0624j757
124175i4690K6675J21758J59548Q4235k0144n8313m3023l5979m0778k2902J1539K9519L7226O4734R4443O6653l4541
124158C45960j44703j84980j41286o7286k2877j8640j8488O916M1464N1622L8308K8708K3288l544m2928m4214P072
124141a45608N2290L7301j4935n2980p7368j13358j32474p6617L9413J18126R4673J3982l2796j3130L2365N3327
124125b17789L7351M995k0015l3295m6658o1064n2833m423N8117Q5501O5102L3793K5114L2444L6494L9777N1994
124108C4605O3179N6195L1487j459m0692p5019o8416K108R7795J44550J14411M9546j162l2236n0452l3478L8811
124091C29773J29193J63646J10577J0614p3589j08463r0480l5651J4243Q329n9141j27388j30242p0938j3251m912
124075E2320l2842n0974l0603J7354N2280L6870k1473o3288l1943O0284J38515J41609P6465m323n5510o1117k8126
124058A95498J7717L7713M698p0326j42041j66143j33115p0773j6321J3229K3223K0885N764j6983k9754k0327M373
124041c42683L2452O0924Q2964Q0553N1614K6907L1823M7135M2111L1341N0899Q3195O4381j7894r0622r2872o0821
124024H1407o8208j12321j16414m0903N7474R2588M6160k0722m2016j7687o182m8574j11917j23098n3477N2332
124008d31558J30486J51419J16072L9026m2086p4467m2159Q095K2176L391n643J1747L1632K7711p731p0728j40475
123991b73092j74905j45862p7439k0149R229L1844N6595O3837M3864J6744L015L056J6130N2702J11643J63138J69326
123974D9676J16867L1533k9336j4473O2387J12216N9383o0400j35128j14922o3533n2630o2814l5866J8200L1752
123958h7088j6460o9801p3976l8755p45L4633Q2587J34515J60116J48221J15697P3434J3291n5774q6485m4350K8389
123941C17449M4283k0305q8372q3014k6805N406J282J0045L7319K4405m5080r6513p0317j2237O144L753M4667J10352
123923A62462J14412M1622k3112k5039j1112l2364n4912k8577J7781K2876o312j7099q834k8339p5887r4731o2661
123906a09826k1054N210M3301R3988Q8438j6416j45896j80069r9394l53K4560k9158j07014j53293j32970m5922O0455
123889g25413J24318J29293J06637P7257L2293j8454k8816J9767P2729O3936L776l5303j2481M0359P0170N9577K4512
123872D157j4543m2314m8728l7440k6324k6450k5923p179K0473J9950l1338j02865j29888p8929J4360Q2023Q9623
123855c41335N3096K976m1265o2776m5025O271N7093P5234N6051J4712k7468m3340j4091M0596P0279N1711J8227
123838a29054J1234K5922L1723K3549J7216R215j8966o1414q8730q8022o9678l5999K0210P9621R5483M6898k9462
123821a60254p6083o8533k5372J8619M0616M4143N1274P2346Q7600P2144L0049j6018n6790q8609q5376k2202O8346
123804a14100J07053N3122n1256j33139j52974j05267R50J29804K15032K06722J16537K275p8312r2713m5981J0276
123788F8029J0716n3277j16937j18832o8516j2214L5565Q5077J20801J08344M5799l0707q6629j02388o4917Q558
123772a71528N1957J3116o3416p4646O008Q7784Q1468Q437m5188m1450j1125J1764K5212L5490L8595L0530J2972
123755d020j1130l1683l0721q015M711j7124m5967l0161L2124Q2076P4642L2881Q546J3951K1042J2693P03o396j9323
123736G8829l6352k2031N1413J46971J79057J01303l8840j48655j80341j54552j08193n3607M261M3922M6044K0972
123720f9799n565k5200m3291n0990l0466Q460K4605o876o0653r0858q1947n2981k0430K0847P6093J27455J45036
123703a36560J18021O7894L0578K7953N4250Q3198Q6207N2712L786j9129K945L2454P431p7767j47138j26471l6628
123686B3736L2154L0581q385l8280n4799o2811m1963J3051N7506N1099J8490M561k220l6707o6610j8028R9750J75869
123668A76994J36272L2938m5579q8164j27690j47279j00365n258N4273K9266m3221r2921q0147r807P4196J07720
123652a28772O3665m548j7958K6330N5056K7192j2892j2915J1381J7597R809J7098K5730p441p8416j26613j13421
123635b49118o8736m0388l0165o312M1383Q8598J10264J01335O6089J3667k8806k4978K7776P8547P0884O799n8634
123618I8205q4256p9345p1105o5291n3083l2834p131K2104L9269J9773k8182n1683j6741L4658L2244k5810o7864
123601c37072m5102P175K0868k0815p0296p1765j5587N7658J01258J08925J07806J05574P5019J0634l6075k0777
123585b2572K0218J5300l8364p7295p2956o2621p1147p3011n5173m8911o2164m3006L8927J23269J26859M8978l7453
123568b91122p0353l4054N2937J38122J56534J03199N3872O3239Q0087K8428o2197r2020m1197O262m695l0393j6630
123551D0019K0403M0196M1836L6105L982o5703j30990j37892q7452k5391J5478K9000J3655k3501n2103m3947r906
123534c36211J5482K0035J8972K1569K2179K2262L1705M3969L6633O971j4207J630M4841Q0630Q7481O8385L1777
123517B04103j8519p0509r8198q3097l7231O694K7607K9653K5622K0109J2248J443j7207n1306r3257j11430p3167
123500c26442K1086J29626J95174J84326J14707M3599J5278J8981J6043M433K1570P2556R7564M5001m9903j00997
123484E02602p3524j3658J7177J911l6940o9106p8226p2370p2915q0120o5301j8354K0989J4290j5618k1689j0747
123467g1599k6574o4364o9459k7447J2750K3243L6035O7775P4043K6195k3894j5560K6546L4084K032j1339K2547
123450A5014P0325R4387R0417O5609K5887r640k1639k5279n7955j25464j89128k10637j84282j26229o0696j4955K807
123433f61458J9850O2818J09170J10797O4812K0554J2812K9845N3378Q3385J09714J06967P7854N5037L7610j8854
123417B74291j12183j52887p6728M3041P1951j5377j15443j40296j04128n4969O31O7505J17726J26147J11554R8311
123401A39146O8313m683r6710j52595j47124r2756j0371O5672P9633J0851p1251p0499J2419P6944N6141l480j9803
123384a60153J9446O5001P8602N5526M062n4117q0112n2748O32L5426M1104L8592M2136M9133N3849M8389K6157L651
123366B14576J2789M6395M5968j6535p9075o6208J481M0850L2340L3993O7514P4993J8095n1954o7717l4378K38J7844
123348B91209K2393L9n6479j06734r9904m2555J2867L5024K9515L199m0597p7801q0256n6771l7426j8590L0916
123331a91951J03661J42868J17407O6923M5569N2703M9923K2807q139k4345k6015k0277k0960n3390j25944j94773
123315f3933j92484j08710j5552J0076k9116o8512o5799l1993J3510P1988J34573J62726J31387O8610K0942l769
123299C3944k6522m5167l3445R500M6870M8909J9857k4579p3972j08095r7941l9677L4413Q9986J14315J03475O1296
123282A13167K1528K9131P5227Q8756K4757p2927j33737j51163j62389j64029j13643j4708O1056N8032L762l0115
123266c67295n256O3701J40262J92098K00809J68973J15759N6946m201o1185r2867q2263m2238q432k827j3007j6399
123249B42578j9910n5424j23792j64690j17920j2818M6067J582q3652j07095m8371K8068O9389Q1959Q7681Q5464
123233i0884P0292N1347L1309l670n4263r1397q8619n3836j2596K4203N8649Q5244R1672P5875M9176K3881M328j2382
123215A58329k9446m1436l7300k2048k6687p4029j35068j46245p9866K4244J05427J33770J02916R595j21833k18047
123199c97724k11948j22187l5363K127L3799J12483K08665K41441J82284Q2281l83n4174q6225q7058n2167p220K1659
123182a69710M0644N8695M9653j0456q1887r0927k4225N5899R7481J06795R4805L8470o3354j45967j47598r2550
123166b84232n1122l8920j4953L2457O1794M5656O371k9426o3490r4338r5988n4135P918O2415J08023J45633J52382
123149a03955J10401M3851j589p842P512K2910L2054L6507L6135K6439k023n4345j13481j42702j20080o6842l0633
123132c27683m0023p8454j00272p2765p901M9173O9027O7135P1695P5480M8004p497m4110k9165J6786N3365O6323
123115a90882O2997M8735L1938L1444N2725P3118P5809Q1027J12912J49087J39067O9188k2240r1988j22467j08597
123099C91873n5115K375J2299l3714q2604q3162m5170j2450j7R595K1446J6617j3981n2287p2597n8080l496O9072
123081A0604J00755M3950o6277j26342p4969L6886J10093J03236M7039j4967n7184o4549m3668l3003n6959p7959
123065a63314m3676K4275M8349O344l9671m1428k3314j3940R041N4798O4811m947r1431r5284k1479L0160P239l9148
123047c32615m7349k3840p807j1914k3185k3709O225O9763J27113J24850O2763l601l3275l3958k1966L589L4550
123030a34366M9831N4130P2501Q9676N1985l9714r6792n0980M7946R7048P0581K6747M971j7598o2567r9298q4401
123013b0300k5634K0780J5729j2820N78P2763J35661J16161L9445K571L8742O6895P938r9556j48740r8038o353M5732
122995A51554K6439l9980r5242q7306k4365K3796R296l0732l3864r834k1946q1661j23013r1160q058O3233Q0782
122978b92061M1588k2840n5345j3956P8048J48230J51175J04497M8504P021m267K5023O9675O9572o745j15433j77576
122961E5110j54665p1126J9253P0768O5456J7965m0447q8743j19961j22906q4483j6820M3975P9287J04927J33268
122945a09142J46516J30276J08173J10681J24688J08666N2890p490m1554n6658p4915r7319j04713q4240m5621j4560
122929A45678j0573k6389l3115j3793J5510L1179L9042O1850R1404Q5069K5293m2623n8788k3102N097k0413q3644
122912A87682j32915j36109j01405n8325k9725j5793J027L2614O8253Q8093Q7033P0997L8185j0021m2918k2195L9482
122895F3960P8775O1003K2925P921k863m9910j15700j41971j12319o1738j1238M8418J06870J29141J12492R2666
122879B28432P9763M5051j1397m4342m3480o4315j35597j95741j75841r5144j5892M6911J01967J15760N9878k820
122863a06807K1746J14054J50732P6366k2190m7503j8518j2648m1073m8614q433M3505O0793L1680k3757o8799o5860
122846C4674p381O4645R1078N4596m524l4670k5810j1163k0706m2876m1495p964K0591N656m3884q3383q4472n8838
122828a95926l5436k9610l2797k3484O456L3260K5775o451j7267R535L2141J5383j2941r085J7570L2527M2231O8496
122810g9623P8895J9688q3691j35497r1774n931O1031J02857J18780Q2617O277l4853J801N6844N4660J1679n384R920
122792A68296Q863j9689l7067k9628k6396l4914k1119K9090P8341R2010Q6682R9590J35479J66334J66530J30235
122776I92637O5708j2544q9848j54234j89504j72704r7100L92N5181L2274l8371r1081q4979l1993K7882O7401Q4469
122759C63586Q3491O1301J7512l5728q7175j36382j72544j60512q1626J8112O2871L9134J3531M0071Q6797Q4581
122743A97020K0312n5622r8222j05379q9782m9973J4779P7117R0106L3558n0961r0439n9824j2508o117k0240N588
122726b00587O5231Q3609L2106k2414j6640K1879L2217J2557l83l037j4535k4900j5918j1661m5626r2424r3972m5269
122708c39767L054J9392J1314j7312o3032q2466l0778N0908O3433j1905p5728m7930K3790M3633L578k2092J1526
122691d60382P2604J06665R2542M6774O339Q130N9953J26118J53123J12672K2584o3469r1981n8507k1057l9259
122675G2849j00743j39758j26671r3253o2354j1416O5394J14747R2508L5001R079J9995K4362J3194K0049N2146P1876
122658E7005N4482J7186j7885m7684o5961n8476l3570j8453j0170K8104R8213J35197Q3314k1622q9191q2981n1256
122641b3748m8284o5004n6969j5749J6469O85n0788q7572p3270j6552M3555P1809N7306J5654j9729j9026J6206M8869
122623b06138M2245p5m0119m9640l5794k2317j9074j6107J150L5141O8202P2585L9843j851j7006r576j5440m0809
122605b14780m1505R859O3971M6511l9115j08990j06599o6332m5669l7482N057Q0015J27662J11991O6182M1635M6397
122588f1192N5569N5004M5589K1607k0493n4144l6923L2501R1944P3924j4729q9771p6498R377Q2619Q6519M6621
122571B47524J7531N196k3980p0451q7201n2657j6456l7569r7952j16138m4047P8901J70647J82096J23762M0324
122555C19530k6375n8373o0219m3438j6636R587K0001P112k0484n0770q0479j03487r8003m4607M4345J26550J60264
122538H4518J28178M5480m0119p2513l9106P583P712l0516m4909r054L0460K0888k7471o4861o9756o0763n3594l9655
122520b27498r935K4140M3706M5039M1635M7693O2080O7781M8762P258l9918q0024j08548j14906q2429j5234M7483
122503b42915O2205K5360k3565m1255j5927K9566N7615M3658k75l0138j3503K8828M1100j581o3576r6103r4222q3775
122485d18503o8217k6885L3119O6476N1947K9592M2420O7704M9789j3358o3885o0136j1920N9272J39548J91366
122469F8329J64654O9514j4547l7337l4461m5361l7953J7777N6369n682j22615j54061n5633N9089P4747J1250l5380
122452b1301k1524K3464N5648M9473Q247k5392p533L4199J7767p2154j42785j21732o3565n7998q4582m9719N8533
122435d20954J47886J53301J07350O6603M1708K3367J4875R021j8169o2532q1878n6533k2049j6323k7856k2256Q557
122418a55882M6480P0591O2096J4410m3636o5067m4872k9857m5444n0120K008Q4760J29939J14897P7417N5416N4698
122401B77834P0856R8993J15444Q7094J3306o4853j05821r8147m9815K1734P8360P3182L96q5132j25468j25933
122385A82030j34257j57242j37414l4026J00334J64630J28671O5967M8638M8200j4129j36687k17817j81733p2774
122370c47609R027K7151J9002J6215J3053O690R517J1031j8105o1345m6741N8689J82584K21792J59099N9412k7232
122353B92230r7716j39258j15146l2559L4391L0991q479j8628N773K6288L8508O8565J02793R0428K7868k1286j4601
122336B70162J3139J1837j5482m4141q0417j30651j54939j13608l6072K1629O9335J53734K39662K16145N8014j00411
122320C77936j18732k4139M0508P907n4774o8035l9338j9735k4417l4192l8524m0284l7564k8723k2943k5839k7071
122303a77959j8034o662J875K0605N3028O6683K9233l2519m7589J0773Q0360P9108M119o7393p3911l6642j8609m2130
122285a75664p4229q1904o6005l5720J2831O9615R2890N6190k355j9572Q284K5341N572p435K6998Q0087R9170Q7160
122267A01254Q7214J04972R9096N1194q82j4247P008K7614K5932P275j1745j8899j4182p202k865K680K385k7414
122249D19188q9247j38546j30843q2752m4632k4330O902L7382J6210n0386p7968j9620O1741Q8146P3804P2690P2637
122232A90376K5758m8531q0874n8852l1167j1563L1824Q5765Q5703K5378j7049j779Q757l6663p9997m6027K5448
122215F6507K8079n9640j53580j81994j50062q8791j1055O5906J10635J15474J09088J12786J11762Q4009L5743m288
122199A90579j3072O507K2623q63o0434j05440r6140n4831l0810k8215n682N7457J31441J72816J59249R0646q476
122182D27355q6844j03103p0458l4906j1949J6540M5288L7438j3628o2980p5991o7865n8710l6203L624K3082m128
122165g3438m0675l7030q930o548k3173k068O0425Q6516K5505n7647n3379N1145J51288J49872O2287k3206n6577
122148B04367n5784l9712Q095Q3618J22237P1782j7844m3839J2861O8468O7145N4506P8419Q8718J3192j08090j55998
122131D52141r3871j1525Q745n530J2453N5152N6505m695p2686q5782m2199J2834M1097M0342L1572L0071L0323J6045
122113D70992j8945o2445r3812r9653q4327o8049o7436p4433o6525m3913l7321o3947r6543j00323q0961o3117l9331
122096f90089J4245P9436J07877R8141J04869J48967J72539J21694L1431k1452k2736k4672n5809p7086l6022O6373
122080A7706J70917K06071J43015K4503o5392p6525l2025J3162K7890L730o1708j39117j56846p4298M6933J03271
122064A51287P5606L5712K7125J1960m1888r0460p6682j7174K2236R992l0200n8132m5848P161N9714N8629R745j7055
122046I1728J2933L9279m100q0476r9907n1710q661m979P473O2436J11036Q9445P709o6941q5500m9027O072L0168
122028F978m953o8817r2110m5050K5217N3583K9847n985j5839J2089O7916J21364J33503R2449K9108j7583l7957
122011B83760m2200l4468j5058Q226K7817L9323K5582l5193j25969j84994j72617j20124q0578n4916p654N9864R9626
121994c29573Q2437L6490J2176L1925P8941J17670J24458J07787Q8603N5721k5957j38871j86833j00509N3881J34703
121978A43049Q8304p263n9553n4040j7981L2059O9667M8501l4512j07581j05776n1618p008K0752O5236J15500J13305
121961B51041L7929o2542j34190j63491j50349q7970K210N7797L9425j2209k0607L2556Q8698Q7089L0231l3919p2477
121944a10778r0838j03999j07970q9867n3373j5441K1187P1894J37683J87568J91589J58436J17111P1276M290p0177
121928C18591j02456p2198k8221l0259o8665p9885l7065J4387K2737p82j307M8539J19757J62529J52477J02669M3324
121911E64172m225l4336m1452j3093M3028P5565L1433o8248j32959j10645n6188n2003q9214q5789j3398N7854N4921
121894A25423j1217p6289r5818o3328P76M6946K2321o3105j27580j12217n3056j6874K60N0498J30142J67358J20025
121877D4265K9961l5681n4672m7972m5402o6330j01734j06650m5215M9063R8686Q0407N3242O6445Q6442N4475j8713
121860D0617o6097n6159k2922m450O808L7925Q6362J17405J03468N3691L386k1578k6075l1993n1734q1439j09164
121843b1949j16038q1600j1927M5393M6127R497k590K4724L0284l7721j39105j79077j12581J8199J38130J99873
121827a90361J96550J48210Q7529M1254J2239j7193o0811j08923j33636j14832o2609q227L2013P1106J15222J30356
121811A37887P7859k0955r3750r9511o8665n0354n5575o9631q2356p7222k4184P7228J68375J85106J32604P5006
121795B11862N6469O0493M3834j2669q4224j17337p5630J2746O9371M9154o960k8514o636N718k7435q5368j28364
121778f3490j38355j14595n9397J6718R0534J35836J34077Q4487J5976k4812j8984P99o467l4962m6269k7974o426
121761f3304n735k5191n5481q6651r9593q0069m4364k3414k0064j1422N274M454j9988l1391O311Q1933J47532J60664
121743a60499J11112K6462m0982n3632k5758o786k3003n2748o1455l9910l228K6442L0766J0126p725L422K7223K0480
121725b19693k2906n5147l7827O906L1731K8338K6664L9801L9371n964q0323j22526q6967j044N6745M8677K6001
121708c28163N7520J28555J55090R5854K537n2787n6724m1452l1914l3286m2210m4204k2599J0189J7326o059j3251
121691b05578K8435Q3206R4348N9930J7846k3851q6488j51942j50241m2438J14023K11482J95895J09136L3097P468
121675B94328Q861J78k2899m5715p1226j08885j35136j07886k9932M1861O9121P6967J02359J32499J27029P4481m249
121658D01756q2051j25047r9845k2808K9438R974k5163M546P2301O8272m0260j50819j57065p6316m444J1086L842
121641a82603J8026N1763O9612M5998o148m3164l4381M18J3092j2534m3945m5885j6836K5034O2077P2955L9851k2404
121623i074o8920p2341m6535j5163J2055K0720r621o3372q2559l6047L3296O1988L8103j0402o2340r3742n7664O2165
121605c99453J93116K34591J77382J03969O6352K7134n8370j60448k12540j91930j26356m6349L4057J02133J39096
121590a17616J27532O2286l3707j08092j20052q4181m6136j9129J3878L8023R176o1770r2108l5054N0912Q8283Q2626
121573b45129P8512O5030P554n8744o1338q454J7060q831j4058M4661J01068P1852k9109j19267j47352j20223o6373
121556d93141j6036R895K6555P3310J46447J80446J33588N5717K4597M3820N2924J6787m4212r5873j12936p3356
121540g1468J9650J13358J46288J12974N6978J1419j8207l0412l3592o1860j32808j96566j80844q5607J8759Q4746
121524b47192J20457J28922Q6366L114n8373o1569m1244l6219k5282K6775R7592J30091J05539N5780J8832J0641
121508C14230K1642J5980m2941j38431j94888j55862m9411M9225R7553J01868Q0682M9597K6671J8626J1052n360
121492B00233j7648k1670m0642p9740r4631n1657P999K1518L227K2198Q4559J13237O6204O502J0773N7054N9952o043
121474C41425p4663q0503m0818k6830p4235j41338j53538q0069L5738J18859J29757Q9029M5198K8852L6140M4344
121458A97348L5963J0526k0193m1654l9513m484N0173Q1104M9119l2008j02855j25250j18500j13382r8805m7353
121442c19764K3624N8223L1101k2859n6334o0575n6851n8591n9344m7256j5724L6398J01493J55881J65112J11109
121426a4357J9777n0809o4498m1936k5214j9766j204K8519L6366J6409M711J8130K9123L0080O4599J43822J85109
121409C58861J09568l1461j11820r8825p7081j00407j15846o9158j403J7803p006k6715l8460p5755j26264j27729
121393e21698n2481N2971J26429J53242J55640J45985J15414O2582J2994l459P358K730m3988j01557j16621q6947
121377i1406o7402r5318j38654j33149m9817Q4607K08781K56282J97170P6711j0816j5773J5922J1081l1846m8605
121361A67768l646O2532Q8375O3372K9388K6109M9780O2820L9206j378j2911J6869L7990j0863j24217k21805k27595
121344D1794j46723n4258j3626j9531k3486J220L9288P1230R9798J24013J14858M8533m8863j22587j49980j49625
121328a87945j36542j06321o4267k8679L334N2087J05234J16785P8095M5327O3628J03003J08924Q3039O6373O6352
121312C68427N3163K0291P37J7367M8509M8600j0922j10188j76912j41606k3159P2773P6879M0034M2758O3581K1388
121295D11720p2469j10171n2729K958k7466q5965o6119K1712O8887K7710l2972l5068J4740N8081O1666L3343p482
121278B10376m7180p6936r0710q2099m3663K0675Q4567J13890R5008M3100j1229l7288k1306J5106K6389n963m4558
121261A48179m1932l618K4972K5849K3362L0842K5663p699m7625p0826q5844j05142j11791q4423l3140J9959P3472
121244b19742J24923J39885R0956J5081k1796j5608k2225n5378n0729L4320J37555J58963Q0879k4563q4539p6447
121228B11535j1220P7396J29943R9782N952q5914j35774j46034j14454k8631P8364J26005P7714m573l6114j0715
121212B33262J2795J657j8624j4699J2452L9285M6294K8543l353l2490n5097q0567j02791r3505m4971L423J1718n670
121194f2338o874J1119J5853N69o653K199p9k2544l3338j3571N498r324l7406l2339J1488N3005N6480K4010j6237
121175f0482l1563k511N6411R6578P8442J7987k4865o777N8621J16793J18692N8193k1719o2916m5586o316O670j0985
121157C34667k4494j3535K939R02j1058n022K3782M5116K8514j9058n9734o8165n7520n4773o2279o3831o3442q5609
121139a52600j24212j23921m6045O4255J17350Q5540L1527J9193L2542J1737n2190r6651o4759K1983Q3047O4875k072
121122a30401l5004J3577J04505J52712J15306K8985l9053o0833n8765o0697o4460n0560j6445J4852K1335Q843K784
121105e3319J5211L2307L8613L8403L9972L2550R03m3669p1182o9732n0063j6848L1784P3656P1876K8870r202k2661
121087F7469m6994r6993j12074l8014O9675R9803L4662k8779j4055M9470R5497J04966Q6557L6402l2694p0062n0444
121070A54392k2775m0686p4689n4932J8437P3525P0351M3463L3874L6221L3078L3873M9851O0385L2688l7540j18286
121053B91230j62565j36403m6279N6290J14795J13933P2671N569p7621j43905j52745j05584m2633J3024O5363R5073
121037c9787N7877l8138j04704o8897L3636J03356R1572L0010l2091p0705p5020m3355k239N875k9052o7498o2192
121020c11352n081P0119J18015J11372N6465j1108n0210m1156L682M7766N2010N774n5412p5048k7645O0636J41845
121003I0672J80206J58051P7840k7593j09503j43532j37955r7481j5372Q0507J18931O5376j9325n0442k9763k8787
120987A11830p0165q9445l0010P6603J52828J59190J05883J1841j05669k09434k48175j98961r3366P176O2791Q3320
120971b73763J06358J48670J85456J81264J32277O8524K1316l84p134j3573k0917r101L9512R9238J08759M6041k5587
120954G86956k7129K8310M4791l1257j40884j91072j65805j23439j07702j05371q8701n9585l7165k7337k4872l1450
120938c01712m9121o0791m1640M674M3976N8809P3787J07691J21423N9669n5852j25286q4358K0218R7386J17197
120922a3930J10536R4830N5981l247n0213o8349p7605r5371j07758r5749o6681m2291k9692j8157K447K8141M2735
120905c34373L3064N452j8695k7751k8975k7221j3560J2196K9459K7032K3491L3558L8030J8324l486o47K405l7777
120887b69474j02836j19744n7929K7287O5312N0123L3165O0166J24570J67815J30286K1316p7499j06827j01475
120872a55744j22659j48110j01474J9208J25021J58116J49191J31315Q1405q530p7643p5393l9764l5521n8833o4024
120856b23439m6792l6500l3610j8751o128k7398p1077r0531o7961k7527O901K6713K2968j347j2591J8650P1654
120839e16766J01815R9283Q0738M1682k7268q4699o2789L9157J35800J48981Q2541o622o9874q1757l6020M1180R7609
120822a7009J01877P1894M1097J3885k5458p1768r0818n6526J2996O3252N1827q190n8080n2111k827L4939J9334
120805B8314l8631p9464m4243N7739J32516Q9879m0278j22566p3305L9243R0966N6540Q483r461k8899p2996j00816
120788a06979o9719o376K4764J593l7511m4258p444M5783Q0507Q2664N9926K1793k4392n4911l6178K7677P7215O0595
120770I4749J16l7213k4962J510K139k4802n4652o0892l0978J4903L0398j227l2113r536M4023N9773K3517q907k79
120751a4433K1029J6763r768l6690n3057m7493j1646K6526J8236l4885o8819m1549J2891M1255L8522K7109J1295q866
120733a13580j3983M005J7552P173k287J1384J9234r956m0496r246P9050J53707J71629J54775J32016R8177M5880
120716G05034q469n3598j03067j61404j97813j81286j26071p7912o2601o5790n8055k4131L0060Q4199J14074J06356
120700h0474P1549L9111L1838M3664M8513L1891M332k0146m4059p1184q3955n8787j122N4993Q2039P6714M8369J3984
120682A87270N55K1846N0068M1236o997n5903q7530j21368j53402j29838k1931J07373J59940J12135L1448m974K4315
120665A54243Q8643J37801J34080Q0583J7045k9432p5398j40013j93783j85354j09354j1920O2818R4818O8240j8269
120649G4748j15225j47061r6010k5438K096k746R875N3886J00954J29460J42173J40719J15200O4034K074n5710
120633C93029j01763j26079j20042r7408q9359j01387r1651j8545R4747J70946J59753Q4986M345m7140n6483j4642
120617D3307N6569Q2564J942j40957k23419j81802p5794L028L3822M4080L8820J0658j2966J767L3475L3693R692
120600b41521J4650N0601N0143j8699q8480p7059J744N8458L8059l1351q8953j02376p8114l9127j243L6622P6579
120583d40067R5133N4938l8340j12554r6002j233Q9390J20207J10917J04802J07637R9908P8661N3918K0690k9884
120567B18121p8698r4505q3511q6661j16114j29028q6343r196N0482P1559O3727K8243l5931r4796r7634m2823J4263
120550e08845L3810L7119O1354J00768J17910R0797K7226m7168r4465q0371j0916O1333Q9468P7319N6495M1161K9398
120533H2393K6025L1339K3478j3906n9049q1620r2324j21277j52737j30642m1121N3325Q7040O9347N9475P8976Q3179
120516i8099K7091o1652r9476m1262O0731J13183Q6277L0253q371l7660o9291p1631k0997L7943M1817j979l3246
120499a46369l1023k4098j8515J1569N2849M9679j296k4765K2480P6611N7947j2866n5732n3110n6856q6876r8654
120482c39025o3173j6264P2J318L0192Q8305J33519J37763J20082J18401J44731J75343J75783J25977K6434j01496
120466G57962k11272k44756j78774o1269K2112K7432j6614n9661q4427r7285r4355o8909l7898k7275l2039j8549
120450d25577K8522Q1985J01561P4159K2342j4667q116L7232Q2937R0522N7466J1732k4438m8892o0780n1624k5014
120433g0650o594j9336n7385r3467j01548o5322J6557J14526J71856J52645Q5085L3430K5539L1402J4980k2893o3330
120416A45495r7281j11720q0085m160N6185M3977r004p421Q4831J89248K00770R9515m4457j46849j65877j12818
120400D0349l9078P34l199j3794k713J4900J4243k331k3506m9017o2696k4640O6317J34850J06402R91r9284j51847
120382i3319j66419j43364p5759l248J8512R531M6669J36177J87380J46226P6144N7317P4784O7600L2725R806J373
120365C82135k2196o1484r2486j12313j24758j02651k7075N1488N9509N577k6977o28K7703J778m5351l6881M4275
120348h0335J32089J44560N5543q5535j87996j84963q3374M5341J23065J14383L6043o0767j20403j16310o3604L653
120332c28610O0245R2185R3175P6247O9928Q0374P6625M0534Q528K4057O4921O6747J3562m6615q0298j07600j45267
120315E8738j63174j31383p2384k8422l700K2820M7783M8884L1530K8500M7793N4567K0461l0970m8381j5189K8255
120298a04272K9027j8886o6461o1309p07P1607J14177J21223J09865R1199O3577K6049j2822l9913m7242l6339j3056
120281B25717K2086P3092J31322J63691J32778L5886q3010j68497j98628j88491j53445q6820J1230R4974R9372K3910
120265A35167l8162M766J24595J95247J42309K8437l4070j7086J5019L908m4344r2477j18404j18229r3850n4245
120249C8581j7110p01j5018n2295q0949o8163k3502J631j9584m6976k9302J8922L8773J2503j9003k1911p695j309
120231b93108j1433l8475p5232r5098p6444m0468k4777k1758N347M4232L7664j7505m6794q039M5009N9419P4727
120214d82733J42410K06439J62531K0043q9984p9248K692N6682M7305q77n6498q7395o1449Q965N4209K5923l2911
120197a63896m0476J7802Q1849J05262R8039P6889K8892m6707j01876q8590k6572J8109J6139j140k479j42j4076
120180d2973k6694p349L3093M6641Q230n3129q9034q1014m9682k6778k4263k6174j0280K1591M4874M9654N9613R6912
120162g6762J43402J60316J35082Q2660J3574o2749j09711q5674o242N4603M4343j6151p2929r5425p4055k951R6526
120145A27857J59985J30567K1070r9747j75128j93961j70139j17479m5893L3387J00129J24858R6110N0054L8780
120130H0450N5142L1203n8687j37190j16707k1768M1907K4613k4349m5619l4854r563K3909M6298K5570k5090l7678
120113a82413K2270R7299J11596O9631L2214K1285Q344j3613j2113J9518L7031J4914l295L3042R5508J01305J9606
120096D72129r0374j57585j77097j85529j87196j45987m8669N9550J19274J18584R3735P7268O2456K2434m2449q6368
120080i5824o0144K3859Q9430Q1833L8675L5816O9632N2801n0898j49547j35140l0642M6812N0612N0710J05124
120064A23109J65380J51390O2649l8603j15595j67676j75921j10029J73N9965J2954q1521j12405m7389L5862N2046
120048a85611Q732j8010J0930N2760M7579n238n7364p5595o4359l6055L934M0920N5233N3700O4421Q3889O3437k1811
120030B1492j16896j40848q6045k2482k074p55K7824P6981R7654O7182J3482k7262m6879n0671l2987J0584N8534
120013a53166P6079N4877K2527P222Q221Q752J556j2994m0715q3589j19653j15016o1256J3699P6585J16189J33287
119996f7395J19402O3763j9363q3892q3965j7635O4627J03903Q7831N2434K8016L679m0191q6733j00463p9063n2178
119979a07223l2705r357R411o888m9288n4475R750Q2444Q4441K9859J888K7394M5408J4911j4131J9592Q5130R3124
119961B29285J4740q5581j33756j17654o8797j3709L6515P4768R8008J06172R0892M2813k0613n8338n3813l7078
119945A03854l6772l4370M28M7740N5738J6337k3194l0339k3613k2970r173L6762Q6865R4520M9495k2519r2375
119928A96414j31494j11922m2615J4893J0823k7625l9665k3207k6679n4007m5170K8596J06413J08774L1298o1169
119912f6342j06097q5672k5165K7384M0995L6346N5998R2951Q9826K8081k8298j2540N9797J24177J50255J46882
119896E28578J16235N9038P337n516l366m4882j38523k21002k27201j52980n1628M860k4800j02300j24265l1901
119880d12316J04246J60652J12615M7002K5148J1358l7577q7762q4257l9014o255l483q592j0490j3429r555O157P791
119862b37761k8594p3441p1329j7774L4678M8916L9768L0937J8004n884k0105J82M6208Q1643P9213M1352l790j6863
119844e4640K7075J08433J64613J42532N5979k2221l5289k105J2117j9509n4705m7554j7757j9379n2129n3413N574
119827A37622O0866L1943o6399j32681r6455Q128R2287J06789P2287L5547J7097L518k0171m5321n6024n9395p5346
119810A4292r6462r0073n2330k5618l6396m7647j0851N8537J02507J02858R3770R7666R7743P7869M4430K737m3043
119793B89989o0520j2503P4119J16953Q1891K6842R600P618k1593n2813l7185m37j2261o4651o7588J2246Q4987N6444
119775D31138m0305r2318n8496j0368j9929o1394n3041L0639J23293J41376P0705k9751r3639j00933p4837m7045
119759A15095l1121j6506J6032O2887Q3850M0880m5806j07028j02272o0608k5772O084N6398R6351O3855m6370j52764
119742d6815j66801q1808K8907Q5432O6161J5360p286R189K1731K453j1470K9258J01904J30300Q4618J0622m5761
119725B25994q5145j09097r1622l4507M582p642j6104M2293J27060J39270O6025j875q014o184n8782j23873j08478
119708d6099n261R0107R8922M4781J947k803m986l6996q2504r9899o8136m06O9464J02164P3502K445n2646n1527
119690C2069j9804j2764l9935o3846p1378r1940j25125j07664l57J30833J80237J31152O1391K8659J2705j9016m8851
119673b3634m4298j6648p083l1854o8383q5662o9766k7629J9438N0388O0942O2428O3943O3543N5753L9087K0546
119656F1111J9564N1304Q9942P3162k1271j21415j31805n2489K5048M2397L3289M1644M7165J3916l9180o9448p6583
119639a3649q4538q3815m7275J2083N2122O2678O7652P2845O1645M0557L5901L8407N019o5600j09480q0362j7415
119622e3225Q109j3042l0077j5478j328k4294o7980q3482n3846j2837M801J0694L9350Q6100J01836O2592J2356L845
119604b5906J7140j4746r7642j43807p5990O6905J65772J54217Q3433M9297P8402J05201N8913m5360j20316j10586
119588A44927n7533l9141o6006p8763m6677j5770l2465o4945n0183O123L7281J9227K605K3294M1936J3889k9103
119571a91304k6366J3467L1853K5333N0663J12334J28507N2776m0148n5187j1170L263k8049m2449k2339k6426p8042
119554a03284j11478p2715n852J1028l3842r5459j36925j38454q3577J1689Q6588R8862P2787M7370J7433k7735n3810
119537e17374l1986p82p559k3018Q000O1220O9471M4533N9932J15045J26184P1784L6706O9715R7081M0986n6336
119520A63602r8008o3497p973K1613J0192m0863r4571q6263q719N1853K4105m5398o1097j0700M1541N8598N1289
119503i4296K3083k4838n1924k2039K5436K9513J6896O1735J40702J39023K4842q9366j06023o7037n6349o3883l2135
119486a46660K1946K7672k5060p6816r1017q1076n3239K295N7379N5147n151n3555m9741m3340r0554j53213j40713
119469h45696l7052P3026J13132J01321J01514J25540J27243Q2919L0646J4338K3249J6449j3052l6740m7735p5137
119453b46035j23409j35326n7191P1018J37103Q4004j6171m2800L6703J43108J88519J61765J03889M4705m869l1687
119437C13326l6290n0458r1751j15143o6224K4604O9732N3308N3133J04499J27923N3750n5579r3644o5842n5972
119421A69372p2100m2724L7578P8112L4986k1261k5171r560k2006l3499m158K9465J7592n170K1786O4588L3497o7269
119403A84058j25411p2674K8709Q0159O2903K4411k85r849r602m186n847k3223m6640n9017n5617m5556m0667m5269
119385a63603m8383k8648K0567P5380J05612J07776R5695O9349K1905k8249m7865l5399k4476l2448l7147j7412J2683
119368D5337K6245J5560j2324m5781o0367l1740K1529M0281Q00m0372j7953M8287Q1333N7440L0438L8596M7909J8610
119350B63828k3028l0171k0668n2288j18125j33683n3993M7976O5417p383p3277n4912K9867J17740J73103J87493
119334C17896J48841N6997m3632q7848n3245J8618O4382M8327k0884r7498j23354p1668K2473Q8457Q3667K3352m8595
119317C26286j00113j20617j11595p9914l1001L5937J14272J70193J58571P3731k9960q7559q8129p3065p4310p7438
119301E289n4678j3052J5590K6307M9804R5472J16404O7344j8252n8153l2938j4320n6849j13207j06653m9615k3042
119284a64549n2361p6133m5702J2277N7649R8491J47060J61856R4207k5953j06515r8935m9240l3734o9479j02712
119268b53773p5363P857Q2258R3575N5595K3276J9949K2217J4466J4636L0171L0902n468n4955q5075r7041r5589
119251b72362n5779K9021R7925Q6131K2505k900L5696P4264O2783K2425j9163p5382j43466j62707q7212L8438J28951
119234b20832J54365J37641Q8846O784o7632p0794m122N0423K7164m6139r1076p0490j2291L8585O2630O5993O3811
119217A12866P0216R0921J13839J10270N7252l4330j19046j52012j21967m6617M8322J26605J37365N7937n4351r9168
119201B98102m5387K9930M1907O75k2895J196M5622Q5421J13629J08720N1071k4296n2192k6982j1092l7577o4580
119184D91272n4200l5383m4179n4123k3697K4298L3281o71l4741n6879r1021j25353j03275q557R1720J21167P8503
119167B08162K0190j5176l3805n1595o3538n4078k4069L477R090M605K0779O0988Q6448O4388J3596k0454j8763R456
119149B19701N6519J06425J11128L3203q3595j41051j01951l3035j1049l0456l4841j643M2441O4937N1545N113m9564
119132B03827p5206n9785k8798m222K1935N4346P0263N8472M7090N5431N3256J3710k6101j3779L3886N6010L7581
119115D97916P210l8976j28004k20864k21786j09051J7332O2358M8972N3947Q5297Q9028M5917n400l2110l8904l5617
119098G7265j8416P966K2213J4156K842J5135M8790O0607M775r8392j47690o2213R7171J66544P1645p1287r7766O146
119080I9491J13499J33827R7479O5506M0377k820n7531j00190j27047j41562j31955r2344m5682j8061o237O034J6592
119063a50624J6653K1060N5098J10080J37614J00658K0186m0569l9564K529L0618K0318l106j6014l8800r8488j66101
119046c8452j73765r7975J0252Q8409J22436J29917J19271R3266O8672O0620N9162M6781K8938K2575K1537p26n3666
119029E07252j13791j47677j37443q6510j6907L7688N1686K8608j811j0321Q181L4355M6024M2896M6090O4722P0571
119012D23613K7418n3701j14526j14664p3260l4176j5977j3703k1249k5063o67N2001R0884Q5188O4884P2681Q6566
118995D36249M9948k7359o9009m8704l6036q6396j45350j22978k5200N6149O5765K9991j6635p7835j45625j64437
118979c27462r2144L2583J26232J49454J25876Q5818L5064j6308l6633j0501K8516L3498O837Q7M5283J07035J17928
118962D11163N2691m6070j12418j15904p6928l5433j1061O913L2875N4819M4515K282k7045l229N3874Q3519N6212
118945C70775j321n4335r6899j26885j24245q6784n7274p1119r5067o7222R076O5000O4855M8847N7471O8060M4545
118928e2522N690p167j127j4780m6388n6642l9632l3334m9608m8106j717N9152R6914J19048J39649J23240K3838
118911B16508j26015k17565j76403m5235O0244O5066o082p2203q0687m3153K321M1328Q0354J11624J14339R1604
118895A6045P2461O7457N5338K8147J2458K2021K7596Q854J55L7569Q9254R5091N6923K6968J6194j5844p4083j02517
118877D40087o9820j8698L274Q201K3391K8836j1324q3526j35843j37213r3958k8504K8361M6679K9354J4589K2067
118860F5953K4891R99k4614k5495k3533m6542o9573n1887n533K7034L6935L4183J940o3195r5085l2049O7420Q2497
118842i5654N777m4781j0265K5433j5457p7549p0040p364L6484N0211O6673O8711J5687n7995o8029k328O3714P8236
118824c8536O6092O3112O5015N6206L2677j3576p8144j08432m9741O0122J11844O5595M233J0030N3529N7248J6458
118807C73732r319O609L4723M7845M5157K3250k3845p2519q3754n8255l6399l0283K410Q7971J69936J56412L3821
118790F67492j01457j44228r5423m9649p2572j25885j32482q4359m3012m3567n0233k1031K7516N0028L6610J3933
118774a68319J330kJ5217N5659J10254J49500J51916J15596N1346j8163o2430o9464o2854p1127q6080p5032k9817
118757G530K2162N3957O0002M1612J020m4222o8790p2288q0135r9997j01868n9894M797M4671L9133R716j0690q050
118739b61334R093K2534K1866J6011K3905M8799O9213O2473L0292o316l0273l8142l3049j8159L930K9436M7883M0005
118721C8167m527o1472q1671m3139J7703M7072L9410L7436O6221R6152Q7144M7599K2511L1386M7499M2385K1170k602
118703D48444l9585r8943j44941j25436n1698o330m6014j30305j80773j79496j59730j21323k6446J10145J94731
118688e57700J58739M7220l8098n2254k0883K8613Q9670J38876J37825Q9511M8428N1111O8458N0979l412n2255o1533
118671A23295l0511K3979Q0668J12859R7290L2548n8396j44747k02317k18091j93285j43663q9598m3518q368J6104
118655f45751L0445L4959K7720R550l551J5144O9809J19437J13420N7694K2752O3869J44619J68857R3453j7099o5835
118638B39492l3916J1492J1843j6504k3405j391J0685j0154l9173m1944j9947k156m778j7835k7797l6034m8744n8737
118620a09003m8189j0113L9041P2068P4363N2035J9762j3483m6781q1469j14670j34433j23283p6265j6207K2036
118604d94591K8609K7495L9766N1420L2863j8126o9485q7572o5012k2576L213j6103o9329j03141p3449K208O4902
118587g68908Q4184Q0985Q0485P7084O0778M7293N6029P6147P9003N2955O292n0671j02043j14963o2485L6827J22045
118570b38963J41968R7122L0167j6801l6859n8407j08078j67849j79305j04830K1413J20349J45739J22955J11544
118555a19835J41573J87369J93738J28312J6574p7140j11074j02050r0358q2464n3927n752J5272l0381j19805j84720
118539b94668j76175r9142Q127J08571J77678J98957J66070R2427J0934m3729n6637l9520j9835k1248m4785o3210
118523i6185m4632N686L7407J0355m7621o6823k3190L2439M4436J6907j4509l9600o3427o5781k2741L8123N4190P232
118505b37734n3199p5213n6990k1851K2293P6684J29045J55945J34353N1419o7775j43461j02164K5310J15480R6268
118489D8410L4355L1444P6829P6872J2456k2197L8877J26027J20424Q054j08320j36077q1416j0043L3384M2846J9050
118472C10975l8701j06828j35933r8668k9427O584j4575n3977o5542n0203l6993k9709m699M0042O6128M1186j5132
118455b15472n2092m7459k6380j9332j8803R065P4554J39666J49916Q7056j4024r6695j23503q8624n605J01691
118439a46041J95012K24489J57635J7797j15293j64484j23476n5793k0648j6024o198J6670K7973J8569J2783L2337
118423E5308O8872J01831J20533J17635Q3028K0502m4921r0388j14026j22247j14877r3048o4463l0512J2617N0216
118407d3940N2858K1533M53J7269L5799O084n5365q1187m7548p994j7746n7505n7362J8848J33693K14723K18013
118390C50626J53886O2811k2092q6988j25598j33720j16015q4267m8414k1943k6562o2707q0918k7478P0843J17657
118374h0879O9665j5k882M4756O0876K5768M81K5314O6429P4241M5166J1739O239L7803P4667N8364k4229r6870p5363
118355C21270J5764P0031M0570j4900l8643m4664n9184o3959m3889l2126n7764r3324r9132p9323n2770j2139M2101
118338b02081O9426M4488J1040K6137P4916Q9960L4855p1528j85104k48273k07418p3794N9429J13273J08631J05784
118322b50259J00329N3207q562j4429L3249N4655J3073m1200o2533o6108o7420m0980K2711Q0024R3593P9039O0046
118305C8435K9478q348j0270M2985R9017R8359N4298K0908R752j1998n8871j08656j36594j31572q9317k3173K8271
118288a57296L5021R366j6129k7170k0264J6545P5398J00636M0379p4309j47087j23650m6473R337K1358J9326K3611
118271b61401J7862j4770n1890m9740j021M6759M8689K3005K3106N5466P0139M5037L0570P3757J33677J23426K3667
118254C36338r0994j36777r4539o17R5242J52042J51439J11599P4241O5372P3419O5685J8287o3830j44225j80732
118238D31950j68773j47337j43207j26265n1514O6145J58958J86292J65901J20957M5995m9757j09778q7529j8128
118223B73910J1798l3302r8988j12560o7301j8741j1985l3728l7342o23N2275Q2089P4945M7759K4102J4824J6957
118206A84089K0543J7686J2260J7110L3965M3456K7973j929k1532k8413m1543o0257n1405L455O4950O7539l325q3809
118188B00813r1739r166R9927J50521J09932J4721p2175j11853j04837p5011m6068k4999j848K9857N3746M6822J8453
118171A87096J0461M1679P2893N4658k146l7958k6092o322k3854o5993q4474o2268k9039j6013k2050k7823k1071K159
118153e6157M1731P9700P5733O216q8961j29808q5129j3636J1039m999K368N0400Q1785N3391k01k0670p61K9216
118135C1257N1159N4298J7311n2055q7892l8306M9478Q0554M0923N844J8058L4692J7063k093J4652L5664J1235m0111
118117B41731n6044k2117J3916J3674q714j7678K03K9846M8279M8596M7000N7690O3574L7076p611k0437J0337K9624
118099E08945j0124q0128j16146r9898o1773k6366K802K1049K5645L0411M4031M8882L4396L0143O4517J09304J10993
118082F36683O1067j1471r5748j85178k24365j51773q135P4351K4990q1058j26410q6878k2220K0832M1281M7065
118066h6967M0369L3607M1134N5242N4690L2656j332l6246n8709n1403j3875K5582L8465K8405J9523K3242L2169
118049A76552L6314L0369J4234l438j5441l7073r3049j67765j96384j35461k5240N0394N7378L6632M3800R3911
118033a34267J62480K09292J95385J06616k1231j15628j24965o4519R51K1495N910j086J9155L7391K6603J0335K6783
118016C60700N6648L7835l7604r5033p7587k9203k9884q1079j13036q8441l7061J0047N7791J03334J12386P2626
118000B22439L2124M4929R7363J21237P1145l5618j46009k10413j97781j03561L7544J57669J97775J54839Q1243
117985E24925K9128K388k2951m0670r856P9283J65792J74765J01731J3152l0421k5855n771O067R208J2443J4917J507
117967I99782l5756p0819n9996J269O1026P0399L6934m966m4259p5336o3470J0815Q9487R0212K6135L869Q1239
117950A116565J86995K12652J34480J1151r5253j56204j68138j46557j11242n7672K9386J20933J48940R4844K5223
117935A346103l75j0248n7095j15471j11234l2960N3157R4660J00965R9915R9220R7976R2847O6334N813o4094j03370
117918A562143j08329j05409j01110q1736n6191m8655m9707k7252J2715L3301L8585P2388J31829J54938J23406
117903A550916J03041J34548J54197R0796j3826o1994m1171k0479k4831n951N3236R2681O6490J3678m650Q603O335
117886B101619l0651q1436j18995j18829n7085N6282J54319J66794R8678K2526o781M975L4617Q1567J40558J71609
117870B619767J40847P9195N7342R4341J23714P0358n6048j63890j68886o8040O7427J57462J73399J46622J23938
117855C397548J17711J08034R0152R2955J33559J77996J81062J53783J50298J86060K13184J94154J58338J52021
117841E506855J63317J42218Q2606L7609M8377R5614J35502J53793J64822J78703J94076K14543K50419L01581L49655
117826H019690L72045L63742L46042L48289L71679L76568L24276K32332J63826J50920J54853J24889P4488O0909
117812A1484548R6554J25338J01315N4070M6745Q9622J28370J14103N9384K1068M3374J19347J95926K17892J79643
117797A3077299J32271J27034J56963J72919J54416J38592J70872K48723L27544L66121L53372L06471K61552K58201
117783A6252350L14963M17786N35868O43020P25704P91557Q78721J029232J225307J366591J345395J150656Q79081
117770B7556231O40789M68074L15309J28600r3489k99763m39485n12282n57646n98834o23104o29802o64331p65965
117756B3924302q98356r78979r80029r58450r75650j028028j078594j121272j176908j242258j280333j263456
117744A0941989j201213j119012j026698r20832q08851p12494o39975n68409m73497l73502l16934l17093l25531
117731B137948k89438k10942j26153n3886j186P910l6278q0945n5455K9233Q1792M6722l0869p4354n7466O795J01676
117714A395104J87286J91225P7269r3555k13708k30296j68450p9912q671J1639k5710q4842j16692j02489n3337J2878
117698F97739O9466Q0742L9865j0723l1727m1569q0358j38361j66865j47600j02522m4068K8199Q1499O3092k0089
117682B76720q6948p8509l1757k4461p2557j16805r9104k3566N6080R0064O9671K1535k4182n2236n3980k3543K4273
117665a49305N2962M4748K7991L8550O6226O9482L5612m905k1133j1119Q344J6336k330l7618n4677l9348k6065m6440
117647c2689p1496n3589j0047m053m4386o8950m0014O252K7207L3038M7783O1281N8183N6812Q0983J19206J40692
117630C06213J27869P3879j8751j13493j49452j06243l1935J7546L5756M0561L2329J1590K440J7998L0698J5753k548
117613B90210J1686M6867O5846O7019P8073J01112J07616Q2995L9732j0270o5702j21457j67981j98136j98206j51435
117597b2031p3300j9023k4622o0881p7728p1501p0522p5672o1333k4906P110J7809J1086o210k0352k766N6451J17922
117579d00469J33048J04735P4153O1594N7999N8708O3268N5831K7864M612P056J0963o573j0514L3785P1495J5755
117562C63310j10794j84015j41303m9887Q642L2146M1036J7503l9961p2862m0088J2706K1538l722j3557j798O855
117545a54251J5126L6692N1410L5643R632n6j0719l5052k3223O4394J55485J35367J4713p0693m4911J6415J3198
117528B09170m6426r4211j11666j21909j17519o9917Q961P4907J11523J31953J30211Q3793O247n2108o8357p2238
117512B414r2216j12001j01907o4448k2041J9980O8635J12812J27215J06575P3413M9524L8687M0070N7270Q2804
117496C86786Q9035N0909k4820j00374j35612j17115o8434l2982l5213n6182n9702m1725l2091m3360m8680k8362q395
117479c06317k1961n4573o3915l9111j557L9463Q4005J01696N5332k3786m5785J9563Q6319O1263k8489p3302k4923
117462b36078N7447J00041R3504O5923L1173l171j3039J4496M5828L3223j7111m4290j2594L6548L7863r236m0479
117445A40048j6776K1549J2916l6228n4140O804J11128J78318J62577Q6104M649m9028q5347j21940j37819q9353
117429A33462J8442J07601J06076L3922k3791j9168J8986L7891J2610m8703j07487j07552l5467L3445R543q3679
117413H6131j24902n7700L6247O3415M1433L5776M1323R740m8795p9980p8215p9318p2221o294J06400J77486J53343
117396B03869P5203P384l2785m8608k9245K0066N9283O3934N8831O7977O6236K0414m7325p8624n1174k196J4894
117379C68134k0010p9149j12383r9805p9684r9054j37597j24118m2110L2821L5154J252N421L8916K4529n3949j09339
117362d50971o3568M8747J27196J25076P9250L3801j7884r8045j82874k10670j49901l3850P9102J57385J96659
117347c60547J93708J48749Q3286K7154j0836l9313o0364p4044r4006j22754j21542n3626M1695P4613K1304l9245
117331c85768l1665K6047P7075J15610J62453J89293J41487K7545p7221j20073j13685q7284m6818K303L5697L4901
117315e0103Q056k2733l4193p716M5197P0578K9288l4522l5498L3042Q0806M7036j4606k0929K3351N4097N7627P7575
117297C06353J21674J35740Q8215K3733K665K5168M5205L1710j4523q2575j54372j95315j77706j19528p5305p6783
117281a15644r7618q8549l7428J9575M3196L3900K5155M3078Q1800J15410J22607R4984L1530n9980j52786k03938
117265a44708j81984r8503p946L3962J9522m889J0174O0058R1490P0838L0506K6729N9172O4925M146p7182r7336
117248a41026l5798N1689J06280J14890Q3551J1065q1769j34431j04517k7603K4033L3344M1880O4378N9886Q366
117232G4218m0545l7004p506j0437m3966n7367l9006k7234l1606j1410M4830Q1306N8093K2599M1483R2602R0236R350
117214B08636p9062j07511r0062p3355n6169m532P3529J17360Q4603K555o3445p4685m1070N782M2531O0842O2074
117197F8021N4414M8936N0500N4748N9688P5276J08971J41198J31773O2555l6297j17178j65903k04224k43241k56887
117181a67650k13582j20167j7738O1214J14778J48473J48192R6477J6586k2938K6642J26080J73486J13730K278o3061
117165D22800n6777l7785n5231q8341r4360p4956o2170o3614n9626m4038l0471j8435J1944O0550R0703P1953K3471
117148d383p047k575O597q926l1588j9819K8256O3231N0468J9733J7037K7712j833o8614j01456o6266k1835k7586
117130a48894n0021k5255K4811K0248m7302r5958p1690j0252L5332N6796N4361J1762m9127n1707M1193J60957K12580
117113F7834J81021J10272K3627o9926j26304j00435j6248O1514J10464J41892J30817M0747q2072j29855p2712J389
117097B72025J7728R316L3689O6188M5412k0385o5229o0697l4973j0386J5969L1629P890m8377q8589q4181n6303
117080C0726k7921J2764O9722R2250K1998j12589j94277j38096O036J05127R3005L1181R935L2305L5181m007m1159
117063B2181m2808k8488j7574J0509O6182J03292P3191L344k5952K3364J11161J70047J58495P3102n1388j52556
117047D96102j84865j59213j15759o7665q039L7123J9262n4357j03294o7072J8559P1073N9112J6481j7238k7527r607
117030i6924L2147O7829O3887K9698R315J6501J2965k8367p0641n8506N58L9482J5855m1234p8516q3585q1851q5897
117012c37284p3540j5579Q8191J98738K55094K13490R1203l0069o9726k9436O447l5327j34755k05212j91205j17589
116996c86559m5148o074M332k648j8516k5082n237K5848K7045j4927n9731o3580l6257j8049j4032Q382N8863J05722
116978d65648J26876J34070J29115Q6190J1219l0091L427N2489L0900m6827q4544m5738J788l721l7657n0761m4932
116961b33845m1457k6402J7016N8193N7091K8862J9017L1336L0090K784k7261m5438n7822n9763l5244P411L5276
116944b40156L2795J4800m888k8340n4079p0386p0878n3688j0316N5262J03048R0312K8730k8362n5775p2616q8075
116927d52612q2574n5682l8392l1156J8039J31362K37347K41268J38228J1575o3874p3109l3584K7198O5260M3270
116911H2564k1615o7251o0529l4115l3022m9399l3175M3922J51035K20384K03115J13947K2648j2141n57L578j9608
116894E09781l5774k0384k549j7269m5540m2817j0196P678p697k5022j7553j233R8l901J2003M9242Q4690R2825N3423
116875E79805l9001j48928k05122j66968p6987j6980j7752m1248m4465k3944N652L8962P0604Q6063P9389O2542M5983
116858A87605K7126M986j3960l1611n6083p4679n7128k489M3205L8028q499o0287j01724j28518j13368k8372R4697
116841b81071J66465J25665Q314q5403r0001l2152Q899r899n4201n9291l921P5441J30781J38693R7406K2355m6940
116824A11140o6838l4644O053J6808O21k0411l4555l4905j6047O101L546j5185l514M8751Q1354M5344j8231l5227
116806D0161p645l144m4386p1525k6258P3090J56001J68435J08925K3566k8641k6478l619or316J359L6050O6347
116788D52916P0974M7697M35n2287p4225n4584l4443m7084n4840K18R9006J57577J27387K9752r2116j91493k09117
116771A75773j28941l6310l2123q7639q1600R154P0789L9127N103O3130J56120J65352Q0779j4621p3047r6206o6064
116754A48776L2819J41019J70134J18230O1923L9696K0258j4321l3921k4191k0227n5392j21870j90598k26872j88465
116738a43002o5255P1173J15817N0012l2149l8188K1846P0869O4267K3249j0626k4463l6445n8264o4517k0446N2046
116721b4076P2019j749r7847j09422l1492L5171J8747m0333n5724K480R5137J66945J82863J34391M0103o0402j25358
116704B01453j31876r1666n1106n4707r3062j09560p6374l1000r781J2167O6060J14552J00851M6852K2516K9202J984
116687e3495o5629r2377l4920L9427N1209J3075j5787k3434l6364n7345o6839n9999l9597Q17M8973O0858J7723l2251
116669c45955l2822N304L2742M0473N8885R0564R6267N3240p489l0562J0907Q5114J16034N2750n9160j08027m3719
116652A4546O0305J04893Q3069N1899K8883j1283n8631o8055l9550k3408l0892j1806M9922Q5269L3347o1101r8319
116635A09088m5729L9741R4455J03036P4601J4485o1233j14155j14302p4691l7528k6920k8604k0256p691j4576m0200
116618a50479n0675k3147J9939L9602K9826J4637M647j3272m1794n8710m8358k4976j0081l200J0221L4095N8427
116601b13298P1243O2138K3636l6491q7834r4748m5539L4537R6235R8863M5109j5682l4447j4347K183j111Q455N5348
116583d5750J05832J03969L9563m9086j24692j68978j63926j01635j8455K4182J2585J951M1634J05116J21684O1850
116567e4156l3468r8878j00027n2802m159J3346J6201M3671R2487J11336P9283M8075O5781R4158O0511k8992r5252
116550A57115j00191q4071p9620o1204p361M9304P2340O9502N5174K0259j7734M915J04528J85938J48697K6345n8055
116533D85881n4695k5230l0383o5545j11825j64390j90292j39869l4809K5618j1971q4750j07218p4672k4885M1044
116517e67991J28810J86143J51551N3262j4211j2039Q239k673k8438l7581m2109o7498r7728r2184m5859O0Q385j5699
116499d87560m2074n5086o1786o6201n3136p697N8969J18092J52163J58741J32077O8750m772m2353l3348k2072m9974
116482b37267r9347j20355r6269n1057l802M8203J00049J26018J09648O9842M5661O1854J09106J48050J35925O5434
116466D11693k0994o8763o5260m5774m6397o5278p2922m6695R828O9344R5734O7614k566p7121j26763j50855j59883
116449b95058j48799j04680m0839j906j6056m9060l0346O4968J76127K15414J60632P4949L8898P6740J47175J88811
116433D56970J69074J00025J6569n7916j21622j74463k05225k06721j87134j53629j03287m6884j6260j8591q377
116418e57471N0435J11416R2876j207o9001l9807L7881O8849K8991k7356m6809k3273J8103M9109N7129N3670N3753
116401a42712M1596j4266r8962j43354j07258l8823j5722n0586q8708p9503j8403O1389J06326P4768j0037n9083
116385e83338j1504Q5245J30646R3365L2718O274P510J970k0242m7014o8830p9807o8032j9436O6620J60595K06030
116368a07230J67471Q6288N2506R4063J30968Q0203k8031r3174p8038l5848j6683j6408k1260l6019n2315m6683k8068
116351E1742l3199n6788m4621J6842O3054M4113K913Q275M9476N9084J9803j4966o935J5732Q733k6582n6344o6061
116333C4271p2135q7288r7541q3061n0006k3873j0355J6117O9859J16557J04855L2404m3742o6787l3337J4711L4381
116316a44970J5089j8246l3629k9999l5889n9462o4653k6988J0360j4439q5605j19716q0119k4465j5749l9590m6117
116299h14187k7988p359K2625Q4569J56658J82222J47439J04915J01961J18558J01479L9700k2819m4513l1846k1457
116283H9957l3841n7254o8017n2337j3651K4382K5169k7358r6969j19484o9448J6732R0852J36899J51220J16233
116267A13085K7708p6505j49661j79337j69156j08626n034Q2880J01517P8231Q2003J18105J25898P9043J8238k5112
116251A13277o6716j09064j12384o2521j1084o232k9425m0389m0649m7565m3414j106O3274J07511J14835R3297M6169
116234c2186j7524o0432m6116J4369P3304R5669P6519K6069l3674o8091n3435N20O3486J08388J12293N7278m6236
116217B70201j50242k03567j90443j29654n2074J4203N5927Q0289R5118Q9914O0592L7902M8806O2418L1681j9775
116201A01296k6890N27j3697o4671m0481R3183J89129J03491q8641j81952j06516J2302M4253q003o9964r4820p3243
116184b24697j6520L8880N6418M2874K8374J0743k8785o6826o1338l0797l9024r3933j29733j02167l6240L3083R7682
116167e22006J34540J00883O833o8528p3757m7259m6314o4134o0770l4229j2838m498N429K5141N5566R8249J40265
116150c67427J54242J34045J04656P8737L6461k8406p8279p9398n0358l0359k5141j8150j0934j3097q516K7114P8977
116133i5833R7393N3972k7357r8104j30067j30612j20557r9180l9872O4780J61967J74159Q5014l4174r4630o7998
116117c01099Q440P5665R2324N8897J7543Q215K0423J4049j4904l2227l4101o1940j24301j58698j13406k5018L2743
116100e37395M2763L6845K6392K762j1475K0154P7015Q8629K9108m4340o8346m7446k4661j3166N170L0789L5936O909
116082c44357k9895l6992p266L6234P2443R5042R4103N2286k1442p3797n5906J1998N5328L0672k9814o6434n5322
116065b73119j1900L7598O4965M5073j7993q1060j01417p9423m6426k3484j1115p757j4789k5951k7752q680L8624
116048e44606J12364J87687K21808J89285J05404P254p3852j15202j05481o5930m5582o6542q9236o1490J0060O9239
116032b64820Q2595O7758N1695L7634K2189J2189O504j4372n7640r2172p8422k0205L6551O0993P1517R6973J20352
116015A39319R2716P435p1616p8865k3184L3586N7917O4880O3402L2432k9128p0252m2147L3119Q0179N2239k4599
115998C17433q5928r3539o5430m8042o0007p1350m7996j838K9826M3477O7653J01026R8873L8800l9452q2633q0098
115981B0775n2636k1891j2655m4244q9545q3679j0812N6982N1143j517l0235k6140k9542l8273j0420M3795N4540q69
115963b25223n0187k0899O4304J23418J12214N0274k3582q2069j04620p6642n229P4299J16483R8212L9795j1100
115947G9448k4160r550Q105K1965L5037L8670K3377M29r134L067L7245Q9610J27046Q9329l6484j64636j91783j24686
115929g105o9067q7679j31205j27646p8850l1969l019K3742M9066N7614N1081M4946L6699P649m0713p2376m6920
115912d25752L8902J38355J86983J59572R4221M6429K4705o022o0930j07982j11974p5526k3189K6818N8638N4549
115896A7797J8622j4934j9109m420N715J0764K2184L5127L8218L8601M6698M2690p074r3408j53992j39542p4147
115879b30210k6303k4396k7149J1037O9072Q3621L6986j8619l6815l8078o3448r7107q2861r219O8997J01198R6265
115862a87029R5122J17019J46566J53482J15366L6615n1103j18941j63265j81489j48606n7730L2013M4115j6634
115847a84499o7829n9720k5128m943J1837M1133N5747L1231m208j3408p124j0219o465K9835P5863Q9929P7179O9317
115829I8528N8182J3397m3120m9760r64L2701K676n0494n8429j5887K2725J5665k6143o1373o1383l4299j2596j2969
115811a83543j5153L582K1806p501q6311j49413j31614m0303N6898J06662J13453J09862J03399P2373J5460k0714
115795c1057P517P2703J01391P5340N8351R2906J19357N5822o9449j36506q5916R005L8540k4487j23605j92047
115779c2135j95578j33907l7983M2764P4104N7563J4363l5933p4764q1982m8060J7510R0536J35705J19207M6827
115763d1763j6658n591O2248R7613M9478l5483q2819q0595o6989n8258l3242J7868O3942N9793o804r3064j29388
115746b99712q8786k5329j1552l8508k8370M1120R1333O2985J6307M0276J10159J26475P1431K4692K2289P130m7939
115729G4001o8806M656J09020J41972J04154P3477P3532N8331J5738m973J7148L3418J390n7035j01300j22074j13813
115712B38836n1208O0523J51770J57080R3040K1986l6542j02892j62466j60521q2243J4842O8679P4488O1586M6421
115696C93379L3246L1393M2733M9193L3898l60m6852j04907j55660j55836q7246M835N3835M1470n61m0656o2968
115679B8936m5804K7644J27799J84553J52410N1590n8658j23168j08948k1217P9771J10852M3728o5865j44229j71977
115663F7417j69824j44406r1299l5548j5062j6450K2949J22262K04675J80878O7420k7495m0036k3460n5821j13905
115647f7705r6291L0559J66745J89431R3007k0655o9563o0009l3103p70L8451N9378K9105m3512j08334j25026r5418
115630a13710m6558R69M5237R3185J39313J52093R5272k2986j33652j62201j00698r203N1421O8493O1296M3727J8081
115613A80079j0007k8797l0285j5483O476K1517J9971O113r114k5519n1236q0348r0334p1359m1312j7983N964L9200
115595a92457N9539L9468P45O066Q1464J73278K01401J38447K1804r1392j58975j63522j21759q0099p1140p2624
115579b29756l4300N3106J41860J83775J75163J39058R4523N7758M2157L5306M894m6561o3755j3248M9858M0391
115563F30229m3472j18352j26185r1598n9673l4340n857R525l827k8109m0294m2378l1525J9973J07388J52484Q5579
115546C79568m8677j36406j40693j29798j49963j50999p9566J8045M9084k113o1245o1492q195M7433O2037L0092
115530c82888j1185j0471M2399R9994J16565J03866R7204Q8365L9930m1565r8296r4606n5308k0076n6O034o863k9815
115512a56772l4266j2141O376P52j593L3283Q6010J00985N5388j6723o4463o1876j6562L9054O5729M5873k584m7139
115494A9331o7868n7717j4863M5887Q7526P9617K8034l7554r4790j32714j41674j21303q6215m4291J3779Q1385
115478d43430J17052R4492N1315M2972O1804N4781J6272O84L0356N3558K5522k0893k9427o797l578l0045m3782j9428
115460d8572J2617J0172k2842l8632j143O5423R0745L4499n5336q7148l4495L3179M4961J4733m27P274j045l1578
115442g615m1153p862L1345L3400J082m0395q4302j27462j38780q4425J7932J03501J27571J05543P6361M9183Q334
115425B2258m2499p3633p3566p1828r6869j28593j20493o2935M268M4004N8798O7706P2969O5485M4755J8606k447
115408b74014k614K4501M6567Q693r2907j76642j54011l6709O8601P7736J8187o712O8857J98545K60346J77578P083
115391B13085j12954j10344m3293k215N931K9431O7465O8817K6566m324k439k0586r0304j44987j00718J7347R6139
115374a07383P7434J9906L156K0024M618n6079r1063m1534M7844P5286J2663n6929n1977j888j064p7662j61929
115357c86577j81920j37820p0428n969M3902O8989P9052J04370J46647J56841R5517q227r3185j38860j60304j49354
115341f37326p7014M1703J35166J48562R9602M3252P154j7211l9333n2163m6150k4888m537n95j1962j9794j0314N947
115323d59901J2434J8265M5295Q0378P4050O122p5621j10586r6942p2655m4149J5082R5777J39304J13664N5896Q604
115306a94983l9817j05394j39260p7419N3435J51264J66638J47603J37509J00666j402j15151j45596p9119O016M5543
115290h9467N2389P0071J08308J39469J30724O9380k4297j06288j46870j55574j52647j29929o7760J8983Q2831Q9093
115274a11584L7940m4643j10337j04529k2548O2604P5309L1578R962L9517P6746Q9093Q8866P3660J1014q7865j51023
115257c6240j44719j25084j40566j44215p1160M1230Q8384L5825m5078p4086m3330l720r260o8448j20480p8462O7157
115240h72252K10276K37411J54650O1605K1650J4817M670j3286l2441m7267l6029J9510Q7974J07459O1567k358l5595
115223e7639k8150J3349P7116J26234J17615N8863N308j1604r771k664K4059O2751O9194L1535J632J6048L2056p369
115205E18563q1257j19472j01431p2287p2091r6038j18709j16340p0187J3563R0827J21102J14460J00903O7104k1351
115189A57359j34391j79678j20340l9922m3849j25308j78178j31263k1584O9438J08134J14985J09792Q6370L8222
115174b90213j6396m4422k5476L0709Q6705J02353P2818M1149N3445R6559J02977L2162p3082j32626j15396n4492
115158a33226P776N1752O2024K4179m2968q8987r1583q6226j06212j19719p0109L3044J12709J20758Q9148O3998
115142a73642L2838l8247j20507j35550n9843L3898O5356L8780J1445Q56k4530p1825r7937p1919j9303J8255L3440
115125e78435M0251M3812N1396Q1304J23642J19774K9209r5680j50305r4329J0123P6644P4242K8518j6210k5886j8
115108b81948K4677K0152J5126N9434J37762J68031J05476L855n7287o8683p5052q9762p5240p174P8026J12379O0545
115091A30317m7149j38539j59567j16924o0542k9540k6876l7481m4712k9924J2821N4708N5531J8051j3013j5689
115075d48528j4457k2083m914N8219J21537J23707O8877J0620k4594m7812n5120k2656L9615P7773N5563n525o0869
115058a50647q9252r1901p1725l3784O140K8425K2613o494l7876m3760j2191M2652R9792J47162J65288J21477J6253
115041A12172p9486q2582J011P4817O5048l182o0984q5793j00726j12214r5894m2167J9502M8689K5431m5642j34933
115024d96933j84938j38996k2J51202K22310J94656J25240O7655J9933l8840r2020r9800n9927j8636j4971m0405
115008d04492o2992o7996o0402m5617k4673J902L6511P9707J15666J18828Q5977M5142J9977K960k0926m3316m7352
114991b71096l9231m0260n3876o0492m1129O958O8175J07842Q8317Q688p8636j11881p9409k5095k137k9537p9357
114974f32156r7218n4825P648J9788k3197m1708K0994J14794J54717J40487J37417J58914J48169Q2356J8340O812
114958A61332K0741N381m4107q9039r6746n5365K6861J07396J26280O9426r710n8398q4822j18900j45303j21608
114942c06581m6734L4322Q8908J19790J29445J01214L1574m3186p2117l7402K7377O4073M0175j9171n3095k6437
114926C2155L5367P8585P9568O1178N7618P3915Q0036M2437l5711j08800j32508j08471p0580l4799R543N9010Q3082
114909B01625O6033K9558o089n1884j12932j50010j18697l4986L5549N3922M6642O7900J40771K30567K60866J70854
114893H29689j6065j88919k42657j73878o5416R534L6968L1314N390k0686k4412j4955k9264p2442r2676m5542L7772
114876c6245P9587M3881l3089r4461j15918j04938p5086l6381J519L0749M8967N8409O3176O4849N5393K0962l3487
114859f2113o7973l9889L7842R2377O5535j7753p6483o3336n961L8341M3397K4107R532J8989M8109O5914L9175k8727
114841A21083r4336j16889r1627l8518J7254M4707J9497l9602p2580m3449J8587O7236R6478J14253R5223J8023p0431
114824D4909r3497m4428J2508L8326N0293N2571J4655n3970q2635l9110J0307n224n6136o2566j4013K5118J0924
114807a91968l5775p2072p4264m3392n826K754j4928o082O0603J36264J48630R4843K8375k4286p2891j02743p6097
114790b48855l359M8754M0100O55k5348l2258k9220q374L1914O2051N0323K381m5028n6268j7436N2778J06026J02911
114772C1747N8206K5170K8532L8516J9781k0674m7327l6736N850N1940O5761L4461j3540l8914l7341l0964k1386
114755A13082J1630O3557R7820R3814O3994J4318o8168j69472k32710k17229j44453o1181J3933Q3319J37468J55871
114739d4407J25293M7018m8978r6349m8274M2217N5300m6314j55091j54705o7492m34J4642M1277J13157J77419
114723d5721J79508J34613Q6465M7456R100k9301p0460j22778j68478j62183r2515j6885J831k3671k3881L3673
114707b63227J01742J09271L8759n9074j14878r9357m0799R347K6670K7043L3403M4621M6874M2450M7207O1729O5578
114690G7359M6684J9450J648j2620l8750o9303p9598o5645n2235n6848o9514p8162q4772p7654k2317Q1640J60679
114673c19958J38874M2750k0782L263O4179R9085J16235J45261J59669J12949K5360l0120k4337r60m152k4091k9096
114656D54129j5916p745k3090o1125j04473j29442j25174j03984q1693n5274j8839R751J0389M595L6654J01181
114640a10056J32579R2524L0345J4111K6122j5552j29257k22094k02635j00491k2142o317J1862Q1305J47061J32037
114624a40598O1983L5434P9402J11147O2086k7503p6254p0122m9712k7651J6280P0711Q5098L4748m9038j21408
114608e397j61059j59825j13268l6738L6432Q6564J17109J27054J02227M8214O362J3217N4923Q1048O0442J0218
114592B67523l1046m8059n6896o8514o2092j6634L9425M8456M042l0015q143K8658J4922m1673q0715q5707r3532
114575b20000j11529r6384l4061K0261J3543l7540p8722p9609l8117L4559R9888J00508K5421n6617o7734q998N4784
114558d80347Q0733Q1453Q2926Q6484P7068M6141P60m1072o6999q4915j07736j23212j05544o3923m1747m6239j9216
114541g25385Q2388K05971K51174J84106O0705n0633j20081j35619r0949j6234K1361j6988q9209j07246k4504J14248
114525d56895K06326J83220Q2169J4466M4461J16630J30307O5936j0143n5266r8156j59238j88293j30584j7505O1658
114509b10907O1017P337n5821j02974j10975o2809J7224P2678P9026O7266O6248N6426R409n5266q9755p7904m0865
114492c70645M014N2537R0497J02205R9578J00564P9829m912j24910j79444j17886j1726M1379M0652N0224Q0422
114476f7622P8363K8389j2716N426O7600J25149J40627R5883Q815n1269k4049N3750Q2281L3432k1893m2255p7841
114459D22070j52386j79683r0449K8561L5879o3742j36307j16923o8559l9804N292P5552R1646J2023p0149m6416
114443b93395N0312J00828P1933L8359M8394O2718L9278j667k8242n1086q6741j11494r7194o6008o3352q7352q7244
114426e61953l4471L8502Q0807P9179N7124L8381L0758L4010M1346L5964N569l6971o2043n5924l4353k2579l2184
114409c98838n3830n8320j2604P8870J51222J33815L9085l7638k5103M9899J15386J39755J29687Q4727J0694m6395
114393C00412m3492r241q075l8060l2200K7368O8287L3939l1723n4507l9079m8206r7043j27398q6725R208R8266
114376g8269J29380R5823L2604j6213l8634n8425r1004j13094r2351k9677M8467J22169J76558J84397J25496K2402
114360D19629o9940j11774r9791n2589j708J2731k5469p7182q2442l5741K919j5107o6974r2032o0209J4574J04393
114343b36712J77657J93951J31390K7692l8885l0167R469J2216k6608m9792k0839L0106N5982N6956O4410P7598N6795
114326D91219j3645q6857r8595l8056M1473P6859N1167R43k5432j7602r041k9073o1962p3328o6425p6866j08021
114309d3242j12598n9773J3616N0568M6440L7031L4036J7910j1593k5630j5740j1604l1304m7787l0308N093J6092
114292a68793q286l9277n3147n7939p0731q7767q7911n6527J605O6834J14761J24783Q6400K995j04710j95428k17250
114275g50388j42440l546J19083J65696J50946J34608J45011J56253J41140J11410Q8094O4168K7440l118k582J2558
114259D14333L556l1209n9437p3528r4164j08558o4588M4589J39535J39495N5136m1200j04921j34381j26276p4577
114243a16195o446L3126L7741M1115N8432O4053L6685n119k5121n921M1588Q5088Q6749L5318l5944q2972r8405
114226A43772j03701j04347q6278n1442j8598J1418N0524Q0147O0763o07m0270k2028J1193N903j8073m95O2224
114209a9895J03836P2581j0367q4251j10663r1634n0282j2221L330r336l9345o6512p6104o8827n4024l1837Q296
114192e37255O2759J00101R2296N2289J5087j3714n6302j05848j13945n7825J3993L6295M928l2863m6597m1676k1831
114175f50108K1664P7147J08532J01573Q5789Q9405R3818N9649j1760p0577p6200m2100j2380q199j4952j5250j0231
114158b74180j495K4806P5199J21882J22579O7457r369o3475p2567m3780q782n444m0817p6118p1481l7520j2408P39
114140c04774K8062N9806M9673m609l8544j0484L7490M7418K5341N336j8447n9689p7242k2960O4247R1795M2194n411
114122i0798N539L8396L5745j259m1630q0796j24599j51874j35000p9717j6990K8299M4689L4951K5036M4030Q0943
114105c85035R6190R0570J13993J73999J88177Q4905q1163j79340j56154p8743k9339j8981j9202k2074l5342n1899
114089c09438n7828n3711m4505k2902J4966M8910N4328L9319L8356O2462P6319M3538j5610l9688n714L4808K2074
114072a14316l2306o7574o2032n0934n4620m4142q96L9345L9419J9587K1476M3952N8428N9817N4459K4624l7618
114055a03331q2115n2393K3556O2314M3546K8563N4605Q8377J04379J27007J55412J26315J4307r4599j06365n2918
114039C36660m1849r7528j35769r3139n518N5466O2649K9743k3078p4177j03080j08414j04372r5531p8201o1189
114023e37327n1286k3246N0909J38913J63983J00234R616l5998k8507K217M1523Q1100R4860O9622L7276L3563M2294
114006A89746K3512j7112l6438k8373l8026q7206j30722j16047n8061k0563l5775p3817r1493q3242p1475o5744n3702
113989g94538k8170q22J8401L7255O2709Q2090Q3293Q2064J01008J26067J17419O8987K2528P797J616k9649p4745
113972a16690r5616q1110m9940j4589K1929M1016J9104l1662o4148m8430m762J9825p853q5661j71726k03926j52905
113955a027144o0281J734J1767J0947L0565N0143M7071M6837Q5427J46660J79435J66173J33722J00410N5041k880
113939b4373m1586l8677j8472k1318m9593o9187n7878k8171j346J9666M2376O3586O9961N8360M6830N9106R4973
113922A04257J19460R3251J9608n1531p9091p7281q4184r6027p2653j3658J8971j4979o5705n7679L27K8439l828
113905b32303l2483N163Q1580J22333J04095O9297O1052P8725R0178O2184j4897j12150j77678j81931j40018q3446
113889c00299l0346P766K1534K6584N7475J09875J22529N5956m0679q7737p5018n2790m7638m9913o8347j22927
113873d73975j82360j82113j17751n1299p787N8654J62818K28960J90127R1394L0888L4353M6600K0551l8700r7296
113857b86936j13067n5729M5961J01187N3317m0295p7662m2394n121q391j9425k528K6045L5845K7352K0573L4532
113840c06736Q5548J64435K10142J58485L5672m6108j5776P1353J02931L1788r5805j99564k22703j59584n9699J2963
113824b32658M5137P5026J13758J11202L7986m1106l7398L6704P7861K8558n5626r2843p7642o3028p3020p6315m1189
113807b64593J6458N2210M6713K4225J4757J2070j0143m3141l7237K9226J02111J06815L7254m5582r2917j03991
113791a55765q7562m0429K2405O4953Q0970J02472J29074R9902j3899j30769j43113o1170K399q377k7511J5794Q8268
113774f2358J10287P0440K2171m038k3953m6401n3289l8249k2668k2145k6208j9626k445J4178J5093r845m4838n0560
113756a94454j4877J8145R538n076L3893R9751R7370Q045o2562k5557O7324J01612N2948q444l4914m5701o1341o4702
113738b9002m1175q381Q575k369m6282j09443j40201q5168M3261J67792K21739J95376J12391M327q6745j26724
113722G7971j24969j13751q7730j5517P7890J07490M3989k7115j7151M1714N0075j3004p3109p8068n7218n3813o4752
113705c27068p1417p6446p8572n4418j056L8686L4043K2725O3112J43698J88356J52585P0929p67m8094q1699r6232
113688a21635q3216o2665n8538n0486L879R1437J34270Q4405n075l8727J0940Q7336J29595J26017R0265L1461l3526
113671C35737p2615p1070n3636n1706o1816n8020l4931j5066j5840k8865l5257k8640j8195j4343j3396K893M5134
113654a89632R0824R4527L7182m1688p7719m8250Q434M3323N0905O0623Q2795Q5664L8216l8331q5815p7330m4906
113637a1178k6259j0430L3187Q8138R7377M2062k6529n3581m6875m8051o3203o1403l3012p435l497L724M2529Q9439
113619E003Q4594N093r8163j50309j29686p9986m9131l6878j2632L2532P2172P7600M6734P40l3604l9254k0838j079
113601c27092N784J1477L1094N4525O3698O7160Q3367R4047N7640k1950q3673q6199n6925l9322l2279j8570j5993
113584b13211m7265p9759n3201L3200J09967J21977Q5252N0264M4080O2467Q9211J04787R3814N5936j300p5974
113568C80245j55340j94661j55265p1993l5650q1735j36545j12180k2980M2750M7063L6879N2835O8911N3187L6455
113552b48024O7218J24804J36982Q2293J9020l473j1054m7947r3244q5887j6756N7053R0480R4069Q7407N7492n901
113535C04532o7328p8113l7783R910L5056M5608N4321N0964K0397k5270m7228j7400M4576Q0067M9890k0039o9923
113518C32237p9185p9631r3818j01507q6797p6466r4013j07155o8477R855P0111Q8371R2714J06161J19414J22860
113502A54674J18208R1135K2134n9771q5319l7136R093k3511j08283j47301r7215k1556j1311p7913j37450r8282
113486e09804L5729J55115J54062M7585m7087m9611J005K1065n104l1184l7645n2682q5480r6637n7538K049L6929
113469e19233N0110P7606J22062J40209J04017M6062K3242M6974P1911N5927J1617j5793r849L51j4369m4419o0725
113452H5700n3872l2501M337O2092J17658J25479P3709Q856k0258k4240m7952r6971j29544j21026r1541n7835o040
113435b03949N9612Q9172N6200J5632K7684N1252k585j14836j54917o5362M1374L4764n6469j02427n9688n272k295
113418c92110k6665l4872k2314P397O2138J21604J35816R4375M7975L0611R122n2484j21364j34261p9917j986N9961
113401b96974R5023J02480Q4733N3306J9258j4952m2156m8152l6339k8460k2612J7879J05573J88376K03185J48300
113385E28468O8867n618o8738j03643r3278n9015m3731n3971n6209l2171j656J2969R760j0686n0659r0959r1282
113368a41552l1946O1462J41910J72925J39122N2508m6256j18157j63435k05004k32900k01596r8384J9162Q2285
113353e69856Q8034Q9519J20593J57048J51343Q6616o523p5888q9526n9386k4525j0501j2017j6516k8906n7841q5805
113336c44137p5257j3761N9040Q5678N3655J1060J0423M7178P1208N4755K4031J7022L6172N9404P3879P3261M2241
113319B85852k0117p2002o5117j2031K1092r48m2023n6236n2769o6958r2824q7793l9949Q395J5870m843o660L1853
113301b57208Q4124J11993J10185J05293J14024J14782P0042k6583j35551k04035k05174j47653o3511O164L1058
113286b92050J6407J500J4699L2693P279o3390j18428j08303o1506m2533n5059l5016M8582J34829J48754J02646
113270b68896O8854O9815N6163r59n5040m9191N699N1144N2399K0430j4595k3273J0174O5993R3337O1011p320o4429
113252G1316q6841p5601l9595l926n079m4345p1503m7402O635N6524J10539J72324J80609P7660p8866j59247j21374
113235e8172m8039j4320j798K7722N4269M4146J2433q197j6278j9884j1967l700l1277q7619j01771l8818L0897K5027
113217b47346l2143n3921j9441J7860K7451L0960M4552O2482R1569J33980J43051P1872l2639o5479q957L8196O938
113200B08985m5528l5154J9151L3438j2997n8563n5732k5515r073q290P428N3796J04464J11934O0026q385l5114
113183C04871j9306j7539o0612j05552r8783n8849n4110j07037j61010j48784o5268L7984J08656J30189J18176R8977
113167i7997R0029Q9342Q0743N3898J9543j543o785j8450n2028q8613r8545q5788p9056p8610n2988l440J7940q163
113149c20511j3805O3649J64600J64297M5160o9955p7906j3966K6980J9893K594j2079m7390j04276j49219j58305
113133d80239j36419r9222o4429m6716l3454J3503R8072J56095J26107L7886j8076j145M6900P4630P4384N8091K9953
113116a64079r3j3703j0503o522R84K9867O4407N4567j2743p9201q2610l1726J5877K7421J5232K612M315L1053P9137
113097g5708J16219J05966N2686N11j8242j7695l3984p8538j24791j36049j00508m1116O237K5491L1938M8833P3698
113080a65052P4686K5875n7010j23805j34224q9596k2764K9917M4555K1436l186J7895P6119R0292N925j03513j04222
113063d16672K0481J37435J41062Q4771P4998J05887R1075J5668m9071o8808q1804j05769j05149p1814n0011n1256
113047c28977k8009L0391N6929J2255m1628l0820K8958P7915R9698J00671O1127j7640o6669l2285L1571L8146L852
113030d515J6801Q6626J24331P8474L208k9913j5615J2082K7250R569m8282j05504r4658l736J01159J49991J28292
113013D35560N8301k9398r4273j06687q6907p9629q1781m7847K4602P6684P2607L9275K035m8356r5970q6589k1666
112996g0039J1712l2375p5187l6490K6669R693n7618m5316O9655J58726J31868N7540L4313L8490j1159r5415j08053
112979G014k1095N5606J5773r7973j42374m9590R3424J52680R8766J9580j243K6558M1998K0336j6865n2422q6193
112962F3980j02092p1560o622K8330j1927q9613j22592q0777j6015Q234p529j0168L2434R1555J12850P3312m330
112945a12530p7874j12621r6131m7416o838K156j931J1120L6755M6366L8874M4000O6977O9820K9508j7628j9941
112928a47334K1495N8011N2631Q567m8394q8103q4131l1823L9004Q5557Q6995N2005L601l2768m2169l8011n1266
112911a56133q2739q4480j6358R0744J58432J42761O6924k0754q8316j17891r7183l3386L9398Q3125Q4321N8201
112895B6666L1796K3798L2525M0049L0930P109j5170j8422M027L8773N6702M1819J5893J4919L8671M8085J9780k3802
112877D14148n0445n6180n0954l5643j6263j4988l9957o3796n6687k2607J6795M9284O1219L0646l7386r6130j10857
112860g9801r9986q9132n9481R740P7944Q2802K7836k7374n3748o9694p6619m2757L5951J11852J40900J23589Q1265
112843I3287L0172j1018k3911j2335L230J2735J4519K099j1496J9839J10084J81117J37703l71j11159j19237n9973
112826B55285R661P8185J32349J30153O9674J5501N123q699o7804j22918j06401m2204p999k0160l1352k2650k3657
112809B42087m6640o8723q4116j12446j41144j15858j7786Q7555J14818N6702j0907j7934L0134Q0705J11122J44317
112793B51886J84844J83365J02146j2220p5195p2943o7052r0832j06013p9362l7834j5120J065K8400M4472K6400k577
112776B63430j0186o295j6367l5425m9331p0551j08786j32226j01776k4013O4362J38985J81804J66923R6646K5018
112760C82212K485J8419L0980K2141j0595p4064j46901j72694j37439j05368j17530j11817k7262O4162M1157p6879
112744d18993j43338r0451n575K1947J9392M8347R6675J16256J02614P5804L2622k5291n5905k3748M5196R8476
112728a05972J20012J18862Q5173N784r0192j44332j27382o1344J0071N3222N5589K5467j8334o0549q7548p8782
112712c00255k3080N6124J16930J42058J39346J02366J1860j12102k01324k08462j56810r9185n4223q919L9018P3237
112696d83421Q4429P9927O8601M8572J0655m5241r2089q6570j9582N3780O8121L0866J4270N6967J13753J22291Q3511
112679A08840M4566K5083m139p2594j64286k26953k20917j56130p6853r932N5427J26865J75175J71479J38087J21204
112663C4922J22718J02516M4498k4518q1357j24733j43814j19007o4636k3403p145Q040J8788j1350p1306q1210M282
112646d16715J21312J73103J40813P2328J892o0544q8940n7281P691M1979J7383l6301p9651r8812r3552o7250l7418
112629d59963k8034l7240k8633L1048J27069J95711J78511Q7626P052M979M9760M7037l4381j14474j01974q886O7528
112612a7264N8860q953n8204m5781m297om7949q5509n3091J9622N4832M3184N3160J12641J53404J11865K4932k6705
112594B84741k5661j2378p578j066J429k1372o2448q6727p5998m4636j5060J96R79l03M793o44l1293m6333J9468
112575a19891J45742K11947J42170Q849o7778p1497o8664q2052p8775n9989o6526r6939j05445q6530p9903q0782
112559e56063l0086P8749J58894J36574M2791l7162n7718k5391L2817P4061N4172j8746p2712n1609J4702N3014M0444
112542a63269K0781L5476O8756O7685N850p8524j14563p6149j5011J912k5864m2619j6543L1340P5942J17560J48597
112525D1357J35941O7180j1602l5309J0933P8527J05419P1212Q724l5117m9917o3555r1227j10196j03688r6531
112509g7849j10171j11970o1491J2439M2098K0740P710L0646M8625K8871m84J47K8024N5774N9511J6006p5958j56186
112491b43518j46128n6602J0289l19k2620J7981Q6767J01850O3072L8072M8935N4174L4175J9067K3553J6283k6423
112474A8608p9458j00185p4134k1733J8347J3844k7434n1202j1991O4440R8855M1710p7431j78608j94490j17741q071
112457f86674N7739O1757N6535Q4499J15669R9627M9388K1170K6733K4499m280k9507l1406k9509l3661j7660L0899
112440b04182P8150R2106Q5060P6528N3973J1913o793L4594R1634Q0749m918q0232q0910l8814k0369l5639m5945
112423H6905l0912n911J1736J6303Q56l6399p6716r8381j02602r5034n6861K3463R7625R1292J082r1597j19450r2126
112405d76727m1718L1400J16847J57421J18123N3450L9250O5503O5282K6681j764n556k1601n8785q2403r0115j22219
112388b26931j72998j72034r0737M531M9409O5796J00572J41502J50420J28650R3931M1155j8308l1551J4552L7617
112372A15576l2930j30705j26088o921J04093J09760L3876m8398r6360j02787p5335m3328l3545k7006J1851O1134
112356b87113N7742m071n5638n2387k5513j3587p409P555J6311J7487M1930Q8988J04331O8161M4410Q0870J16025
112339A98092O4190m3921r3036m2020L1168M5520M348m6988q4381r9610q2533l9991o98J9553L1163M0222L8988L6065
112321b3869N4312Q2596P4719K2538j5917j363J4572m0823j42172j82565j12915p635L0470r952n2900l3907L5254
112304c09557R2098R2587N3646L1562N4275Q0849M6683n1979j45473j69853j28835o2349J0426Q2120J19040Q4624
112288a20136J311n5365l9135J9630O0369N7846K5994j5941n5325p8910p8336n8102k2692L5798J17633J87214J89578
112271A71431J08567j713o0886m2601J020P839j2229O412Q1478J36803R4142j8233r9709j06264q3385o6474k1956
112254I4242P4117J58580J46200M5155n3048q8926q4637p7555o0429j1161N4919R4317Q4012M0853j173j9504j2509
112237C83453O153J5640m842o1268j25642j44681r2610j0923L4937L8161M9709Q7147R7567M1712l5692o8547o2181
112220A48093o4129p3647n1876o081J3887L315R908M1746M6800J0996j802M5572Q7655M8145m4194j02590j08511
112203C287j12553j28395j10366m5274P626j716m4276n7530k4886K2191N3586N9509L9456N799j0745R711M1614L4576
112185b58386k4136q6446r4151m1373K6003O6678Q3335J01919J26738J33536J05521N7279J3189k2721n7090p7479
112169E2416o0978j8813m847n6878j41931j84156j44850n5443K6793P2234Q3799P4098N4793L4856J4288j1609l3588
112152b99816k9972J164L0770L7970M0574O2063Q7878Q6711N8475K3527j8879p2014r3869l3901P4741J28180Q2522
112135A66124Q725j7233j3855l2979o1091n5037l2983m5517p7604o4126O36M9396M6692L2908M4274N7646M5189K5641
112117G6806K4120K7197J5867N664J5042K0754j9006j10552k15226k79958k68847j88133q7210p812O6348J66815
112101g58131K49660K18043O4641p7176q0362K4420J02878Q4592J2769m4026n6945k3326M2144R3899Q6083K8037
112085c2800k9288o2146q5667r8783p1245K147Q1840J34142J58242J48180P9477l5477j23854j28343p8782m5743
112069a88100m4769l3945N030L6649L1450J1923J5105L7747M6767K9596O100o700j7466m1177p3094r3024q7146n6217
112051d21271q115M6578R2336J11499R4461M7841n868l9501m2036l0570k9967l7281k4930J1335L3473J4160j4421
112034b02277k127M3225O7402N3813M4371O5128Q1001M9203k1745r1666j31568j24281o5023P595K5538k2903o3783
112017b88097m1479n128k5169o6523l7075N5517J00459N1593j287K9341J03087J23688P3024O586l8036n8446m6746
112000f4691m163K2022j2254o6690n2492M5705J48232J92759K00389K00707J58923L7257j12525j89408j66843j15153
111984B21775r5845r2659p0963n1334p2804j09636q6034J8585J26176J46511P8687M77k2876R547N7339P7038M2174
111967A76158l5267r4380p1150K6654J16487J31069Q5195L1900j3455o3986j01146q3893k0580K4238J5839l228J8165
111950A38620O1041O6054J7632m2613p2472o2287k5512L623k3797j17119k01191j82210o9240K5817K9837p727o534
111933d68078K8084L7169J2433m251m172j8215l9928j5561O6601J34314J12993J4664q0641j05335m7703N4031J35572
111916a88023J45571Q4954M40o4732r6665r2296m9943J4157P2256J15651J46457J39906O6123l9452q8920n5299j4895
111899I5290l4757p4981o1302n984J8641k125j4138P640K4200K223m2899q4706j13356j14596p1948o147L1524K3334
111881d24087O743J8521N1747Q1023R6594R9028Q8224O9137M5388O236n2011r6271q6377l3362J2609L0809M0088
111864d5961M3088J9502j6628j8205J3971J5625m1138r1464o5852J4849Q1242J08983J17691J11595P8910L0005j2701
111847C43512m7301p6532q2518n8084l7729n1844p3573n9345k0115m54o143q750p200k4327m8536l9481N431M3200
111829b49789M6941K6466j0915o4438j01720p5922N174P7978J02594R4892P4040L8614Q462K4640Q0377J11902Q8709
111812B78005N4915M8048M0634O602j9738j1772j8763q8638j65012j48614m1344N5299Q0276P1444P6555Q1823N4731
111795C54451O97n2482q7757r7120q1676o5909p6272r6932q6462m7001l1028o2634r5551p1393J6058J30149K23589
111778b27273K45402J65933K5645q2528j10287r5335q2320n7619m526L3856J2248l4324l5111J3761N8318P7267R1233
111761e660R5134O0194L876j9453p667j5790n6220p2305l9182j2183l1032m7913r456M8517N4249L321n7032j08543
111743b17145j56251j72311j23006l9018J3291K5623M4816P8597P7054J9250m9500q6512r6354q4181k7965O6060
111727g27552J34557J30652Q9324P7053J06657J41317J53677J38303R0361J8255l7992m4781k3282k3320n8318r9962
111711F4949j24039j22930q6618j8858L5113L0503n252J667O1758R6638M9805l1214o3280l3038J3569M7216O0867
111694b3144K9564o0224j47239j38282l0964P2487R9049Q7451R9281J14611Q0855J6127j8341k3744n3651j02854
111678I82r8769k5432L1999J2665k5763m288M5085K8779n8605j24685j15748p7980o4858o0278l3240q434k4741n6816
111660f60127l9865L2760Q8754O9513R579m316N8360J33382J39689P4220N376j7357j0612o778O93K9256N5909M0484
111642a080j3368o6325j05126j46115j76588j49909n9222L2985P0311P1446R0903J39503J79638J81384J49930J06190
111626C04557O6064L4178K083m0044q0868r2433o7259l2191j4331j4176k1952l2323k9740N358N2827N2431j8630
111609G3551r9692j18829q4022n5998n2512l6639N587L2562N172o0768j12594j06465l5322N9213J05431O6878q652
111592d23099l8356l536L6628L2439K264r223Q555L5113N1345M5313Q527n0671j04029j27592j15995o9454P784Q7362
111574f26625J25737J11573P9687O0746M4690J6253l976R166L2965J9934k9298n7927l0054J6435J7587l2977p4251
111557c20335n0059L0326J10615J47238J32056P0403k6252j16889j38467p0454K6423P0631M9820J8095J3931K2673
111541c0245J9624M359j8300m8585o6755l9927K2958O2802M6005J1348O893J6716l444m5845o1591l9609k0679l1090
111523b15365m7577l5311J4034Q3783J37149J24782L3060p1791r8182m0472J6014K0338K4271Q2331J42317J11002
111507B80383J519o9299l6506L5014N4891K5509R272K3595L0449J3036J954J7561L3537J9294j1737k0731M836L7125
111489D49702L8026p340p8077j30337j34027j05185q8630r9150r7828m5198L6597Q1389N6321k013l3275j6490K0872
111472a54643M2535L8316K2475Q956k469j3810j4301N563K9051K6567R57p498K0551M5918K0897m1341q3183p9429
111454a34888o0054n6531o2378n6224l3762l656K6405M8389N4640M5865K6905N24j7844L446O7131J14084Q5660J3866
111436F1578j1592K5469L9230k5623j01292r1177o469N6052M2584j3661n8376o6608l6535J2548L8588K0041k410
111419a17653K8180J01555J48055J26268N7737j8505p1091n9625L7232J57495J84798Q1206n2801q9733j3757Q4892
111403E84253J21725Q6135K1587k2320k7140k1204m9152j11637j56261j45794j06953q5261q0780o5679m2051l5759
111387a36291m2627k7118K1443O8456P8026M9100J965m3874o9810o0828k0482L1724Q1755J22437J33854R1411O737
111370B85878o3345p0666k8037Q866M291k7299m8026l8266j0668P632L616q814o350J3467K8195K1352O120N422J6534
111351I9902J6016K83m600J0239K718p1924j81121k23170j37562J7855J29060J49634J28806J24862J34694J21735
111335C17427P6402K1730k0292m2679m7096m5107n4352p3763p5427m3415o640k613j6621N461P8282J45523J44186
111318C61006P5590o737o0119q0682q1895p3933o5678o5429o9883o3378l6741j509K1768K6005K1015J5122L659j6715
111300i8534k8985p094M7905R4523Q6876K2693n2915r1459q3237n7924n0780o8779q4735o3783O77P5802J13684Q7474
111282a58591J1625o1383p0421J871R5296J16692M1759m7498n7852q64K9281j1310o0364m5508J4121M3762J8321
111265a41063j8551k7738j6504m380O758J2880l266l8611n4896k8804L868p989n1763n7240J0418R9179J30058Q2160
111247a05484l828q1466j23988j10894l7608N2975R0548N4663N852J2588O7273J05814R4367N6113J5927l3291r0597
111230c1036j13528o3782K7536P7527L9851m6334j03227r4667n0760k3852l4222n9120o5358m4222j2882J3375M1690
111213e43011Q8397J46990J79208J49798P1451J672j6767j933q7j5710r013K8657L9685k5109j25253j71413j34965
111196c37403o7443j4614L0015P1260P3036J4627n4397o5192j5170L9466N9987N1946K9528J656p807K7181R1595
111179g1729J35617J34735J10624Q4119M6961j745l1798k7561k7123p3536j42329j62709j11625m5655k5758m4817
111163b54329n4592l7714j4088J4140P4259J60658K02371J38167Q548p6579o5219j0684K1615L9808P9193J16402
111147C41956R3147Q946p0743r7922p9788l2807L8283R8757Q5266j0264j03084j07988l9229K3956M2844L9971L4207
111130B65508J5511j1541j1463L1916P9738P7023J5235n8593r1052p5844n9122q6364j42801j64095j16406m2326m551
111113c79227o713m953J8925M2020N3610P2265R6881Q8852L1701k7371l2626M213K0763j1347n3355n4532j3196K9393
111095a24697L8801J4182k8254p7687j21918j30305p2934K9794J00365P7630r024o8878n5295j2806j0309n5108r1673
111078e98116o8663R677Q8961J12880P8360M6257P7780J55540J93486J36054K0154p4851j07115q3033k6383K7318
111062a1694L6092l346l4175p164M6812N9459K3437j1152k9718o9672j32602j55617j04794l1490J1655N2049J32183
111045b29737K10495K06571J23945M8414K6031J6699k0501o7143r6196j19442j45583j42667r0351l2466k5762n9093
111029c96786p2150l8984J4888O7492J18568J49583J20244L0360n1260n2925J8485Q4686P8004K208q2785j23995
111013a34367j20648j08556j04593q4465k9312K6252K8786j4490l3183J3326P6445Q0744K1975l0977k0724M3627
110997c90160J12035J44064J29390Q3517L6540J3977J7450K7122K5243J2853L547O151J4122J0953r163k5936j0876
110980B00829L3089O6380O1592M0777L8691L9597j2039j28455k37917k52440j63427m7333K0191L5393M6999Q2324
110964a75749J10721Q4383M746o7576p5319k6855J7298J6975o232p395J7602K7120p046n6419o7468k7790J8809K4477
110946a95718j3323n9753q0186n9399o303M0412L4278k0192m9987L250R5261J27521Q1609M0971O2065R3034O2028
110929A55568j4028o8734q8918j07419j21118r1259j7262N6946J09587J53543J83680J75934J43111J24813J11250
110914G05694M9056n4768j09910o5791P035J3079m1048p6006n7742j9590J2270M7639Q5178R1452M5392k5597o9685
110897E36658o0648k1016J528j3792l7186l5365l1571p6859j59651j98559j45532m3143M6706J09942J36790Q2581
110881I0883n4258j65490j34913J1875J37003J56589J03240L5750k6475o9995o9315l0064O451K2006L5884N0780
110865I9951L9886K349k1318n231L5783Q0589J11022R2267J3275n5335l1892L7286J3998j22622k16048j47270l809
110848g7119N9349L6321K8835N4930M0166k4590n4440j1580L9638M4705K8352J9416n739o2118j10652j19245j11671
110831b25442j15767j15986r5243p1979n6251k1313L5516N4028r951j04018j36669r0016k0731K8927O2578Q6087
110815g96230R2664R1250R7922R5381M9933k3689o2944l8969N751K3137K3696M3665P7648Q3398M3251j1556l6321
110798b42013j0455N6550J31187J64569J20795J4845q7436j23482q8223k7010J9683M8340O8757P3052N0476K0917
110782A90552K0402M6307M8526j833n8188m9287K1217O5043J3018j00244j78794j75024j28307r8584r2103o8686p695
110765e53680N6238P0288K7165k0460j4616M4455R9773J03740O9810M7181N3127N2396J0411n2582q1064n2700n311
110748a45829J0304j3800m6531o1597n5794l0962J3822O4290Q8886P1832L4697Q648k651j3587k1525q154K6286N8491
110730b3174P7269R5728J15768J07921N0846k6713p1846o7790m2572k2447o879N701j926l9962q2483q6265l7070
110713e5894L4223Q0804P9437M4279P588j3341k9532n7321q8132r6000p5717n3888n2139n7292m5787k4398k1647
110696d24757l9837l9211J9097J24289K17939K42158J87194R9514M3034M3002O4519N0481k0202j16427j88600k04269
110680E7924j55647n7381N1645J23612J39562J24715J09728Q5809K2797p0710j39452j50393j39671j56862j79905
110665c34229j34988p814J16216J55045J33503J33855J67626J64377R2080J7453R818L8893K4642m1830r1104q2225
110649C61318n4872n9380q4880q8980o7222n2688n5060l7378L0730J14632J37484P1692j3099k3435M2150R2017O6244
110632C79273J0831q412j3036o4035j38800j47450p4941j4629k8356n5788j6823O3761J03899Q7096N9294L3926j6353
110615A59457q2007j09603q2291m3387k6116j5725M426K4234M2568P7442J15949J06415L3593m3903o8069n2180l7779
110598C024k3720Q995L4697J0286m6819o8743k7746L3358O6030O2951L1652k6908q9557j03806m5234M2040R2206
110581d7294Q7811N7718K3745j7100o2317q6714o5286j563P0487J09088R5950N3249K3057K3699L6408L9130L1920
110564C71988J4367l4776j20555j89397j69839o3313M3710P5573M5960J9994K5097L1732R972k8418m7758k7375K1517
110547b1521O4309O8530L5728Q299K7866Q3076J15877Q8924L1552K810J7836L2860O569m4351o7889m5067j2725j3382
110529C79301m1732n5684k9992J7287M7703L8776J390k8180k0617J0103J4620l0151q3741r4331o9986n4185m3036
110512d2455R430R4914J32715Q4818K3972K9172O5348M1140m7424j14466j12318p7629m4264O632Q1924J31390J10516
110495C73415M3891j1249l1702k9719j9140q481n163q119j6647m8850j15238j73395j61027q4248j3901K1811O8946
110478b18816J40899J62666Q3468k6004o9368o2033q0039j12182p2747M6613J43587J43382Q4549L7553R893k8578
110462A82843p9594j17825j27427j08948p0534k4908K3614Q4471J45980J54115P7051k0705l3597N1282J38055J46835
110446D20708Q8254L239r2369j72480j85225j19855l2411L4166R4307J45610J27757K0733q4748r8229n7663n4808
110430C6986p6645l2454P7919J41545R7061J8184p559M337j854j0926L3338J16943J47984O6619q0580j89074j96804
110413A45020j27956n2411j6381j4382j8416j5775j1733j4524l3827p5846j17513j06658k3990O7607Q0374R571n7875
110396c84715m9630J9474R3482J45812J72408J53894P4469l1622r3534p0803J2444R8145J39637J20842N8316n262
110380D53357k9824j8159j8049o4536j22709j13684j1393J07917J41178P4812p706l4459j9875j5229k8159k9866
110364B63616j5055q845k3780m8578p3737r3043q6021l7153K8843O6648O4011M1546O835m4589q4470o5741K372M5027
110346f2114J3702n5135r8373r9898p5091k5190M9268J18618J50427J47272J26541Q7589L4371L798K6485P4937R1991
110329E09198N8079n319p8289j43042j61314j09371l1092J752j2203j197P0090J43300J46680Q8047L1995J5294K2374
110312E44982K7105K4784K7435M8433Q8219J24631J28118R6995O3332N0845M2285P447m5930p1027l4427M1955R7494
110295A262676Q9945L2929k6694o3861r1177j17316j19131p9513k7959m605J144K9795P7028R5347P6697P3281J11689
110278A320275J41219J06027K5280m1517p2968q3633p5066m2585j1012r967k3303j1654K2648M1688L7885M2176O3568
110261A429061P1113M8144K1057J9137M1629P5668J10055J20732Q3332J6912k3089j4890K581q399l5495n4990p6946
110244A825612j11556j22362o2582N3176J53211J81614J40620O9801R881k0644l6590o5473r8884q6142m900Q5642
110228A910424J05349N4324N952K659J2329R58n082L4281R5968J07466L2987q1917j54769j41105o6158N031K5503
110211A944200J488k3868j7605J4153L9984L9295K4526K9050O9407J19930J35560J03131N5259K7322K2047L0620
110195B614499O0398J08800J29932P5456l0211j01211r2820n5698o3286j13280j34474p9635J8960Q8671R1490N3762
110179B571353L1808N6312J09779J52469J62317J48320J35366J42147J63391J67052J24375N3119R475J9133M2431
110164D088847L6443K1138L6383N8769L1046k9174k9553O4587J71092K06981J99433K20291K59355K41587J51545
110149E728770O6077N7969J23343K13249K87041L17790K87387K04589J09903M7127L9926R3795J95728L04920L66258
110134H443872L48159K63857J59778R2739J03425J83816K71505L01173K66344K15810J96235K20033K77834L45228
110120A1689808L76617L34436K41585J73082J73910K09203K18413J97038J93740K36738K96959L30508L29708L11803
110106A5313548K74624K00150J09457P3697J30744K13067K17063J45609J13454J83197K67387K53895J70002J33708
110092A7799602J75122K11614K00276K05944K82026L78564M29486M58075N20788N97392O21240N95203N97013O70083
110078B3742428P78211Q83436J010617J200148J425085J588652J602678J457561J215496R42089O57238L62940R8276
110065C6964855p7876j66632k45240l75325n29742o43042p02266p47626q08387q81440r55121j013032j032364
110052B8786762j020872j035189j112938j205205j234725j208371j204848j253228j297259j291633j256196j204932
110040A4461366j096515r07707o97745n36046m05041k41124m9575Q7921J16444O3340j1636p1349r6481p2625q014
110025A0535213O1847J09731J43594J85680K37598K76541K76181K25604J41614P1443O8299J44972K53099L23037
110011A3054453L28899L04821K92113K83601K38783J50959P2576N8025R9204J40839J48992J37283J29723J28326
109997A5568597J23041J07229P4659K5005j7930j6196M2708J34865K32635L21393L78688L76665L26992K88098K98382
109982A8264831L32091L52698L76086M34822N05799N34158N26772N66702P19702R63766J223123J436341J573204
109969B7810095J614272J542281J350899J057605P14798L98460J60449j0758j63551l20185m62785n77058o76012
109956C2438510p71130q48324q89392r02022r17020r64313j052683j160889j250204j298116j314894j318334j312307
109943A8438882j310318j350106j440844j514961j488167j364015j225263j120722j018840q81262p19002n54828
109931D450554l91335k48122j74740j84108k14530j97964j34320o9473l6835m7731r6855j46851j51353j21876j21598
109916B112863j64009j80523j27139n0479M029O6985J53517J81763Q8088m4319r5028r2068j48005k43771k36537
109901A225367q8949O4974J16572J03614Q8356N3411j1312m2922j3580N67n2175r8186o3427r017k8669q3907o7364
109884A093353J7709O8112M5795J3017J1201J5094J2532K8803N4656L7682l0024q6146q2827l9146N483L5325M4754
109867A245373L3616K4386L3656K6284m2505j36324j56521o8308N3525J24623J37075J21681Q5858K9580k1599m3718
109851A446682n0660p1983j10899j43235j43048j01419l8292L803J57k7108m5463n9764q3603q3952j5672R5158
109835E70702J68420J73879J51827J25592P1741l408m0531k0140o450n1041j16137j43540j37881j24490q5717j0569
109819E22257M2099J2224o0254q3432m5320k0101m8854q9437r3701o9102m4825k8460j7134j0632O045N7421J33484
109802A62278J80225J59266R8749O0014O0709N4474m409r1534j32278r6287m1173l3945n7287m6113j781M373m7138
109785B28143p9191l5643K8107L2379p438k2559p618j1652l7424l7612o502O148j8083l7575k4626l079R414L6389
109767A1578Q8872J25212J00347K2991o3820j30548j65123j56681j06140m1581j438k411k5852k9066K1482J10827
109751b41351J76925J71436J10399M6049P883j381K0357N8858O4389O137o8421r2360q5521j21272j86159j73260
109735c07292n2871M7025N187j15750j46590l1078J20007J83306J49710Q6572M3961K9990L3643L5256J5791j7943
109719G8924l1353o726K1195k53p0028j19822q8385L492P6597Q8874P5848Q4768J05496R8822O5099L8272K5602L523
109701D49945k9333m6455m6162n8774q8578j00196q3002p7213j05067j23189q3776o207N4218P8350Q1164O5115K4593
109684i4567j7662k4187J1195O2911J08364J31352J06282K1419q4890j48581j44927j03990o4198l8639k5524k1335
109668c26977j6048L577L8230P3931R4261Q6355M4799j6978o9390r3687r4446p6794l5339J8178M6608L5297K0212
109651b68211L3559M9903L1338M12Q908M7533N3393J0035k7416k3906j5312l4601m5728j772P1950J10905J05091
109634A06081J00772J14426J03612L9576l8068p1197n9888n1391o3155n8094q610M7566M6049k1269r2247j05219
109618a1056n9956m429J5516j2997o3597q4063m1172L4473P4784N8463L3701L5408K6207l4151j00219r0352r672
109601b33112M9551L6086OM150L8361N8054N6724N2295L5425j6921r1091j42238j43997j01278k4116P3816J52014
109584a96271J58056Q3271j6953p5078p4304m8650k9639j1063K7671P7896J03057Q7459O1714O0544O8969L7858m8092
109567B66445j43008j85759j54803p6094Q08K9599m224o7594j07157r9633o1315j0519M9359J02265J11283O2637n038
109550b92748l9964l0047J419L1199M3780K5205j8341m7759k8790K2458N8543N9702M6475L8748L4175K9101K9521
109533c7323L2705K5678J3388K1462N2894O5317J8265o7897j27475j23245q1706m9507l7151k2985O68J2608j019
109516c05323j7948o220K8568M2860O041o0648j02193q1514j2627N1512O6353L9753K5497O1688J21221J42872J09730
109499A09622O9745O8191Q5912O8250K299o1359o7239j9320K2962J1198l7494o4320m7847l4332o7286j11625r4951
109482a67594j7720L7547K4664J548L8106J05059J15728N3474p448n255M0300O8795M3381l5111j36268k07272k06265
109465b54331j45324p6439k8624J2022N6400Q6664R1853R1880J02140J03681P4603K8679j061p0K2675M5241L4701
109448B44690k9129j08585j22705m4139M7880N7871l520m1068q566L9742L9006l896m4392o9450r2908j09883r8347
109431c47399n7031r284K8504N7880P8764Q1199O1639L4230K1726L9766Q3586J21378J12636N1952j2484k8445p481
109414C11136j5753q7573j73427j93090j22770q932Q8069J36853J33910R8803P5951J04748J67145J89520J21694l55
109398H25929r3344j16682j00043r1246j06386j32302j50879j50403j29012r4934n5318q164M1444O7906N4619L0885
109382b07930M2583Q1460Q5378K7144l6557l5082K9327R9385J38445J44557J12357L8029m1579p1467n3361n1179
109366C01510j00969j55678j48741q2027j5716J1655J6803K8146L9503K2497k4131n5080k4929M4602P0685Q462p6631
109349a40039p9835N566P6299N6514j0210l8015j4934R441J4903K5364M7413N4618L5013N488k5154o2243q7554o1107
109331a88472K2852J17218J74796J88940J70192J18872M1769l2806p9494r6511r0090o3610l3983k7267l9370l1692
109315A51344J2073N5184N9427L6090J3478j5059o5903j08121q3187J8312J37850K08796K06772J47980P4888M1291
109299H91215O8591J06590P4760m0426j59041j97506j59814j16995j15776j36555j35367r8105m2257J7018P7531
109284C3863J22806J10827K1539r0908j34587q3186p008K1620J4253K1274M1453L6067R960Q520L6305M6070J8258
109267B27126j1761k1057k9893m2286k1565L9401Q5077P8678N9523O7244O5758J0273n7165o0454q861K0490N156k830
109249D02854K0022K9277p193o0645r3881r8781o3739K6453J29885J57231Q5463J414j6087K33k1235o8103p1031
109232C52137k3215Q027j6244o0531p6245n3600n920M7665P5649N7045K1739K4854O9481R7917P4497L2295J3664N933
109214F45148k7238p7035r2393m6559K4146N0243p658j16201j87638j57606m9324N4712J00130R3476N7253K201m4736
109197B20921m1041Q749L6009l305n8999n3253J3913P9635J12577J28133J23852P3503n811m7139j9223L0956M5953
109180F45430K6279P253N667J4996K2255R262l1740o9328n9618j8177j4773o7374r5939k8650R2607J70373J77198
109163G85721J57273J31849Q1173J2333l1829m1581n2818p6314p5859l8108n835j0798k3624p623J8380J2382k4174
109146H10548n1710m6935k0190Q016K2409J6704Q39o856l815L29J5111O1537J21410J39471J00897N9106N0157L0934
109128A307962m1142j12055r4516o679L8871r461p7027p7019k2231J3121r409p2186j34589j46631p0452O3025J49242
109111F98824J16126J8338k7708O642L6848l539o6609n9540K8042J10676J08357K5782o6290r7272l9781Q2198K06299
109094A077393K66347K37204J49320N2970k6257q8143j26130j19487o2888J3913O8391Q0648O2059L9179L4614N1554
109078A710687O7558N2631J797n8392r9964j15983j07333o9199p775M8310P6348Q5904R3691Q7557M8253p43m191
109061A809156N5542J29013J51956J08074L3367k1885k8113O737M4381N0933K7194m702l3020n0729l1812M2513
109045B288605J30853J54844R6735L0276K3133M8483L7640j0775l2832oM3029N3673N2210P6375J10938J06984O1531
109028C271696L4530P1087J34722J47758Q9983K3627J0683L7553M9335L4554L1685N7582P9626P3627O5759Q8213
109012D302020J24296J31324R9413N7263L1559K5338K5388J1234k7536o3127m1058N1833J51850J85734J56714J24862
108996E347107J16655J02649O3019K5229K2126M8878P7862R1334R0593R5708J36781K15190K73507K44051J37891
108981G088580M7037M2624J07188J82757K39566K65899K35804J42857M5766K1533O8150R9256N2084l2540o2867r563
108965H534131O4869R0706P5392P9470J22054J50780J19817N9066K8724L1829K3812l185p614K3890N1232N7313Q6706
108948I588992J64646K30711K12604J31982P5402Q1554J18752J60091K11857K61760K63969K02648J28065J01113
108934A1934146J25603J53197J37405P4623J0333O285P8857J70752K08873J85367J49910J31171J14514R9210J16584
108919A3696830J64934J80890J21791M2208L7510J25629K28279K65167K31815J84507J78541K26367K93093L24374
108905A6301935K92843K26008J84299K08094K84332L60946L96215L99813M17581M65390M96174M61795L91824L62329
108891B1249578L88192M07984L93282M02389M77031N46869N14380M04273L45012M03112N08301N57029N29510M82013
108877B7608955M73049N24862O21397P18881P83847Q33874R11799J013866J086404J108724J130690J198608J286991
108864C9301947J340206J342253J302650J213997J085896R95725J029074J164372J282566J311168J301214J332424
108852E4003492J399547J447148J478709J555907J688008J789306J778716J679424J579487J521688J482991J452959
108840G2857382J471612J565775J689955J766542J761655J690251J571973J427399J304271J250834J251430J233037
108828I0842116J155987J063789J021628J036978J067519J081594J079963J074964J078706J103728J152493J213222
108816A03972687J281982J375620J505229J651485J784775J894027J979317K041329K104725K224999K432675K688389
108804A26937239K935089L181379L489077L892260M384331M980424N723316O599430P488320Q207433Q564912Q377811
108792A94761021P542865O164954M563721L063406J772170O06479n01448j497775k303097k928735l456324l947357
108780B03839880m413037m846032n242010n598166n919528o228331o551824o898919p254546p594477p904080q188483
108768A27200447q463128q722396q916035q970884q842593q538153q089023p518520o839341o066406n226257m369300
108756C6638411l574920k918286k417083k029825j717906j482301j320958j188274j043126r16105q70594q97257
108744A6261776r07837q52447p82911p58227p38222o39101m72542l52727l53163m20594m61016m57881m57161m70798
108730H137149m57501l94570l14539k56852k23281j99917j89054j92119j87099j58105j34568j63545k41538l06257
108716D718204l06859k57100k05060j74765j60793j61434j81757k05260j97032j48988r6967p3305o2806l3859p48
108701B451471j5876r1528j63627j58667p9149L246K8980k252n8845j14277j44866j24041m9573L6511Q3839Q6176
108685A687522P4651O3622L6705m985j7644L2293J10796J48768J26869R3484R4978J22906J43537J45875J34552
108670B993929J01971M5158j573Q086O8862J17489J03501M5763O125K2868Q1426J37183J55398J37397J15824J18700
108654D258107J38368J46608J34977J17579R4658M5631k8930q8396r8167p4539o1736q0479j17333j44953j33086
108639D108309o4537L1078Q1915M6640l4808r6336j28760j64108k00010k01595j72522j57098j61791j40956q4420
108624B661001n5341j00870j77027k10031j91425j61743j34976r8757o8219p6616j14630j31596j03364n8831l5177
108609I42398m3213p9355j33702j78768j84154j51850j10002p0248k5210J0253J111m6661o9181k0901O0166R7637
108593a680P0269K7026J6832L5906M9962M4339L5549L8994M1096J6647k7530m7519j7722K6013K8186j1259m2188
108576B82921m3737m9748p8249q6805l8554K5682L7662P056J4795R3351J68144J47957M0307n9644q1845m9228l0178
108559B99887n0452p2589n4976o177L3887N1124O6523Q7064Q1875K9753l4527n6120l2547j4038l0812n6329n5771
108542A85775l8293l5157m6731m4892k4743k1655o1083j09179r8930r903R6118J35281R0088J8333k4303m2554p0116
108525a01944j07745j22210r3910l6004K7952P8216R7420Q6957Q1351J08892J36458R7999q901j01840j15633q1779
108509e4721o6270o5977k4533O5482J38011J38620Q6323L4622P468o274k1595m2547o3862p2242n5796k0584J0834
108492a3041J9851K461l3967o7787o6086j8484L5141M3255J1883k52L5688Q0445Q9827P6556P6914Q6493P0864K4624
108474D54385k0839m4848n7647o8971o4939k9647K2542M7840J1430o7741j15861p1134M1939J30893J38670R7646
108458D03718O3509L7585o196n3503o8030o2427q8099j49796j86553j55395q9559n1154n9440q6573r5547o2917R679
108441g00698Q5467J14860Q7633M7853M3268P5562J11365J23727J08830P5800L2616k2802r4141j57310j56647o6071
108425b90688N3060J01479N6174r884l2182k6409l3282m6884l9356j4372J1869N0654J11142J54208J28819M4239
108409B18587l8322p7902p8261n1971n450M2935P0581P7763P4977N0842p302o5466o3961L202O9761P3971K3031l3454
108391B83561o4959p5276p7319p5673o8783n5236l5208o063L8577R2321J20723Q9612J7825l1191k8903j5461k7854
108374H0693m0955k4469r687l2199m7789O660Q9376R1401P99p3683o6566m1177o5960j01788q3383l6284k6998m8632
108356d30641m3408o254J7276J6926K2703L2882J1628l9710p5174p4459o0735m1946K177N8527P0726K4852p126M3892
108338d77864J43459J88603J30213K1308n2750n7700j7400L2988P6942J06474J06055O2594j2203q2770j16372j02689
108322e1112n0891J7257P0790Q5903O7895M3196K5315N463k1277m5521o5354q8746j03858q1650k5773J6964K0497
108305a80902J5549L0602L9595J4239j0175J8159P9844J08208Q6085N2991K4973j9414o8672o9492j1824L9892L0243
108288A79901k2990p2464r6159q1660j3776Q0225J21945O8886k3800p2797o5734m6585l5762j9258M620K2744L8574
108271c4090N6414M7047j5931r0132r2823o418R1799J20999P8644J6140k8783n2476o6593q2997j00597r3842l5045
108254b88684N8120J20908J08434M8560P104J0707K3666m182q2618j71647k15480j87560j10226l0037K6232O4405
108238f22298R4321J06478Q7692M7525J4761J1176L5791O7755P8319N1095J631l2977l6627l5284n7874q6716p4344
108221c49576r887O0923R2547Q9852Q2765P5517N2993K4176J8361L3283K5879k4978p6988p6364l1723J51o681k2886
108203d2636k0413j0062n164J0977M6462O0218R472p2355r8572m0812K8506L0622k0159m8554k4222J2124K1349J4874
108185a48345J7920K4788J6742l759k5845n4588q7135q1970p68J17078J72817J24959M7153L2984P2927P5877J177
108168C02012q7827j14424q3284n4651n9585q1071r8385j03899p9810n280R7817J61188J36609M6705m7687j07854
108152a79426j22962q4676n75P6250Q1174J4485n4609p6776p5562q5243p8571r066R5371J43094R0591m729n9004
108135c30234m7983M45N6604R7208R4928M5463o959j2269J8377K3882k2702p4279p1412k1895O979k6941q4639q8586
108117d44013j6342O7868Q6605L7405j6550l1254j8310L176L9339Q2616Q8702L6658k1440k1828K3076N2799N7565
108100F072Q3256J38473J66043J28681O5037K7737J0743k4118q1205j29172j43270j18946o3102k45L1175J8335l080
108083A12414Q001M2867N5181K0179l8371p2722m7523L5652J31572J78800J50906P6222L064l8239l6973Q22L8870
108066F20722K5558m9322j33738j70979j52293r1724Q718J24099J73976R4241o2906j61337j25780j3215O6559O0356
108050B12935n734o9064p6745k2161M4302O1501K3610k2012m3774n7406p8627q3683m4218K2634O8093O6778L9561
108033C5990K4915L5463M0778j030q3983j39719j07310q401P8176J08920J04637R3614P6882N6381M3785K5177k8146
108016C56129r1015q8788j0882M1985j3507j15404j35229n5729J7574J7155m427K2176P4487Q1920L1386k2648l2594
107999G2589j780L6610N5444N1484M4112N2384O7532O2549L5560K0598L8953O1270M2947j5895p1759r3015q9710
107982C69873q9399j05278j31806j53517j51525j15212n5497J890M0738O3512P4821P0578N2553L9802M8145O3934
107966B3612N6727J8601k7008n9170q0322r0762o5605J2733J06333J40186Q0409k6248j01805j09698o9545k0616
107950b12178J1438K5206M0100P5312J19386J32245R2894L1917l400m636Q2p422k0991l6231n6377o9181n2647j4808
107932E0709M412j1474k6475j138N2214Q9083Q9565O6557K9842k4591r0221j43306j66123j56805j13583l2994O5843
107915c18485J34991J34783P3786K888k8158o286M3200Q1028Q2875N2983J4404j2500k2891k3981k3066j7731K476
107898A70316L9295P1401P0296L6914N431l291j2134m4962p1301l9188L6331P0940K1957m5310m4785J2629M6867
107881C21406L4441L2671O9202Q2677J7624p5674r9168l8965K5041L4552J2748m264l2719r6568j58207j49073o1034
107864h5310L6658P7182O1100L1749J3533l816l1661n7458o1812n0848n4429q1553q8689k0039J11873K12908K00654
107847B10042R7173N96k7079j1822j0402l9419p2927q0045m8987K422K7804r025q1751j18619r0579m6240l0444j0621
107829c39923O4362J62686J94733J32275L7412l0795p1499q9826o3189J078L7123N841l5821j2164N7281Q8030N5766
107812A93370K0157K5959M9429N6185M9779L7924N647m2327n6936o968O2969Q1165L9443n702j3466K69L816n734
107794D94979j4294k3003m5687p8667r0381n2383J9390O6812M7845j0372l5673P717Q1309J24269J20803R7584P3458
107777G83706M1867K01l1926l6020k3222k5538n8204r8625j10738q9220o4007n1427k2323N1899J35278J55012R8963
107760F55676L8606L3970N9546N6758K0123j2774k5963k8171j2577L0233O9526O2299K3540J2741M3924O6138M8996
107743A142591K9882M5642O7497M8017J4j8542J5654O4552P7906M3646p901l2675r500M1436Q1081R1345P7073L5989
107725A793707l6803j09364j25146q0099m6315q1576j47903j63220j09546m2412q579m040q829j6722k5233l1578
107709G56342m1939n5407m4753R648P1550P9519K8675k4847m8235o6329r1028p6155Q948J01550J04497J1477q2317
107692F41196r9029n9762l2446m0858n7534o1020n8649n5830m1238j7242j5112n0898q2493n0453L5046Q7552M6555
107675H7785m3681q8756n5683R305N9574R1267J00678N4986n5746j68380j95250j19167q604O0868P1508M9263K1682
107658a28351J1116M2373J17887J87415J79465Q0507m0610j07417j13377r7165o5359P253J02401J47466J09557M9990
107642D83151M0742O5961O1471K2293J339J1838P399k7230l8293P435N2004J7247q5456j65268j55538o8581L8045
107625B68559J08998J11282M8525l5111q9504j03281r7854q1665l9932K2791O1359L8932j5710l2533J1560N8078
107609B34494M3634j0736k8790P384K9494o945m0793J0837J22203J83106J41557N1461k2274o9679r0157o0949P059
107592E00906M6439J7820l2050m5774l9538n5954q0785p6302o1390q0411j13865j01232m6417k0231m8642p1605l5224
107575c44255L5057Q0338Q0466N5347L1421K7248M1600M3267K624o2415j06092j17378j17256r7128k3350Q3639
107559c86867J42048J12461N1403K3628J4827j9761o5273o5999j1215N0075P0423M3497m854l4251j3905M2815Q3667
107542C2719P8615N1367K9936M379l2036m1822L549N9647N9115J0081j4582K0834P9697J17012J22083R2930K4576
107525F98100n9647j08973r7500m6538J1951O0924Q4839P2244M1785K7058K6174O489l1658m4130j4000J6044J0288
107508F53450p785o641o089l5292o3673l4026M6634J05507R7539N4961L2432L9924M7154K7963j7399o6616q7654
107491G80389o0434J424N9500Q8427R4562R2374P9323M8068J0406j2392k0876l8538p5219j05720r8356n6582j7273
107474G69083r424k6925m2491l7174j5733m246l0750r1212j35228j10763l1165L0536K9888J786m458n756m9429
107457B36539j15112j20127l6108N8403P4834K1365k7237l5018k9794l5624l3906n339K7347K7090j432j0812K9337
107440B4406Q8373J04751N4799k6068r1280j26554j31404q9358K673R0111R8723K6179m8714o4050l8882j7481K301
107423a41475M3412Q9462J03896Q9865P7774O2698Q902q0610j51569j69156j55107j34687r2247j3764O1760Q1168
107407c19678N3909M3704P9202J12417Q5716J3045l6172k5017J0620J5847j7459n7247p9743p8916m2121L7894J21876
107390h2123J43536R3352M0056L3896L0268l6020j30488j46607n2348O2893J07532Q9310O2631L4358j8389p1620
107374A60237o5862O938Q2056J00835P3564M8064M4242M1486J6954k3916n6495o8932p6421r3255r4826l5941P5872
107357A34600J55324J27013K3058n4852o7825p5727j24406j62025j18665k3679K7749Q357j5687P7J2102k8232q6404
107340b69222r5056n5455k6751l0044k4978J5847O5033Q9202R4155R7659R3512P0949M3156K7943J9498M159j4377
107323A05230k9837n2402q3015q8496m1488K4605M3276p6m8105m4484N939N9701Q4224O9077J9980l2945m3924J902
107305e0838O2463Q4527O5849M5658L9399J5510n3262j39476j80854j42121m3693O5049J44725J76516J53152Q1234
107289C23838m954n1440k6906M1108Q4156N3032m3175j55494k39969k78394k67071k04663r8963K2419J21347J74879
107273e50250J87817J76051J44700R3177L6000j512j3816k2506m0873m8909k3881J6609K8388m244m9672o5611l3637
107256a72169M1345J35268J97334J70768N3736p2017j07512l9190M6265O0093M874m8778o0957n9015p0486o6262
107240A3297j0060O3930Q2266L9505J1333L9544O5146J9751o7473j16062j12371j08322j19019j02167m6879p698
107224c55279k3856o4027q0492o5649k5418M7538J31889J59354R4487R42k6988K0736P2695P6069M1208n488n7881
107207f0160j08063j28430r7208k7198L9405O1386L4021J892J6006O4832P7734K2456l3575j566J09942K00549J92071
107190C64094R6522j8693q9972q9432m3552j9930n6537j07865j00044k9926L7890O3391O3157N2467K1664j8049l0706
107173I4479j9203k9849o4901n5508L4571J35632J57528J05264N3010L8799M5096N5917O7116N3501r303q9122j19191
107156D53836q4825m3140m5985q1801j05341r1658m7939R79K6416J4689k0141n5608q8178j21569j37536j09569m4643
107139e82013J8168N2127O0136N2120L7772L9353P2852J11676J08174N9775J3898l513j7794m3519m2568J6081R1391
107122D4116J12569O5773l698n8198r1636r8318o8725k0113J1846K2321M1432P7537R3963O3877J7137J999J8620
107105B30502K3065p911m4943m5903j0339J7434l765o6229j16704j05952l3889N5123J14831J27226J00226N6984
107089B89756K8956L4606N0668K4429o2673j54555j69709r1462J1752O0404L9988l159k3073j4985l694r860l2920
107072b5531n9432q0087r5061j04847j03761q8386o7111n2093m4408l7216l1175l3116l8001k7526O381M8613P9319
107055g53438R5157J04699J13382J21305J24347J08166N6860j5860n9357l6441K4208N4683L0466q23J5505P1689
107039E4548J12187J00913M9957j0933o6841j13774j41274j33839q6422j1657O6179J19223J22311O5645k7240r9952
107023i69j02631m3330J1832P648l6242m9983o07O9828R9753P5837K8801j4281m4550n2195k9182N541J3897j5627
107005g6460n0370n2868k0056K6999P0588R5311P9697J8286n4893r3079q8294p3110p0359o8431n4197m0426l9446
106988d91108l1948Q072O6426R6046P2789K1348j8641l1799k5070o758J6585L2499K8875R034o881J674L6812P5948
106970a46097Q5975N2769R4k8073j0482K7821L7541q385q6772j40427j29510p3156l2338m2802p4518o9737r219P6083
106952e71233J43954J65380J25523M0827k8206k6592K4844N1902K9630J1189L3653N4280K4528k2561j9362L4078
106936G1834P7553Q0610O3707M3659K1470J6761M6991P0485J9475r5649j79457j71151j13588p9312q5672j12286
106920c24570j43052j49805q8351L6875J43447J57314R9304M3023K1310K2170M1535P8930J02558P9226K7976p757
106904A40133k6939n5688q1034o4283j6025P949r029k7213k7566m0296p4269q1636l0793L4807N3625K7186N576J8897
106886b46598N7025R3325R7638N0485k2768n4240o170P2328R1955J7177j06356j98003j92866p7110Q4750J75813
106870a63615J28997L690p5070n1579J9265N7465L9896o430m6221n2532j7445L0925M6680J9593j2183j7715j3602
106853a09881k5668l6035k693P7728J57078J85975J57530J02458N9029M9365O9735R5740R9030O1879j4214r8105
106837H28951j33131q3596J1642O4281L6947j2256j4561J4779J2675l0158o8271q8151j17733j41370r2282K8578
106821B16344J01953K8321j30159k19306j76450p1130J8487Q4885J39073J59613J29888P4478K3427k2543o3666p6196
106805B17019m8798j3039k494m484J3891N0524P3993P3205O7881P2000P3483N4045J3716k7140m5526m0206l7320
106788D90750n5743o8548k8848N6685J15556R4276K6160j4476j079L2882M6342J9449m8640j29005j65448j32238
106772B38075p9373p4370j07085j06399n2633j0941l0717o7868m8457K7419R2100J01739P7033N6903N0321M4317
106756A10064L4404K9588L5502M5868N2776N9024P2222Q5425P4619K6554l6112p1145n8735j8264J5393K3864J7092
106739D98139K1276M8090O7215K5442q5475j93551k12714j43564p3541o7396r1142o6311K5866J24464J61870J27870
106723A66538O0318k251m3600n7999m0358l08K7751J4463k1242k5347J9108N8691L7038k3871n0785k2165J732l5438
106705F2275j10452j57744j55184j37226j31184j15700n6308L4110R1347O2915l2781j20162j36687p8996J3900R7870
106689h70007J39864J29125R2721P6083Q6582Q0800L0962k7312m7092l6836k9535j7791J7937L9826r652j02034
106673d46359j35205o8996K3731O6676O9950P3189O5495J6613n7630j13634j32755j16338o3364P172M7919M0533
106657g23003K9016N4810R3243R7416O7971L1592r612n0498m6429K2697Q3938N2960k9650l5704O9059J68980J52888
106640B9674M9908l0823l6926J533M2287P0723Q3273P3632M0025j0774o6508j12751j41250j53913j47600j05901
106624d15391k9241L8238M7408O967k9475l7896m1438m8101k3173N1642J33278J62272J23864M2243n0262j10186
106608a79251r0220L976R0598R5996M6332K3212L9456K5743m7034j02325o1876L2545O7648J1615n1665n0304j6332
106591a61886j0880j5975K8960J09717J38559Q0375L176k6607l4001p3453j29837j44819j10614p1492m6757j5907
106575d81441K3314M3455M1236M7839P1475P8594N0390J4660R10J959O31j190o70o122r223J8945P7361J14298Q8705
106556A75126K4359k9049o0485q4868r1131n4294O655L2388k926n5681o7923l5179J6Q331M632J7468M5540O0089
106538a06932M6713K4570J4678R322m615p330L3264J02935J40460J09548M2958k411j0568o748j2427k4262k9269
106521C19886k3292j7146l0275o8852j07433j08071o2471J005N3581Q6275R2297O2257J0392k4780k4058o266J0390
106504A63439L2662N8794O0148K8387N219K3302M7024K0508m7405r9194j13759j16576j11678p0309O42M2860K9082
106487d6854R997L9902R5637J15832R4017P9896R5611J00728N3240k8909q8147r1765n7023j9468N125K0746K3717
106470D02282n546p0340j27438j17393l7095M0380M3676j1040m2570r872M2433N5134L2158J6181J6652J0464L577
106453B41643L4814J03407J42409R7709j06p9634j17084j35428j33564p5050M2660J54811J89971J39004M7531l5694
106437F17399q5432r8423r0887q7856r6236r3885n8288j14M4128N0930L3824K8901N7415J00381J13133P0206q521
106420D96675p9477j11014r1997l0598L2551L5798l8106j21208j30409p2984l2721n1964q7184r4240r0616r7865
106404e65359q4301k1860M2503L8448k5278p1966o3257l6273l0663l2587j0356L4457P6994J05171J21750J24833
106388c97744J07918P4635L7007k796n6310j23945j70579j45325m0236Q1259J36514J05219M3635J9881N1922J04627
106372a74318J26206R1521L2003J3343N3869Q0951J6930j00394j48252q0444J0542K2439l0379o4252m5810q189J5143
106355a89091J7890M973q525l431R034q860n5715p5526m3115r876j6970k4977M694K0904l5298j06729q2135L9873
106337e62880J48196J70113J31273P4379J8207n75N0858J18745R7508k3860j34270j46849r1484l4317R533M6279
106321a29144O7877Q7956J37780J85830J41569j0016j54359j85969j31345p4863l6164M817K7875Q206j2803J8381
106305e4372P1091P1143J9144r288K6303Q7872J21891J08651N2688k4887q6886j13201j24571j39666j32715p8336
106289b05139j2858M619k2643l5971k860N5365J03271J10865N1125o6482j70927j92992j48161j08685j06147j14834
106273h62454j15198j07067o6813L3509J52646J95320J27657K5831j5519J8535P6021J07423R9710P3673O5801Q8306
106257a02619J01467N5224m1814j30737j75838j84174j54685o9675M5821J15635R8039L8998R094K1669M2029M5202
106241b86364L2826J6091Q044J5096K1512N818j7722q336L5521N9329K6766k5609l9612j1062J9988K8750J8610n577
106223a05931l7110m9298j4770N2919J00560Q6203K2598k8968j0256P4700J52077J49031P2169p899m6887o5397r3211
106206B50530j20051j21629r7679o2821l2631l3350q1045j30829j01520J3212J12611J16545P3547P8056J25600
106191a1454J31054O4157j9644p4736j06985j16081p9664j3723K6037K8531M3393Q4034Q7901J8462o0311p2154l9596
106174a10779l7875p3735q4717m4451J619R269j2401l2996m0405l3723r203L2099Q1030J26255J47214J14418K7770
106157E9389n7157q2395o3206o4320r7481r5945j2252J05212J66952J42136P2042J0847j2928L489L9005N8869M8604
106140B20861K7737J1284j9494p7567j24506j09332m4729J953k405j9091j065M3294P0996O2198L3417Q295l504l061
106122G5281Q291L2002O1529O9271K4240n9782j14716r0172k2305R973r410k2499M032K7235l75n8559r5955r8758
106104b60677q0812l8593L3588J02154J18216P9915L4338J9703L4398N5521N7580K0058n0343j05983r5525j8450
106088i4912P3766J24681J07279L0255o3694j19550j15735p7883l3783J4102M8964K3712o1390j10653m1866Q2794
106072b13913J26012O6055J5001L3275L9891m0363j41186j50590p4815j4081j4667l4839l6402k3275O985O8647
106056c88265J32611J36147P2225J2892J4243M4541M1885O857o171K6325O3298N4491K561m4015m9673k9238k4534
106039F6180n3787r5222j16079j01186n2521J5615O9779P0544J7167l5125k9208K8952Q2443R3985P7122N8247L9468
106022A36374J3725n469N821M3472O5213L3013l4637o8150k0432P0792J16026P1096k2047r5868j26947j29052j10420
106005e7490p1890k8593J857K4142M9359O4977N2256K5436J9142L9372N9507O3003N5842L7057m022n3542p4104n4336
105987A47973k5228j2469m962J2002K6441K7726L3922N8416P2814M0321k7715q4501j07937j11115r7113m5860M2104
105970e5181J24219J60398J57366J47923J42759J25589Q5291K9413k9500p8755r9115p9055m0642k6356m7457o6448
105954D50449m6236N127N9725J13596J66793J76882Q8967p6915k17409k51499j99812j33866q5109m2687q734k233
105938b961j9248l6393m9300o5417o4762j8142N1933Q0856M8530R425J3212L9144M1110K0390J2115K3124K6140O748
105920A16504j8270k7269j4996P435J6220r842n8390q2629n4972o515J4467Q155J2916M0079O0231N5565M5974N1743
105902A56406O2022N5114K6819j2497m8533o3786m9727k2865m269J6960O3536J09110Q9337Oo7234l6037M4505O2584
105884C81451k484n7874l0899M1775Q1087O5369K6250j2762m6186n8298l3485Q370K4033N73k7488k0864K0846O1813
105866D21227O4989K4749k5820m3488j9711R998J1087q194j6648q853q024k5755m8185o5410q6164j11116j14481
105849d9799p1391O463P6035R8317O2654j2134q7394j20632q8445n339P8182J05541N9460j5795n2211l0121J017
105832d5592j1632n5971p7474n4422j5575J0533K4075K8461J6219p118j8882j3270q356o507J5724N8419P6450L7284
105814d7634k7790o1849m9305j6261J2427K5481J7149M41Q592M9845Q1412O4179K0326n564j8128m8611p8114n2818
105796a26222K0408O1770K4239m4723p5762o2069l4632L676O9241J44376J79319J44976N6738m5627j17662j22863
105780G5183n9461K4652O9548O0442L0425Q050j4015n2314r8432j28586j33212j16245p1373J4695J26442K08694
105764e5507K12196J42632M9504k2423n1989l1265K3103N2716K345j01302j60296j20179l3320K1423L6898N2041
105748A6577P1027O8870N0775M1000K7718j6641o9751q1522n9381o0916r5025j01900m7683L0808R7326J58951K04574
105731B34807J76440N9445n8933q3127k7457J8400J1525j5878l0748m2282p0072j09358j34165j18977o5995j7376
105715b73751j3604l1724p932O1001R4961M5298k4713k9227J8883M3244K4154Q524J9990L2953K9580J8303l64k7181
105697a1605l0189K0035Q4270Q9575L5206J11L2396Q9012J01011M7799m6245j37762j72686j19247j2609P2438J01644
105680A43154R2847N2578l3565j35850j77087j27054m5413K6O660K486l112J339M0034R4059Q8989o782j14942j35183
105662b56816o5118K1070P6415J01617R2737M1575k1832n1980n3045o7251r7847r5990l1289O7991J50957J82034
105646f772J43107M4223n6954q8241l6853L4510N8664L0581m430q182J3759J9382k7049j07802j55668j24053m3779
105629c15557J2229J1287j4967j4926M2052J51047K59831K86900J98646O3358j7868k8207l0608n3242n3377j4066m63
105612D82069p1047j85679k55831k49205j93889j13934k1354M9125O1893L4644J8582K3953J3972k4928n9053o6234
105596e56916o8468q1754p6794k4699M8900R5255J10114J29175J61183J66656J16790M4967J3886L9133O8730M7072
105580B33230j4888n2561l0813R042L150m9985q9518p6065m0132l0493m4290l9544j873L6865M6013L0780J0945q327
105562a08464k7483l3097j0291L0281N5946M4983O618l2688n4197n5192l9419q177L4891P3682Q5529O6104M2032
105545G1058M3911O6597P3135M4911J0703J0221L9839N5384K7482k5264o3959p4696p4789q2384r3998r2374o5497
105528a29720j3212N5246J19176J48108J25131P4210M4440N2520N9154K5752k3429l3545n185K419l5039o4556m0302
105511C61168l908k7255j02200j47417j17996n1841j680K6957N2411P3892P6596N3949R092m2476o5418l3601K1987
105494H2260L3882j2163m7669j3406N4885P6401L6346m787n732M067j9670o8968r8376q5100m6292l049M3171Q4508
105476A0308Q0544j002j09888j28102n726J44903J58062J8090j18656j28588p0533p4333j44742j66397p8318N1676
105460e62702J35804J66880J77594J64756J06266J9085m9190p4635o7272l4576L0513J17217J76364J54725N3971
105445E14800n5137r3043n0307O372J3643k0608m3182k8923k27J5848J7587J5167J3843J4539J1775p359m0848n3176
105427B30764q279P6067J34404J22066N7206q473l8527k9188l955J544k9436p1530q1115m3541K0747Q8417J41816
105410E58987J51423R1344j7347j11657j47407j30005q3237k4013K4399L5566J5313J667J3477L0475L5996M0489
105394D85470M6207L0858j0278m6165n8692o8302q5809q6454o4248n7421p3252m4242P1577J89166J79670L9174
105378D47259j03688j45723j03770m8618j5498P07J6196M4837P6622O7651l621p7787p5337j6373l027o5870j11126
105361a17166n9881L8849R2831R6618J01020J03157N7666k3766p2191o2760m1401l8334k4208K1323N6320L2765l0376
105344A30466o9266n0051P088O0408P6464M3265j7393n7152m3365Q826N9870Q8561R2177O1388q361q2265j02831
105327A97829n7341k63J1375j7936m3288l9327r042M4971J14401J59670J40650P9926M8520P2170R6912P1973K0162
105310H91362j1202k4294m1921m1047J2842P9675P2847j4603q3648n9104J3651M2927J4053j2169O250N2528R1737
105293I89884J05665R0757N7581L1361K4072J0378l8175r8742j12695o1227Q855M9528P0272J04598J37748J09999
105277A479859L029j08287j24145l5992N9234P4348K9393L790J9353K5613m111k7934j0765J3703J704k2620n487
105260A370685M5539P1672N5993M4415O5654Q6477O8504K5443k830Q59L4147R5068J64691J92096J37397K8392n3112
105243B431090m7320L1239J11162J21578M2723p8645j62435j59212q8747j4151J7261L728k7857n3357o8856q9404
105227A968797j30090j80080k00345j61446q3316k2372j4509m4750p9688j11411j48987j77626j59659q7790j1818
105212C54910J1737j6198m7551n0764l2435n55M9692R9121R6925K3676o7194j09596j05171j00873j03892p4089j221
105195g3478O5864Q3411O0741K4892j8136o0062o9975l4080J5001M3181N7727O7790M0707m4005j23646j08845p775
105178h0688P7647Q9270P3390Q0116P9721L0793l2876n4767m9544o2346o4299J2824J38683J85367R9675j8123o3051
105161D41792o7829j12114j58131r8920M9375J32990O9288l8029n2908Q124K7092l4778j01817j07986o6781j2645
105145a23277M9227J09696J31823R5754L2456j3705k9137k1812j032J3268n767n1367p2761l4631L3017P1708O3026
105128B46486L2970O434r238p150J5650L7748K8364j0654m2550m4238l6883n3814q9079r5126l8003N0290Q9460L5965
105110A16632n6661q8003k5909N6755P4077K5346k5315m1807m7524p0932r8865r5094m5857K1465N9859M9996L1068
105093a60769O2957J43602J95548J64971R9870P9081R0008M8984n9310j42168j25092n0596p634j4467k5046j5975
105077B83964p612j2856j6727p541O917J4724P791j7102m2655l3671J3018L8637j4540j17112j75406j44939p7668
105060c02778m3103m2860k8065K7548J01069J50764J48691R3899J6345l5638l1292J4161N4340N5661K2768j5518
105044A85992l5763l2058n917M1571R8325J31529J11134M7397j4571m5977n8173o4336m9075n232K6564P63o1418
105027B70755r0042n7276p031J1559l000k8391n0336n2742j9210L0486M4637R253k3537q567K9879M9473O4607J11714
105009B82231J64406J51103N7328m6572q9190o4749j0985L1244K4954m5087j34996j62432r7841r413J2918m0355
104993B2564r8353r6379l5369L7027P9225Q5400P4690N9763L4519j580k3820j1409J2753N138l5658o5546o0178m4022
104975f1235m1594m1547l1206k6620l8045m1115j7221Q821R012K67R720J9730j579l4326k7792J9861N5390M3321k470
104956a98628n7603j04713j08460l2498R6074J86479J77574R9816K4419j4438k3910j5377J259N149k1426p0372
104940e6655j13386j23324q7360j6811N1629Q5125Q8805Q8389Q1382M0895k7174p2769o4132k5515N053J9219K0758
104923a05871M602j9593j8713J8971N9850P0567N4573K2146l0599q2187p8542j4053K8385j8490r9435j05543k4851
104906c38783N2646O9660O2164P7785J04124J02319O3257R401k7291k3470R001K1672q832l5412p017M0536K9661
104889B01421l4965p0916m9809l2626n0609m5644K2886R5428J01592O7046N9719P9134P4618M0094J6310J5992J1763
104872E01434r598l4381n5474p1354o1332q633N9023R6040R9108R6855Q6218L0605o8968j44138j24934j9685Q3167
104855D53953R2258P04r8329j00667l580R4875J15571P7841M2273K6570J7987K1016L5647K3970l8652j05046j12507
104838E43884p5388n3658m8927j1520N5173Q3017M5170l449j4777p650j1986j8662k0271m2795r3425j24056r1382
104821A09298j8337M2098P2570Q6766R1418Q9173R2878J03558R7801O6861M2600N1840O8015M4182j9972p5139p8128
104804H67482k9949K9623M8388j861r6702j76712k01281j70441r8699m343P1004Q2289M4646L2831Q4464J41851
104788F22590J27200M3571l7852o4017l6024J5065M8896L3079k2852o6802o5219m0840k4534q028J6539J1910n2598
104771E00084j34202j62261j30687q5634m2142J7185P1184O6391N839l5917r484M9655Q0266P0391N1058M9389O5941
104754D27056P4719M1729l0859q7703q2867m3559k2363n472N9106J47813J64947Q0703j8418n3257m6776m8377m2781
104737E13641l339K8011k390o3039p7849l7750L095K1189L6562M4527J5189l6635n5636l1081r864j1261J409M1673
104719C76452O3164L9621J7503L7509N6563J2312o9637j03198o2000n731J3825J0257J1378P443j7477m2032l3130
104702C12822P876N6658J03617J45067J52471R4912n456p8546p7923j9627N4954J16968J37280Q2483l6375j40148
104686I07033j53470q8163j5658K8531O3401R5114R4722N7450K5625K3119J6174k2618n4665k8277L9405Q6321R1815
104669A165859Q4782P6504M4265j3274n8914p2505p7898r0335p7260p946Q0904J08807M1004o7077j19507o9473L5599
104652I83535R6644O0389k5165o5477k5630M0711O6849M3252K397k7772k9980P342O2874P6649J9035n0030m4883
104635A190740K5171N8371p86q2585q7376j4770N0691N4348J7555j8304l8162l8829j7941N319k256l6965m7258j337
104617A015626N9022O4333L490o5337q3147m4006J5583N7271O7908O1756N8983N8306M2004J4339R785L9473N4690
104600A430079N518p5735j00409l9047L7558N3361J9875N15J4732K3316k065l7662m3494j1626L4426P1073Q8847
104583A469262Q1135L7984l4006r1570q1822p436N6724M5588q121j0431O7542J48477J51882R1122L4866J1893o07
104566A962482k0221m0532n7832p3929p8281o2792m4924l9693k2366L5411J01958J13220O6280K8038L6421M8959
104550A952199J6548m1730p4953p3232o3386o0016o0828o8859q0352o8572j9457L1147L7603J2104Q083L9814O5753
104533A551866N8060L9897L3293J4048m5361j16189j39317j00574m1675M055M8822J09179J60615J64523J26816R4670
104517A962728R1588Q7577N1332O641N698N5545J03547R9324M3554l0399r2259j17182q5617j3681L5492J0408o0122
104500B154174q9620l0616P7495J62271J90854J75707J36735Q5722L6759M723r321j6192k1257k1928k3966m6140
104484B765400r8336j59161j85100j48388o6634R211M0663L3904K2636K5455L3455L8644N2974Q4730J10400R3322
104468B653175L1442l0207m1069Q461Q2272J29778J21414O8157J4717L926L7141P3759P6975N4507M4011O2496Q6283
104451C477238Q7652P6917Q7736J20485J25722O6516j6037l6163L0241J09508J24790R2136P8250Q7841O0059j9277
104435D553614p3322l6975N0441J02821R7488P5725O6880P3675J09697J79116K25138J74137M4984n3032n4006m654
104419E531727K8562N6159J21694K13033K76211K87390K61779K18325J80485J79704K05383J83475O9930n8486q2509
104404G672862P7P5556Q2536R1156J77003K91330L20772K34958J11003K8374m974k1093l1537j7223L8352J20562
104388I169714J90358K20258K19003K11891K04067J81634J43810J08498Q6096P6001R0826J48452K28596K74345
104374A1553549K60347K30402K39477K79714K93946K51317J83935J51931J85705K55980K95175K64053K03259J96132
104360A4844922K69885L59746L86803L43671K81800K42004K27846K27955K31879K31950K30945K37900K44377K28487
104346A8590170J98743J99388K42125K68385K25342J52455J36211J91330K44608K36820J86199J40995J18709J12569
104332B1244049J20747J45865J87266K44779L09686L51978L46924L15836L04387L14898L00231K37644J68890J47544
104318B4740724J81750K48068L23180L76076L69389L08395K59540K76601L27505L36882K85949K23733J88183J69922
104304B8615897J61053J85776K54288L25017L51181L44008L50928L80285L89033L52324L08658L12877L66263M19513
104290C3117101M32573M05346L59141L21441L28342M02420N12074N84364N81078N39632N20561N42398N90580O53714
104276C9890765P10793P15302O50332N83539O02962O98162P68345P58437P21549P23384P52243P69060P90843Q61530
104262D9997246R71318J067036J127108J169153J191357J166541J104055J064727J088719J142874J167860J157041
104250F3415035J160852J219177J310847J375815J380145J352789J354782J414976J506976J593159J675408J786134
104238H0546095J939306K114377K292205K484965K711651K948106L121935L175621L133941L087940L097583L127224
104226A13780949L102316L017433K951566K977148L094819L264855L451601L609419L677873L650041L621501L707346
104214A53906867L906891M098472M176114M147638M084815M023284L946635L842812L733317L644423L575886L508744
104202B00595898L430447L338155L221509L062864K869369K692145K586570K551841K536214K508191K490561K508506
104190B34392270K540366K552840K559140K603650K705536K854676L046466L276078L509974L715000L915928M172543
104178B71844467M492124M817994N124641N474371N946217O543750P207166P890354Q594451R348753J0194361
104167C47478649J1171777J2283981J3459218J4553944J5381344J5737834J5447601J4437576J2784525J0676141
104157D83412590Q320737N884405L477898J167136j006075l003032m794728o391719p841851r180970j0408234
104146D59636157j1527873j2582933j3611317j4591893j5479185j6279170j7042022j7781398j8449917j9002855
104136C03287594j9438018j9750896j9889586j9783087j9389215j8694378j7699575j6442395j5012036j3503420
104126A23684988j1963087j0410373q902255p538252o394378n478667m754171m174938l691210l256260k858595
104115E4262802k532893k313450k182154k079924j962539j827217j690796j564619j453027j358084j278851j215044
104103C2804204j170870j144750j120254j083223j042723j013945r86048r37743q85847q78151r21465r55175r25270
104090A9738740q52666p91799p49951o96453o35537o12538o42214o79201o75055o28644n66053n03980m49390m06962
104076A0848297l71513l37875l27026l68713m43231m77744m27741l34284k72093k63048k68497k48448k01662j60471
104062F345951j64550k22859k88494k97948k49495k04280j88234j45862l5941Q0459J19502J05458J32873K10481
104048E197061K41154J76570J01325J16155K03537K63895K39314J49487M1951l8014n1374O346Q6471J34037J46438
104033G014353J57976J82264K03271K09457K00251J67459J05662L6627q392k6731l6594m0528l1080k5658n4272
104018H054065j09314j46398j43773j25280j13582r8215o9730n2101p1984j15749j44862j43560j29422j23340j26568
104003F340187j25863j13196j04392j36009k25334l30255l75803l35887k64789k27108k20806k00041j54804j24561
103989C401339j33666j54938j53385j35721j30836j36256j13170m0199M4587P1067R162r4936j62611j58050j09936
103974B002451o7744o0633r6590j63077k10650j76305o2767L2645J8680p2554j21232o8996K4706Q2121R7865J01822
103958A259742R1415N1126M95l0245m7622o9148p2175k2725N7427J07700J08008Q7311N5494j0486j00186j54139
103942A311992j46102j26054j37866j39576o3904O6768J49487J26113M8651M377J3511K6054N7m5192n7036j7831
103926A013449K6730J5534n5695j25740j35976q8217k2738L8559R8049J41919J31930N2045n6886j26303j18639n1975
103910G36046K2491N7477L3910l2203r9245j25749j00994n4441k7352k9523l0708j136M9431Q5881R2089Q1578O8318
103893G25870N0979K8770Q609j0133l3479m6592j8472M8418R9146Q3896J8975l3643l3972J0642O9195J04792Q2661
103876A155662N72q6948j10267o2748j2976k6182r2214j45962j45682j11558q6791p8277n4413j480M5398N2378M6914
103859B85426Q1534J41966J50941Q1967O546j2039j1968n7653j21384j24201o7503l0380l9390l4759J6504O2130
103843C27737N4381K2435R983N025j7118l6234k9590k7274o4888j13021j11437n0409L2807J13347J79167J94007
103827D88918J24930M579q9505j22734j25298j23300r7365k7033O1362J16855J16344P7009K4207l8355j17274j87230
103811H6110j84191p7916N6957J01048L9595j0989L5183J10257R6694J48p1399p1041n5718p0302q7674q1538o8713
103794b53489m7620K1753J30616J87222J31271L1180L952O9887J42911J44107P6242m92k6091J6498Q4171J06607
103778H18725N6786k4028q2166j04211r9048o7666k1474N295k44k217K9487O6848O7594M2164K8587K6425J2258K250
103760G55365L3963Q7295Q6561k048j20878j86417j71321j08915m5667k200L6159R1787J46329J41178N6119l8916
103744G58394o0042j9009L125j9746l4019j0273Q338j1636l6436l0782j7979k5427k5114J4527O1602O5623L4903
103727F56049J0210p463l9425o5983n0901j3806n998j9340P078Q2342J36516J16649M8378j8691o5639p7742k7763
103710F64471O9393J35286J13394M2817J93k238j1780n1245r0452r1219m0585M7683J26022J26993L5562o3104o5405
103693I45786J9073P4290K8254n9651q7979l9499K2361M7060L6980J0239k5990n7721n5578o079N8689P9535K6655
103676A016425o1886j08737p6977j3802N934k5726m4572r565L6444K7128l7819j01312j27488j28565j19418r0510
103660A39554l7097J9581N9719R1310J30252J68722J81119J54075R8158L6216r923k8384k5220k0916k8642l6526
103644H91998k1223J7665M4382J7664o2971j47107j76491j38727p3961l0241k1051k7446k7990j5871N307K8706M7402
103627C10045N9313O9117P9099P9524N6057Q692m1712o9902o9808n9088n5199m8214j1707N0790Q9502O4088M436
103610E15033j9534J1337M4519L5537O323J349K4626N2650P6759R4650Q7950N1043K0153L0102O1438P3610O6713
103593A234258N8402K6328n5234j34988j24311k6167N5205N4192J6967N745R466k245q215J6907L9291J8737j6318
103576A168020j4739Q723j518n3060j06116j38700j45131r6348J7322J18736J10028J0667n8500m4088k0206m5471
103560G09619n5817K9842J66171K31445J86393J00604L5662j7326p7098j22284j30960j17726r5645m0520O3338
103545H65698J66130J91846J31758N4017J1368j6299o2872j02121q2536j6219K6486J6383M888M2592J04851J31257
103529A467227J03428M7267j2255n9197p6026o8420p7945j21465j37745n4328R7270J94326J61837M8926m5333p3974
103513A393593n3380k0421p190k5156m7656l0518L3132J00888J32487J25033R1201M0967j699n983J8118J5859m0410
103496A718865j05633j15953o2258J4992P7120J05530R2754M5470j6405p9813j38587j65670j22246j5592Q8576
103481A321150J38044J43976J33794R8536K8358l7240m5816K886O8443J21045J43015J14473N0241J9813O6670J27876
103465B495264J02652p270r3735q0045J347P6266J10424J05891P3326L6520K4965L7693M3015K6384P914M805R376
103448B974792J0780O300r879l4028l4303J0418N8643M8133j0950m6834l3554j5686j4163P158M8680L8841m9069
103431B955279j20301p7137M1259J19346J22872J09942J15397J17285J07240J04013R3583M1033k3922j7687O9020
103416C757222J28696P2297m8162j08788o9664l136J7354j43l687K1119L2983q668q5096j27657q8674Q612J02156
103399C596764J59198J88878J98373J76634J32033J09303J40418J96180K14534J73094J13771R3497J22001J52252
103385E766930J30282N5510r578K943R5936J99032K33494J83167J03174O4261Q8273J33820J44109J06532N8742L9924
103369G396551N3304P9284J01990J10893J00863Q9613J09791J58147J80290J42874R4821J05229J57257J67280J09012
103354I157199M9966M7065P3080Q1584Q4200J11304J42170J38191J20626J50757K36333L09347L01589K06195O8503
103339A1278109m3627o3341L1799J84132K99390L42420L61712M07791M63416M80890M62107M64450N29017O25989
103325A5824254O77777O30878N06491L81818L15506K92138K50577J63536O6837K905l9228j04383k04233k96455
103311A8468418l33233l12844k77027k68447k97110l41179l73539l89822m12995m66113n37458n80364n59223m94218
103297A2824846m44562m38979m37458l80616k68653j64737j17515j10185j01981r0648j00117j20458j02260j9694
103283I926983R0609J69404J94081J82821J57318J25382R7019R5085J36837K08307K65642K68509K15337J45016
103269A2278350J02946J06161J36651J57351J34886O6289n460k2043K4391P5009Q3267R1369J77723L27170M13674
103254A4147734L45403J83181O7637N7039R3773J18432J46539K09959K80490L02698K77417K60417K79800K99724
103240A7070243K80231K36711K12538K15419K15042J95231J72929J61870J52336J42645J59074K14124K63900K45681
103226A9937974J59181Q0264Q3118J66307K63338L11020K98992K63668K44938K49456K56708K57419K67484K92911
103212B3132778L03855K72245K21965K06757K42047K92547L25435L39350L40935L34878L42070L80950M20663M05348
103198B7561823L44282L20015L73441M37739M34635L85466L66858L98589M45336M97119N67578O28201O28159N82440
103184C3971681N63814N95362O21652O03030N67553N43624N11330M61229M40938M90638N73579O21345O20013O08459
103170D1794247O16052O44204O92819P67407Q67579R90630J132947J274127J384845J466302J548406J626158J637160
103157E6442883J540711J391582J294439J300047J375603J458351J509504J533620J570669J652517J754278J819823
103145G4644027J846551J894081J985279K062821K087471K110194K178760K235229K195997K089213K014553J997288
103133I9341464J984624J962388J959139J943667J847952J709304J659954J732561J796198J744590J634977J565095
103121A20881913J520213J441837J358652J330583J326025J282587J254502J368510J634939J918930K118772K274711
103109A39712174K470437K712071K950324L160374L349937L524813L686873L846876M017068M209073M450897M784277
103097A82875194N232375N785132O424418P157480Q028137R082124J0263626J1307650J1796879J1430845J0265597
103086B79649457Q649440O932837N287028L761955K392399J197761J57737p49948j528910k213003k877293l553192
103074B97106268m182544m707027n159118n611124o077018o528023o969514p427080p873827q247716q540715q799461
103062B16983101r021851r112089q964466q553412p925923p145421o260968n294688m239819l104138j971279r77798
103050A44411249j98962M12067R44281J426394J846428K236318K663866L140590L608916M052469M568558N287178
103038A74399352O247726P389820Q613548R760652J0545215J0621861R817265Q283139O381440M437816K627684
103027B59125518J031089l13700j427647k381399l223899l956607m595674n206054n835865o455592p002830p461622
103015B12295718p867553q266466q701632r203145r739766j0209326j0534807j0755401j0964180j1160356j1221527
103004A03671559j1030204j0576222r919956r104736q139471p045075n892310m794557l855297l101816k479509
102993B7732406j938617j511737j262403j166646j104728r82645q10393o44464n10256m13038l72296l93341m32713
102980A6189129m37555m04274l65042l34387l03399k72308k55171k59225k82360l19094l50300l46315l02411k50645
102966A1706643k16376j92134j78852k10145k90031l46853l16899k50930k58312l46945m01857l45656k43459k02464
102952G905730k26702k34481j87549j36122j37782j83293k19831k20421k11052k34170k93111l38398l17978k39571
102938D725269j67308j52231j82912k11196k06274j69805j16347o0567j7426K132k206k1141l9364m1182k5910j5482
102922C298050k7227l9542j1702N5611J09944J11906Q1996O4409P2907R6046J26719J55023J57250J27769R8957R0481
102906D568597O5439q640p6301m7102O2794J21035M4617r1524j61208j46132j19449j08216o1818L9991J29188J34185
102890D345456O8508n514o1493j09786j39832j19032n0116J6661M2368L8033L0982K4499J2666Q033K2870L7970K2600
102873D184873k0814o2254q9489j12570j21360q2697k107M8385L116j11929k01465k01970j30708m2483K2615M3887
102857C123030J5629l6694o3907m7291k9313o0469j26803j65990j53513j31312j35224j34024p8334J2728O3335M0445
102841B092293n382j6609n373j9877o3184r1260q1428n6403l5324k720N6037J18378J44767J18632N5646o699k2702
102824B178792K7223R9326J14767N0101k6950l9886M511M1269M0629L0102L2947L3269J0292k8197n7990o0902l0757
102807B418546K1825P0592R9729J22957J54768J77455J70772J58162J73804J90882J45078M0142l4749k2306K5817
102792C913474L1178j202p841L2972Q4027J12093J12151Q0375J9270k9698j1396P1159J48975J65819J34203J00438
102776D955997Q3799O9719M4301J7305J7680O9889J61852K35410K28910J39787L3476j7466L810N6126Q8334Q5733
102760F274662P5997R0509J19603J19276P1200J6000L477K5856L3214O475k4792l8217m8637o7153o9461l1574L0725
102743F587160Q6223J30170J73209K08035K22113K31449K61661K96285K86061K25205J83179K30567L51612M61635
102729I934564N03472M94927M80716M74713M66742M53498M29238L66271K46858J07927Q507n2004j33788k56678
102715A3524963l52336l55550l01886k81406l22707l82714m35360n00199n77326o21028o03952n56836n17447m85494
102701G230722m58550m66855n27787n95877o04283n40616m46445l59358k92643k56293k54845k66777k60201k28883
102687A671309j88294j45574j03636q3861j04975j40183j34179p0183J0643O1373O9962M4749k907m8656o3009m9124
102671G23455m4818o6567p7989l9015L4581Q8840R6069P6297O1427O0154N7372L4653q128m7997o4403o7545p8350
102654G38036p8741k2043Q4510J49467R5463l6605j33530j46465j24545j14746r5001l0690N5631J07588R4693K2200
102638E65222q2495j64610j64491q7761j9963k5388o2445n2291J227L1481K8286M8849J05467J34364J05780P7718
102622D38950Q9290P9973j0291j20835j41143o8360n82J4214K7889Q0889J29696J19419O1967K251m2275p0145o9043
102605E21864m2733l0394n7232r0593q2665l7328j935r933n7716j16323j38874q3929L1924J25517J28335O0142r950
102588A08177m9417o6575n7862j5307K2988J363o0706o8866K1621J31115J45635M9943o7803j22305j04332n9196
102572a91527k8423j7512l153L2243P0112O9400J6886n0785q6195p8018m7070j1868K4016O1747J01640J38491J48578
102555A48562R7857j1559j13666j31049o0773J8715L8038J2443R429N7018J10234J08447M3381m0661r8890j19954
102539F7572j13925r0099n6531k5857n574J0872L1154M9309N7221O2102P4339Q5444Q1098P0703P4150P9113M8935
102522E00026j5059n8392m6903k1304m0122r2297j13455p8699k9819p421l814K005O101K126P051L1310M8362L0829
102504A20525R03N605M8065Q2371P8821N5964L6952J2222k9668o3809n7178k0929J876k209l513J5523K7098K370
102486C10989l6711m3503j4665M275j2261k7671Q439Q8257J49462J45964R0772K7171j7187l6898l4665k4925l8105
102469E38738r0880j52227j67350j23545o7004m1593l7998k6628j4752l0998o4334o6669k5947O662j3329o0509p9758
102452e18121o4949n4919o0930m6549Q134O1854O1081J4659j1427K6694R9235J39595J20727Q0607P1179R5817J11437
102435A34124Q7728M1932N294k2114n7575r0106q5593m2955j0085k1981m7122k6180M5841J07910J07027N7481J2862
102418A96488k695j3586m6566q5861q7153l2750L8964O7623L2566k8866o8267p9666r1358j10507j02578m0464M5671
102401d09005R5366Q9634O6035N8163N4675L8769L5654P8613J40631J48388P4178k4387p4077o4557l7360k7208m3029
102384B00483q0940j17619j07199k9394O2243Q4109K3589m3056m9811j9951j7951n4539q2973p5683n4913m0092j1853
102367d15550M2425Q2282O0745M455o935M8339R7060P6152K7522L3983R1847J17636P3796J4051p430J157K2378P0122
102349D34035J31673J38928O1593k6932m8582l5117n9985j01333p9505p709J4645l4351n9615m330O3058O5164K3197
102332D74834j0287l8562p0671o1976J3329R0461R6126N0938J1737l2008j09867j66249j16629J2430J04950J08623
102316C57179O7220J0690p3127j49434j39983n0559J4371J1756K8798J25790K09669J58876N090j10672j20370p1702
102300B73592j9212K8325O0335N6465L5776L8935N2208K3146l5083l8158L4906P9938L028j37307k00037j45100o5922
102283D5835m2145m3328r599M1828N2605K8416L3736Q2280J01095L2828p5989j32649j13530p2064m8600k9770j842
102266a50893J1722p405l2817l0786j0400P66J2198N6572J22725J48928J02811L4301J4470L7254K4691o1212j51858
102249A21067j51036n8392L3491O3314O6320R2234J14348P7473N157j3374N5711J46282J84771J70897J39124R2058
102233A139445J7768n9370r6248q9999q1619j03285j48386j88446j94894j48920n6673M1629R7197R5187O4979M7466
102217C35831N6548P0167N6671J3117k7301l6507l1103m7886q5200j01502p5146k7968K1060Q1948J49660J76617
102201E29006J29638M6689m678p872J335k168r167p962j893N835J6707K5133K1922P712q177j1955J6086P9524J31795
102182I57510J06704R787o6371n7766j2679o825k5196o033L4705K1212m9249r0299n7105m564R109m424j7113l2695
102164G08708m2268o764O5500Q9456J1334j04580j55269j22996o6226k8674j5758k5599m2237k5683L2780P0694K9459
102147C71877n2192q1972l6890J9736L6654K9019L2189N4687Q4485J00198P4111K890o7647q7491o4574l9861j4273
102130C60946M2495J14824J37930Q4774J30o7578j13010j32490r6377l723P9086Q3328K2167k6237q148N7699J08983
102113F44799R7088K6963m5225o4281l2771j894o523l4543o1612p9518p8043l8640K7669O8032M6173p520l4720k2115
102095D03319o096j6181m4022o5300o6574m7721j6582J2180K2043M294l5622p8205r9039q7038n4920k6666j7833
102078b19963k9229m2686j5125R0286K37193L13614K48610J10717K7914K3997J3949l8302n8602L317P4311O3525l680
102061G99846m0985l7726m6334o5503l8114L5277P3163K5896n6207r3187o1951Q996Q4373J36589J50243J34310
102045A008686J08108P0543J2247m2781m9414n219L6181L0844o701l2533k3243J2821M8244N4060K8943J1005L3294
102028A295085P3630Q3162N5028J8682k4539r7247j72863j77961r4255K896M0596K7147J140l5533q2878r6682m3934
102011G71474L1611O4134N8434O2755P2427L6754m1760q9989o3987p939J2384q318k6867j4559J9210M7895N0706
101994I74365K3424k0555o1906q7564q7387n2899J763K9774p271q5880j32126r4119Q827J07735J41761J01034K9490
101977G88466j7500k9124m1832p5417r1382m2996N4046J37528J69955J54060R4651J297p4427p0428k714L5175o566
101960I82792o4066n4313M290K6436r204l4881n900K8201J416o2972q0288k7828J7329j4615q7124j11462p3661m2130
101942C92020m6836k6855O0993J44925J21149Q91j03366j26306j05644q7759o3616k6319j3166l9661n1923m475N7639
101925H1691N6274r425o8967p6035m1836J0313O3883Q9144O1875O494k6303k6054k1713j9654l55J9829p641p3790
101907A7730r1265p193J12193J60439J17954M7216q455n6307r5595r5649m8315N724K4579Q103j9047l4093j3173
101890B4846N8343J45587J67835Q2118n2208j28746j07599m2965l202J05l824J075K033j6875n0421p4183o9499m8176
101872a15756m2478n9020n7454j169P9614J11767O9533L016l4843m8830o5009p3498m8347r29K9888L0229J7256K113
101854b03917j6306k7414j7213K094Q880J6906N9804J24317J45645R0914J1290j5726K7773R3803J27179J09461O0895
101837E98385J8016J49r846l7448o9538o4850j8665J9715J4638n652K369K7254K1953k1036n6172m7604j1822J3013
101819C72859J8754L1984P0547J06671Q8046M554q2551j04243o6466l2345k6907j2739K6244L7675k2473j11339
101803B98271j47215j07364l4243K7310N3220K9713k6565n9780m0306j7756n0424j04591r6486k2137L7026M0568
101787b20759L3957M8239M5119N210j0033M9467J25845J22579L6844m5565o7240m6791j9457N862K1393M587m8512
101770D0745j01119j07006n4594K4589Q2900R3358O8136L7969J2747k2290o8019r5438q4217n3731l5328l5180m5405
101753c41883o5257q1611n5596K8475J17154J37922Q9855L8411K0205L895m0434q2012p1124q442O1335J05351J19343
101736b4413J02244N2897l733j9836K5423R3366J21963R0201L0871j8049n2354q2638r9729q6152n2944l2586l0801
101719A3730j5752L1289Q1567R5788P4162M5135K1098n990l4611n0096n0267m8410m6692k8932J2014N5227O9278
101702B18538M2511n494l6429k1582L0205P3532O6622J3858l6111l5792J4911O1143L8625n3861j31022j02205J6647
101685A54096J10783J04863M7389K0140J2094m8307j60584k34239k09840j26033m5485K0080P8027J08142R7116P7806
101669F048Q1616P9933K5676o3372j13394q2117L008Q8986J39073J33600P5289N117k4892j1537l227k7177m6621
101652B66009j8125L4439M3605j0967p5084r2443p0256n0023l9491j3069K6381L2502j6323o6682m5931M2559J15752
101635F2853J04664K3202o0342r0437n3327K7475R8400J00053J9665q0889j14590n5973L3386P2190M3849M570Q832
101618A43581M0296L3301l7935j17407j33977r0744n5373o7625r3445p7897j1156P0977J24460J20985O2432j0113
101602i9640m4375l0770p142Q20J1531M1214O3488M8651J3053r838k3305m9614p7598p5071m3546j5975o179k437l219
101583c09952j2374n056M5947J05737R7682O632q9248j13732p4239k3940J0267K7516K4059Q640J4555N0596O4847
101566a72063N338j00282j72317j72983j24708m7212O1719J74970K28178J95669J32629J04465J02564O8840j5087
101551B69720j04820j52162j47170r9517j9181O6613J10460Q8773L2595j0561l0318m0584l0766K3347R8875J27843
101535A83147Q3007J9990J602J6331J3363j3730l3520m5849p7552j11725r2644j9760K9800P896l2734k1160K5044
101518f8494L7260P633q443Q664J5117j0749k0424K9731R9327J07968L9597m1749p7920p7045p3691o3404j4320O4364
101500d6578J08117P2108n941n0427m3226l6173o6799j03195r4041m3005k273o435m0646o8415o7919m1609p358J7032
101482e26783K8626L8044N1200N9984N3408K7633j4210n5489o1648j0402O7584J09364R3206N9487M4502L4172R177
101465G855p823P022K5139M183m2238o6183o1208o1969p5323o6306j5773N3306J08889J28978R4749J4220n2311m9506
101447e4299j3700l8530j38172k09681j62854l2486P6033J06539P9042M0667L4803Q3171J49970J50526M4997r4807
101431B1219j59438j29558q2189p6564q7238o4285j5906K331l4179q1767p9277k3565K5491K0740j3496j9838J3914
101414g83605N1289P1816R2487J21235J38177J36739J34645J24285O4606m5747j36812j50198j10734p2235l7686
101399d01738J0895M6464L4555J0460L7774R7561J00544K0727n9324o3791j8836O502J476M456K5155L1021L806l3728
101381a46021n4193n8986o1826n8370l4866l843l696m3104o6408j4090Q4692J29736P8120L955p626K1635J1009m5722
101363b69604p0772k1806N1496Q5336P5689N1192K5199O979J9280O7549J17215J31705J13005Q0476L2609l9113
101347D56435j11451j36772r3710j6706K8605p61q7608j66940j81545j25975l5221N3801J14960J28015R3006M1858
101331d0009N694k2171n9727q5576n9969P094O0133P7742R5252J32021J51039J21391P2464M4228K0865l7809j22271
101314C60391j78873j79430j43727r6396m0502J8409N3332M1248r73k1535J6384Q9352J31051J06184N1938K3793
101298B30646J6955j8440q9173j34930j04682j6023P5166J23501J01436J2066p8788p9443J4034Q7300M4182o3842
101282A19965j05351l8173N7438J00225Q8575N4991J1696l0163m0887j1401J8899R000k7233m2059k1314j597j7886
101265A24725n6308p2079m4535K901L9309O3080Q6874J02524Q9501N1177Q667l9172j06345j64554j53712p6381k6336
101248a70664p0710j44399j28528j2488R5242J16794R1969R3367J17917J09098N1975n085j8403k679n882m6351q9095
101231a7922q8143m5623j3877l3506q6096j22423j20912r5952o2545k5212O30q455m6785o9490l7695L7713J09609
101214g26684J41725J28999P9821K170q0230j15345n9886O0283J55887J67801J34397J29662J53135J35751N2198
101199C59684l7759p8855q7846r5890q1786j6412O7354J06505Q3561K2162o2356j52996j99490j61317p0140O213
101183c99368M7664P4479P8168L4252k2180j4621O4521J28633J04867J3326p9070j28642j19406n5462K0108M6445
101167b06286J8023m45M0824J11854J47035J19712N1961j3791l2640J3231P7463P8985n005j08529j59372j51827
101151a8807j14857n9075M389L7244J9853m179J8834P2611R2213N4318R80k2146j0517J6844M2727N1413L0340j5446
101133A96739o2862q9621q7926o4728l7724k5751l3245m5613m2359j1955L9811Q5143Q8441M5460j256j0912M239Q633
101115d5486O116K1780L3102j0469r0700j19188o2128M496O947k5904k9746j0777j1473j5635K8205J08157J51309
101098f1394J22635O0655J5584M333K2273M6800L1693m9397j50845j92657j51903p5346p640M2520O8176N5752K2998
101081a95763J3903L8800O1851O0570N3927N7873N8996N0550M8924N1317K2518m5161j00140r8550o9657p0025r5771
101064a55838r0154l1517L2571M7609J5605j8017k0055L155K3134K0147j826k3081k7420j3965O436K1206K2209R124
101046a80677p813j2335K868K5198L4251K9258L4111O1307P9699M6952k0688m8406J852P1094Q1916M8548M5066P7900
101028C70101P1797k712p1849p0713l9115m3271o1248k5896N3520R6352O6272Q803k7806m7000p0802j01603j26619
101011b1789j27667r1116l8129k2581n6278o6689R530J17194J43900P5555M568j3344j4513k6437j3302L9111P4646
100994b7341N5897K5630K2396O856n9375j22270j01248o226Q3605J26717J37235J24907Q9023N5785N3916N9107J9933
100977E44547o5721j48450j90735j85322j28383l1642N1410P3636O3589Q5297J31114J22805L0111p7080j17001q2101
100961G6074j5886M1814N9276J5290o3803j07889q1983l3018k6951o8226j11987j25176r9156l0969O0694J16548
100945c95348Q3422j6556r7805r9186l7689K6855N8317P0072R8016J51624J90129J60152O5158k3347m3081j0248
100929A80485J2903p25k8969n1276o7240o5963k5373M3944R3390R3265O2911K7952j5962p2140j10960j04683p0000
100912i8441m0452j7570J2434L3955K3644P765M1776J22218J69063J21382J6286n5092m7420O727M6048L8079j784
100895C78618l0684k3638n391k3364q3705j36463j35672r0052l6669J0192N5900Q8878Q2334L3238k3964m9032l2500
100878b1974r99R658r294l2696m2114o0858j14801j63173j25254p89R2550N4980n8137r8230p393J22638J75924
100861b79962J37775P8260N7721P7562J00575R5366O5181L7171K0907p182o3779j24565j55312j54548j33250p9293
100845c27373J1303R0542J04263O9780M6791M0521N903n1770o4941j5630K1797p648n2944l4517M4931J20216J49844
100828A51068J30814P0043j484k1725L3353R7863R1396K5709k2390k6366l2349p0885j11050j13817q0086l2020J1024
100811I9098K5459p325o7718j06521j03198q8066r2032j02004q6192m2106M639L7758O2267P8772O7400J4452n0356
100794c55673o8026j7327N0677P2087M9481L1559K3061k3196j08524j50572r0731J0925M9062R818k8077q980M5732
100777e08704R0163R9770O6143K480m1418k1195L9500P6048P2942P1166Q1438N7879j6895q2354p7453k3815J1376
100760a02929M605j1715m479K7819O4444P9971O6346N0267O3615Q4624M8970n2891j31445r6692K6398J28534J41599
100743C87041Q3890j371q8249j46332j41278q3568l1788j8011o222M2868R8582R6178K9621l7592n3585k9109O76
100726A01751K5034M5224M5192J2082k6864k6151J6532N2375M4348R245j9762m5220q9149j37849j40564p2546K3703
100709a82619P5988N2749j2737o0497n5885p354N3320R7141J05697O8700r234r9378j61809j74938j45702r1755k8860
100692e77173K2613M3109M0362M9929Q7223J14340Q3042M297n6426n8773l4295l6020n9401m2845M7079J53092J76382
100675d3465Q9969k3081o2357j9326L4403M7999L3407J1175k6505p7492j05387q8205n4276l7136l1860k9851n1687
100658d33675r6290j00721j7489R7071J44771J18466R4695J00769P7628p077r1635j06568o7996m0782n0574p0839
100642d50246o6327k1780M3657P4117K7362n6375q1292j1986Q6864J47935J76377J91446J63233P3024j5762k6809
100626B53438J8669L9246K3748M1737J20590J89646J72167P7325k7035r2409j15208j17137j25350j52652j81278
100611A25497j80330j43067q8574k9578L1947P6169O8604O374o5002r4650o6966L991R0402J51052J49489R3510L2642
100594A61510j683k6697n7426n8844P793J06502J45461Q3218k2237q6812q9959o6006l5578Q514N2121M8456j6447
100577A51886q0256o9236L681N0246K2339k7937k7345J7486M1091K1312P151L7229P5949N9260j9482r9534j21258
100560D2582q1355k0954K0485L2718L1514M0672P0914J05318J09176O8003J5190K534L4768N5864K2363k9556k8503
100543D91733K7248N8924J5929n4531q2558p7982r9984j46481j45752o8223J8827M2057J8226J1767K8779J3508n5170
100526c683j21425j24526p1722j2060L1546O7130Q6896O0986j2484q3459r8043n5975j542L3457N7362Q9946J24527
100509c3069J28790P9169j0556r4728j30056j06222m5080K2481P1020Q1910N4180J8586J5877M5899N9573K1660l8138
100492A41296o2750m0170p587M685j258j3960k3950j5123J6669L6712M760o1367j00244r1311p3468o6070l3006M1592
100474c44550J01389R4393N6125N3387P5657N2419l2938j13771j29666q9577l6149K851J1946j7697o6162q7667o0121
100457e30131j4364J838k4032o1255o8103k8934L0908P1407Q7747J15617J68449J98679J61223R0806N9425O9989
100441C29269O0453J6052N25M9714J04971R5513K9098m7287j21137j87246j94931j03866K6680Q1549K3466p6547
100425H6276j38539j40248q6471J0898J00695J12018M6553m421J9482N9939K7608o3734j20302j03950o8332n6473
100409c19001l4996L9014J35981J79033J27268P484j15329j76365j44045m5583N0838R9623J11181J10526R3288N2492
100393A71409J8582K4224M4414K5834k6096m6909j2314J8596j1784p7839j12449r5237n6197j6281K8644P5236J05091
100376E6924J08007Q4779L5398k7919o9706o7624m7984m6953m8917j1978N0018O9030J9932l7278l8510N216M1546
100359G3981N2804N9496P1950P6760N9509J3523o1060j43342j92637j87934j50486j04991m2975M2485J10793J11499
100343b10625N8738J9491K7464N5559P7957J05685J39623J38308P1711k3196p9464p5291m1348j2801j0557n4065
100327A87189j44412k30436k33979j29628K1876J32191J59377J18257M6713j6925m3917l3152j6014k2167m0614l2443
100311b78084J5812O7741P3144J9683n6441j03983r6290m5652J1892M5462M9635M1823M1376N0364N4466M3491K7667
100294c7894K4496K8314J0370l5467o3675k5658N5137R5113N1208k5806o2406n2828m1910m5363l8620j5322k371q532
100276a91214n023K4427N1194M0354o668o5247j14298j31833r5637j6493N1694O3734L1923K600o84R012R555p597
100258c50201k8499j8761M3116J21996J48062J03974N3306M9772N7800J3156o8919j10521q2403l2287j889J7281
100242h5017L0655Q713n5865j07212q6989r611O0233Q5549P7546N2745J0780l8535n6143o838Q8880J53483J22764
100225B45138J9457o4899p3298m3633m2902o9776o6663j4163M0193N1240K5163j2565n1833q0752p4417k6024L9466
100208b00268R7923J39597J40789P1967l9460j03784o7499J9669P4586P7048M9782j2115j18464k13238k09351j03706
100192c96524Q358N2868N6629Q2508J34902J67565J54294J11441O1223M506o5122j33153j59229j12221j8343M5048
100176e250L1458j1576l35O7731J03036M2126p2206j55703j82370j78460j53106r2432j1765M1112M4683K8510K7711
100159d76836M0650M3118K2472j2217l7340k8774J2377M8783M6717K5574L2546O3960O0940P647j7703N8015J85496
100142G5425K40471J79144P9730K0153j7829q7964j75645k07881j45902k5724Q3027J27840R6742K5877k1413j1560
100126B34491K5944M1401K7108J0541K962p158j9066k0576k1581m2341o4330m0190L2168Q8820P5322O040p3302
100109B56253j41091j86116j78706j04836q882M4952M6451L6789M1241M5372L4823J5913q753m5172p6879o6634r028
100092c04303M7998N6885K3932j0370k1738j0264J8969N2715O2634L5237j13o626M838l635k5916j5226K8992L9182
100074b6809j6984o6690k8687N7118P6870O607n9053n4416k9083m5469p0230l6934L7705P9603O8482M6424L3011R672
100056a8863j5162k262M5170P2304N5177L0755K3434N051l9218o5426l8622J382k653l4267k8549K4825N8493J3822
100038H5391q5496j58144j45950o4129K0479N8310O0000O3257P2674O3830M0396L9895P0035Q4794M8313j6045o6984
100021A70626r7858j17699j17529r2789o6888n3848k8762K3679O4334N2918J8255J9369N6408P8949O9232N4467M1223
100004G4087L556n3589p9548m8157M810L6627M7578N0029K6100m6044j41094j94811j65158p3952J2224M2426K7188
99987d77728J9238M5562P7690Q2796P6191R1305J20517J29809J19512J21197J35727J24055O8264k250n7624r9644
99971E74617j31581j35386j02279n7522l2305k9764l2520k6071p522R688j573n0866j03755j17014r7107q6075r1310
99954e18345p6066k4342L7222R3568J58424K14679K01067J01354o329m2480k7932l6771q2284j13829j05081p8317
99938c05462m9180j2346J5848M128l0068k2008M8421J13652J01552K6484l9282n8947n5368n6226n7737m6119k2580
99921d45238L321K2069J5647l5731j18539j73910j48690n6869L3642P8685R8187J30384J73536J96653J89457J70256
99905A32860J50370J21302P9943L9703Q372k3099n8842q2092p3663l6637N533K9156K6719J1535M291N293j2561o5935
99887B62248j24360j37777r9451n2004k6126n020L6558Q5974J07342Q6577M4578J5252J8436M1043M1293p649p2843
99870B14071q7170l2098L2253L7973j4298p0930r2873q0189m8019j0712J7659L3881N2488Q0103Q9707M6852l7657
99853A31041j04916j05645m7403K0717N8490O2206M9653L1491P038j5912j7708L175J5411k469j6775K4568J09088
99836B02050J58124J23709M4684k0013p1744j41649k09626k14174j43736o7024n1082p9282p6217j385J04855J70125
99820b72385J68506J36522J16142J05985Q3914N5615M7158N7623N8407M1986L0275K5224l572o1613j05114j05143
99804C79530r4269j08625j21311q5588j5708L6335O7635J17841J73820J56264L6329q9886r9095P393J00250P2974
99788E33889m2910j30610j26397o9768k5483n342Q580N894l2946p7603p2217k4067n168m5063q2343n5858J3448P4876
99770a59088J24965J72545J76802R8859j0904n6144j7131L7243N1738K9880j7590r1308j59247j68067j21487q3493
99754a92427p9161n6633J8323R0270Q4461P420o7378q3865l8270L7561R0768P6006Q921l3419k692N3833N5285o690
99736c7687o8557q6296p6559o7825n6766k7351J8085O4271J00615J18516J03736M8880k6200p9835q7274p2218q0260
99719c12725j11443j05626k3938P8657J11971P3681N1054Q6917J13799O2886k2713n0532j6820l925n1376j07068
99703b27201j18656j03931r8323q6242l0621N9002J31348J52506J26689O9677k916o3805q4723o7316m0036j8191Q444
99686c94295L9910M8359J9496j1005M556O1845J11687J25939J18272R7386M6232l1134q3609p0736k0481P579k311
99669F7690k0154k5746k2676p026L1193P4963R1073P8025O4038N4987K8802j0608k3330K346K0098j1668p2493j14093
99651B05421j20032j00104n5174J2759P2203Q2772M2737o342k0764Q928M9881M7586k4082j21858j66067j26681m8520
99634b67337J8795P2038J12855J10008N3767M701J9584N2907J0430j01653j61796r1591L9003J07508Q8424N0419
99618A18062L4803O712o3386j24978r6549K4151J36878J41449M6910m1814m1235K8538Q1921O4670j319n2822m5711
99601B16280J1473O8070P7914M3724R869Q267K5085K6782J252l7269o6104o4447k4130L5870Q2147J02992J08495
99584F26270Q7991R011j15478k01349j80887q9802j9535l084R08K5004N1164N1526J9918m1361j18832j65701j30515
99567a94752k2928Q6729J43640J47124J09094K4920r1670j86536k09548j60434p7407p149Q219m2182j03544q8233
99551f64657K6127J59751K17206J82625J05974L0563k9044o3632o7232n0344k6928K762L6211N2856L8528R976p848
99534d7106j1585l953K8376Q9058J41881J43145R6663M5230J4278n746k6659m4488n4820n8848n0238j7474L5332
99517B73046Q2766R4864N6414j7562p9154q4217m8019l7156q0915j20665q5692N753P0685P2301N1385M7894M7229
99500B48957K0897k3061n2508m6325m320N1855Q1412N9198J5640R560N2297R2120Q3241L4438k0293n7225n4625J076
99482D92334P1973P8565m772j00471j20565p9791o3750j04049j43889j26082o2659n827J1132q165l3121k3233L7949
99465a84421J14747J45675J05258K4070m8709p8226m6521L6554J15144J20844N0129j9214j6466L8111O7345L9150
99449D63470j992m310K4775L5751j93o4613j19231j39891j21281o8081L18M4745L3298j6384m3251q793N9534J10112
99431A83983J30985J38153J17797L4828r2744j81484j74170j04999l9733J2502P9669J44696J46478O7805k9485p7251
99415C57030p3724o2544o6420o6041l1483M0917J12413J19344L2246q9928j34903n4450P2520J24283O9755j4253
99399C34762m5951j4883M4566J04780J45182J39749Q4668K2785M542K8651M8895L5050j684m0353p1681q0936m6146
99382F91996K5352Q5420R5815P1918N1905M1610K0519j2371l7155n2725p7519j04303r2429k2184P1901J40042J65456
99365A063248J57510J24039P5334L4498J5460L314j9554m0705l5667p050J9887L1537L2016K5892K0060K9616N2323
99348A581758N1370r5o8871r7749q1638n9047l7285P961N4452L6134m2359p1772K1326J60947K21227J90951J52207
99331B019517J30526P4296j9286p1044m7055k1153n1403p3620J712J37972K06660J52038M1659m1708q2639r8170
99315B258302r2409p6705q2087j13753j27876q7620j5513M0701O9480Q8750R8264P8818L1644j8184n8892j01397
99299A891523j45851j65247j33893n7276L0885Q7558Q0077J2689o1404q1488m6130j5407l1289o2674n7358k6370
99283A218345l2526r5464j51561j29398l7560M9654P8464N8159K3441j1251m6246p0428o8014m6467l3634m1039m7740
99266F16735l0989J299K3681K8902L2421M6121O7388R3190J21732J34627J03262L0561l3220m2350j5914k0576q9927
99249A066943j80163k14623j62087o4203Q030J8311j2450m0966m8758m6267m0294k3849m731j3646o0799j08280
99233G2168j17198j03106j03938j06907o2122K7264Q8611P8636M5900N4871R1981J01169Q1007P9919J05871J11156
99217D45282P7611N1169O1300O1246l645j03097j51750j18071n4019j7581j1263p611M566K2109M8448Q6086J21728
99200E12508J39096J35308J07199L7655p4923j79586k02113j27314l0326m530o5533j41521j54002r3984j9042J1196
99184a49912j1018m6954o0462n2079m2099l2910p161L7059P1969P3544N3529M1571M5718M8534L6336J4397m254r096
99166F712O471L7937O4867O9042N6693M7446M3793L0772N135j7657k8067k9806j7193K5008Q2783J02053M6494m6907
99148D85576r9766p7609k0631J0268m539m1630p4368r7364j16078j27537j20277r0793n0434j1210K6639O4058Q9965
99131b55730R5289R2995J00226J02133O3743j3936q0972r8864q5606p8248p9207p1093n8458n1237k3219N9582J67524
99114b15078K15796J62165N8070j6723l5559k0727L634K0375J0537k2322l6075j256M1370K1540n9714j17266q6459
99097g7692n08O0644O2828K5434l1995j00165j46865j27335m3704M1637P2065N2797K6719K0489L4839O4399R8096
99080C1683J12499R1111M3954j0540o9738j28941j54525j11292j6271O6260Q9428O2119K5360J6375N1025J06702
99064B05209J21953N4020n3893j04954o6200j2261k5228r0344j28783j03201m6087k418J0673m063k9708l2980R012
99047b99253P6103J23830J31672J07901N6302k5055j10617j49546j15266l3668M2556P1541M2012j5673m1965n997
99031a45123M7437M5239j5436n9759m1139o137j9772o6125p3954k0912M3233P6656R5010J20417J23861O0621n0739
99014A13378j26162j04668j6616N1802M8842l620m8863m8443O95P1560J16272R4801J7742n3239o9191m6103l0776
98997c2589k9603p435M6170R1620R3597O4529L0511j4870q5557j49526j47247p0930J3281M4055L8081N2278R0059
98980B6424R1613K5422n5040p6255l5298J5247N1775R4784J42612J51295J02569M1290J1108o151m6379r3460j03219
98963C38337p4497m5114l0786j9045j4991l7435o8001n9806r306L1793L5255L6965O9533R9790P8469K2730m159J0393
98945C60125J061q8432k21277k98420k65568j64157p0111p677N0142J11801J43737J26412Q9345O2896L3217j6154
98929a53060n1001k6388L9506Q5594R1947R0435R7600R4443P6535O7566P0929N7966J8276k3609n2121p5487r0493
98912C18638q4949q1239j14230j53153j19135q325P8898P5509M1345O0461J11524J14981N8842m126n0025r2216
98896A52800j17389r4647m1997j2353j4637j1910O629J8106K7569O3349J01575P1686l4514j25610j23610o4288l8954
98879b38195p1351j00206o7245J7661R5213J14881P6531K9795K8323P5044J18958J11460N4970r966n1180o6037o6121
98862E2535n8286m4919l3955l6552m9641n0505k3785J0772J8901M44r605M644J6154M50k7987m8162o8764r9961
98844d48222j17457r3600m3378p99L0613O1942P3904L9914j4989l2167P41L5228L3685J2499L531J1259K1540K2972
98826d02784J0725n824L03L9079O8932L4667n8437j45165j75324j48891p9942K0341J13099J39757R0806K9105J7665
98809d51888N3763R4139J10549R4982M2705l6058j05288j30574j08863o0754j0495J9594J9386N716L708Q020q001
98792d59359l9828m6808j1857L3792O2967Q7748J17984J26969R3746M6295K3768J9773j059n0618j14300j78897
98776b89684k27640k25688j51380l6224N8092R9104R8357Q0442O6795P9951J27989J80434J85212J19621J4576p2423
98760A07534j01523p4355k5855O420O326k6369q7600j52690j64380q2094N0907J33370J16822N4615K4844M5342Q6055
98743h2631J19373J24206Q2201J3234j9060J6667O4737N0300k0151p3214o6230k4314P361M917k9383o3377m8480
98726E6156K3377Q9720Q4409J9298m0503o0822m9884j0999N2045R5485P1047J999l8777k7570l606J3114L9659N7143
98708C71291R974q7967j31863o6657K0451J5962o4788j12579p6897o224M3446O3616O0059L5111J5729M1400J01591
98691B31655J27628P1956l1069j02008r4606k7177M3132O6308L7622O56J97K9869M3590J8575j9882m3630n9930q2402
98673B10484r0261n3922O240K6836j8959p6384o7958J4489J00303J19710P1000M813l5828m5325m0324l5333l2223
98656E7358k1818L658L3943M2895J5989l1692p4333j01573j11924r3276l4836M4609J03847J16895Q6492K5529m8202
98639A3561r9751r4762m3799k280q362m1256n6418l9061k274M5414J00993J47191J60828J38944R6266M1299k4417
98622C32116q6686j21119j18646r3533o4963m3785l5030l6646l4910j6164J5615M5608O9055Q6846Q2848L3446m9225
98605c5173j08040r6771l3907J8838K4270l280l2003m6769m3889j9033J8980L9035K1156n088J2731P5561J16419
98588i6963Q2418R178k3829j543Q157m7933j35797j83615j69048j22034o4877M758P6776J18856J15554Q7426N8019
98571b84497K5443j8292n8226o4508k2465N2149J18283J29395O9291k0895o9939m6914O856K8508L070l2492m1379
98554b26612k2237L212J9876L3316N8681R0962Q8601J0428j17298j96724j52719k0695Q9433J09695O4269J1482k0410
98537a76740k9574j4141K2273N9106P6607P4298N9041L1575j93j2815O918M0245N9760O2980O1953N0264P958n9437
98519C20078j10104j04208m2895L5919R1673J04381P0403q854j18407k12157k31348j63912o9599j5155M335L9729
98503d10121R1574R8584L6883l1859m9152m2053o3377r3835p2640q98N7258O8175N5690L6569j83l7809k4525M9186
98485c32533J19660J27566Q2935K5866l2116r2192j32900j31901r7649m6103K7177J15219J65822J26861J8513p9399
98469a35174j14215j03350q5355n9518R01Q5088J27928Q3165Q79j2661P2495J64280J71484J23781J05915J11397
98453E37040N4518q0320k00634k35345k10908j69297j02594j4181M4832O0420R4508J69483J94966R7127m8844j16637
98437G4134j04639j05260j39584j41054q6075k5191J6576O5772J17748J24350P9686L2303j66m3664q6007p5226j7619
98420c13916J4998J73n476J9781J6964m2561r4092q2566m3176k0346R966O7059R3145L9064l7819m7703N235N0890
98402c70380O5193P0458N9319P765n4219o7132k8742J3234M2573P7528J02614P3576n668p7063j05160j01035o9235
98385c66374J743Q4230J12060O3099p570m0691l7065k7223j8537k689J2791J1355n642j8205j1338M315m958n9710
98367c10409j26910j43646j02018p3136j04753j32001n6481J05220K30657K50366K16505J93731J64730R2129P515
98352B11499k8790k0311k2302n4474q2435q1057o6594n9285n2446l1751O73L3866O1704P7092O6384K6213j6052j5292
98334e3358M2883J08822J05381J2888r7260j37039j00134n6219n1642n5877j9860N0054J04764J14770Q7614L7370
98318I3157k7995q8587j12195q4522k6608K5579N0129M5583K1276r445l3266m4559m9071n4379n7751n0957l8032
98301d41643l7277n7058p7089o6451j7210N1179J15406J59080J64904J22386M9417j7814o4907j04872j35562j26166
98285d83677o8486q985N217r946k940L8795Q0111R1446P0012J6824o1158j24008j18586l8915O2856J32480J53057
98268b65903J31118Q3391M4941M9832Q7014J06468Q2198L8023J063l2008o4854p6849n5315k1668J881K4946O1250
98251A95528R2973R0993N0414j8418j10046k06916k66979k63919k22216j77198j17022p352J32251K21495K01752
98236d04660J00146L071j8294M1112J20083J39113O9482l9215j11182j18870q9501m9386M064O9668J17013J19196
98220d8160R5580R4636J32740J68856J50518P6792K201k1605O106N0355Q3320R2058O0692j6937j04429j40849j09821
98203E72053o3480n8238r0854j18401j16135q8715m6326j933K2562J9312J3206K8802N0111M2790L362m7035j02463
98186A8618j62074j89609j38094k4444O9644R0683O7700N5251O4457P8234R5695J21242J34713J13343O9711L3399
98170D98469P191k4976n9028p8059r0710j19253j48706j33275o5356M302L5582M8117P2969R3972Q1038N3960N7197
98153B33434Q1818P2540J8659k1822j1140J1683J623j5220P240M1612J6466p0722j41962j49684j32770j37829j45797
98136c41871j17363o2939j6970K4113Q4095J45861J60885J15008M2376k2592o7172p7412l8720K9987P8383P6807
98120A2476M3938J4743L406M517R620J5104K8012O1186J05032J16400O6344j0880n6154o5798q3611j13426j04835
98103D6074m7414j1853n0800j11948j09379m3643J5437L9852O2422R2049Q8372L9032m512k107J5086p02l8664n5056
98085g7754m6924m8431o2638m8240J3582P6914Q0754K4608k7787j8531M2564Q8203O1558k5942j02135r9669j7386
98068a87254P9611J18820Q1295R528l9720m6340k9832j0935J1943M2671O4691O0300M1571L3692L0019k263o2970
98051A94827j01888q4165m2292k9607m5756n0331l4544k6636k6736N378P7045J28490J07978M3258l887k4962n6826
98034B9346j03924j24563r6822n0552k2436j7100k3738l4312l1059O983O4200Q8160N3800r95l0166m0339o3039r1267
98016d87823q7680m5526N38K4705L6464N3327P6504R9123J14329J11640Q7318N9201M7488M1532J4093k9543m9571
97999F6119k8520J796O544o911j2004r239k3048o2250j04027j14283p6502j0630L2422J4201m3641p5854m9323K914
97981d92236M0059P2930J29533J85683J80790J02228R223l9353m6015m7854o0314p1865p2636o0573l0947J3371M6447
97964a41529M1058Q789o656J2948L1584P779m3005o3595l0447J7127L3528K3282J8063K1081J0147j3409j8840N356
97946h6739L1575L5030K6075K3851K4449J6422M616n872k8389o7418q8497n1816K7244Q3614P4383K2094j9137k1070
97928D15K059J8906J3219l690q748N519K5956M0244M6884M0467J3257j6101r816K5276J7686p6095j84631j92651
97910b41844r4683q358j7871o9969o2536J6475R0475J02641O8368K9929M880j3931l3201m2784k0307L8430R2767
97893a61519Q9137L3611j374L0216Q1932Q1563L5402J0831K7737L0923j8674q1982r9663p1578m3515m0109m7177
97876a44239m8329m5272m1644l3316k2739k4960m6050o3095m0486K8568J04434J35265J08644O0318L1872L3959N4514
97859D7444Q0919R6232P2383j614q7797j25858r9652n4713l9143m7562m0225l626L0603K7902l900k1580L114M8156
97841a18917O3623K8080k7409n4190l2238K4333Q8576J28879J12940L6854m9844q0355m4814n543k1880p6881r9498
97824a28284n1480K9080P3203N4089L791l6522o4022r8487j30600j18113m7573K7372M1348M03k4350J3468Q4886
97807c71791J33525J42905J35636J26335J02523N2050n053k1614K9898J10223J31391M7446q2648j55433j41439
97792B33954j02009q7050p3937l4478m497l0074p8601p0961N359P6802Q4622N0580K3409R136j1759l1943k3439J6463
97774d8423N8063P4496O1518K6560j9805o1232q3201q7002q4443p8783o2686l2552R197O1339J11421J18507M3780
97757F754q3860j65351j31887l3718J0482n0120j50332j96499j56147m9596R0859K13621K44465J53103J0535p2956
97741c60647o5263k5032m867J635J0253N291k1590l7583j2328L2501N0452K6989j6788n5533o9365m4889M465L7567
97723e44732L2601J7059K4005M0374L2897O124p426m564j4746m6004o8169n7936k7128M669L7134P5432J09807J20433
97705b70170R0590J5848p9503j36598j03145O429J13222J50915J25743Q8535O4904L4516k4217q8274j01642l5151
97689a47998P1197J37898J22882N8045K633k2784l8403n6106n7964k6237K6747O6507O3511J3028n7762j02656r3852
97672d1314n2944l2478n8592r8588r3688k4951N7977Q2269K9617m4482q1125q6835r9586j05068m7727O6585J48922
97655d82008J45939J18026J40472J78716J42211L3276m7464m1482N561L4642M7994O5151P2837N8738M2890L4914L989
97638E54402o5204j22178j03836j9231N7406O7796J7633m2965o4116l5051J077j5568r1963j63596j61209q3730O982
97621b63351M9582L1830p474j5124K4428P0997P8549N5385M3666M5755J8871m7317r7510q0120j1287N4834Q3203
97604C4917O1020j4979j16314j77127j51367o3873J9061N4495M4280J8972J8828O2515J16127J22855P8296L7891
97588A45597L2264K4489j8569o3780o4304l0799o54K6072O5672R5578P7476J9279l2782m9626l2113N898L0929P05
97570B31332p4145j15135p2833j703J8215m833n671K8690N8348P0566P7734N7656j3749q2971o8443J0240M9181J6643
97552A79122m978M3151J11676J32742J07305N7504k6712j35044j97109j60337o3903J6580N7875P7821P9116N5272
97536C30081J9260j9073p4380j45040j83632j50948p3161p188K5483L5927K8072J693k5778l5239k7613o897L2813
97519b75620Q0531R9964P5111L3712L9l9038r0696j19700r6538m8744k0393p207K4188P2363R6859O6343j3192r8103
97501b60121j20659m3346P5795J20702N5642k5210k9819R154O506l6281m8214j0061L0835M9231N9874N5630J2774
97484i7568m0712m4241j914J5366k1579o3465p0647o2230n3164j9271L7461N9521J9590k2508l206N1595P4045N6456
97466a86471M2321L8459K429q1817j66632j91382j41196m9823L2266O8617N6306K3075j731j1041r959M891L8118
97449e33570P3663Q1684N5085K7349M0670R4893J38456J21060N0767j7614m9727o2194p8649q8125p0996l7944r850
97432b65042J8110N3863P1476M5027N417Q013M7387O2238L1048L141J7503M7770N5763M9540N2738N5939L5961n292
97414C90600n2318r9849j39253j50082j30554j05835q1819k8538N8351J20755J09588O2188N5858J02222J38354
97399B49668J13696M0719l5275p6508o8153l1874j9609n7428j00601q1934r08P4270R2381O7133L6359J3272r782
97382B05426l9534p5387j03825r8408n0015O757K8845K3335L4092P0029Q9491O3753J2834l5128p6346j04713r9233
97365a48027o7678n9887r7511j26261q6605n530L8756L0331L0603P3160J06011P2266M020j4846L5537Q2269N6987
97348g6405j5604n3827k3796K8816N2502N6347P7738J10573J08734N8858P592L70K4722L7417K2853m413l6247p2929
97330C03301r4043o6014R276P9096R0277M3364j3516l5007j6128R068j833o0539j30509j55340j11869k9072M9153
97313a30335J06333J47688J66747J42543P2354j2575p4500j01492j03492q7864n5670j9100l580k2926o1108q7757
97297a24734q7444o6989m0176j6562k284K540R526L0706N4572M8778J138n3600o9662m9226m0047o7600r5735p5020
97279f41819j2160L7899M4046L2496M1281O8936Q6423Q0846O3319M2887J7728q193k2139k2420k4331l8137n3541
97262c06879n4138l7321j1970J5783M7215Q5033J23528J39602J02811J4593o7295p6814k1755J8413j364k6757J3051
97245d4264Q9192J03100K6295n6868o3738j1868K9790L8897M1944N1019N1149L7918K3560J1041k350l870J5026K6064
97227C62037o747o8394j07198j07641r8757q4156k6471O9556J19200N8660n2971r5442l5978M2915O1015K7209l372
97210E3465n106J3564M1285O2945N2735N515l8731l8254j0789j3030n5414p8892l8342K5112L3228k5394q5580r7538
97192a99221p8360n6134j7787M2976O9292N301r5901j09374l456J04244R7843R891m1420j3995L4967O0280P5223
97175a15631Q4416N6448n647l5993M744O0711N4245m828l7550n634N0138P7584P1242N3391L5092J5652k250j8693
97157C37437m9011j10710j91235k37164j94518p4644L2694M3493j9948m8991J3083R1914P9811j5750p7478k8456
97141d49473P8674J40287J23950P8638N1534L8142J3713j9718l5587k0764O406K0441J9802J9452J7100p958n1684
97124B2955o8786k8525L0425M0401m710m2729l3853j0401j2183j8188J0928N1575M0374k2201n0947J5186J24097
97107D3418J67894J07568K428p4100j04268j04211p5705j4284N3208Q0037N5676K2849K3316M5134M4019O642l1649
97090B47972l2881J476M1902O4139N5490N285q1073j59086j68389r8203j0392K6864J6809J7586N5118R0588Q3932
97073A57137N0780K9208J7918j5668p8538j37062j53371j10444j3293R9734J56299J06695j1201r9873j02700m5187
97057a49566K0584O4129O3767P068o7935q5714k6171L9381M3800R685o067l273j0696r200L6977R4011Q8246K0150
97039A29176l0507k2144P68m556j5251K944L8432O6196Q5440Q8267L9226o8573j71081j91242j21415k0650M8513
97022a46457N9600K6887m672L671M1567O7287P0015P1051O0522Q66q2639r2410Q778J24582J50751J10657Q2684N1673
97004F04413n2172j91962k29740j13602M6447J28247J35026J34221J37224J10527N7743J5750j2291n7071j15871
96989E96889j34382p4222K5264P5010K9329n7910q6788k5725N2326O6393K7539J240j250k7234q3757j09153o4703
96972B08866P253M6059L9899J045o7784j40427j55573r3778k4741j9217m8076l2637L1030O9625M4771j349j7993m526
96954a57553J5850L2438M1243M0072M1052N6765O9950M9994m34n1341r2826j30775j39548q0339K1156P9318N9033
96937a45945K4036L8707P7059P8634M6616K7351K4650L820l2119l5870J1577P2947J02478P8294p184j33504k26388
96920E159k10362j09649l9248o2658j10317q2669J3291R0213J10388J15460J32587J26942P3125J5716J4673O2273
96904A44924R8402R2982P0963N7678M0528J113m3115n7061l9769l3152p1792j37057j72950j45826q0108l1250k7209
96887c32699m2530l1580J8036P1728Q6983N8196J6984o059q014q03J3567M0085O6413O0034K472p9030j27328j07124
96869c00669l5213M2276R2731J09261R1886M0357k6551o4871m1913K2266O6547M6290k9252j14487j67224j69403
96853d37969j27214o3805n561L2084M4082K7846q688l5150k0158K9150P2607Q8242Q8713P8661L9714j5328k1086
96836b33860N5772J43784J43965O4616R250K9932O4817L9692l5218j02562j36688j45775j38052j24156j18901j09837
96820e93221o2608J2149M4304j769o4610o8138k4983J370L39J1325M2711O5395P2331P7561P0619M0632K8237P2401
96802b75955J17895P3314l3037o2720L4902J37803J22196K9044j6848J4968N2140M5888J5725j3589l9534m6626q701
96785A46865O2521J14970J11158N8838q118n3320n3902k1604J532j0692m4005q0353j23211j59123j40900n8041J7255
96768b40130J6980k2338j7630K7957L5592j3923m7435j7688L0810M6464M7420P0176J01305J09833J02340R7651Q2349
96751D09733L7464j8486n3815o5907o3520l7262J0115L2891n826o7879p7876k1525M0533N4524K3147k7681q2251
96734H6379j21640j20608q1143l7718p877L2847J02932J71458J95828J81245J63671J46992J02704L1471k3553l9516
96718G83472m4568n9351n2909k433L9916P075o9652q4130m765P4613O7821J1030j1136M897L485j7561q613K7390
96700F64581K4803l5836r1940j00664r9359j21441j23606o0114K3639M6005P441j7512Q801N1429P2202O9685M5440
96683C63554p008o4045p8821m9509l1345n2425o4590j7609N6632Q4888N4508J9819J2047k293n6470j17857j19009
96666f9533l9993O5247J24511J17087Q4878P7526R1563P3965r208j22294j94206j91258j32424m4527N5318J27723
96650A4375J15251J6507p8682p9008k106N3836M1486J0539J5493M0754N1179O2813J05349J43473J03303k0681j40882
96633D52999j77068j40700r5887p1782n0464k1583l118k552M596L4570N7399L2100k7339n7881k8507J9117L3254
96616d2846K3632L2807N8424N5354J1576l0864m1190l8211m5809n6119o0497p1855q6076o6019j586N7447P2729P6742
96598a52361J04531J09852K8250r9072j51462q1957L0654R2915Q9904N3416R426j4696N020M1359K7839m5865j03676
96581e5923q8474m4011l9333n7790k8248N9317J37994J58087J37638J11203P7673K0511m9173r3229q3253k9180K5275
96564A59084L6826j946n9193r0571o5055J8068J12418J38866O0583n3026q3768j191J00874J21193N6473l4344j14220
96547C01071j69230j72175j08507j7475M6076P5675R3522R0135M1513k6822n5500l2441l579K743R462L8321P3062
96530A85851R1968R5069Q1948M2474j0692l8226k6509j0634j8902k5322R040O9082R7993O9827J6901j8831l5566
96513E75471n8923r3416j07867p6316k0978M888k1598o8789r6491j02722j05091r8126o2673p432L4823N1621N7963
96496a95656N7108L1197j6645m5589k6430J5084L0116R182j1461j037K8481L8876P328n0896r2956p9181k285J03301
96478b01463J80237J87853J35322P3265M1904L0986M163m4893q6019r9221r2239o5335m163O8185P9920j083r9625
96461A07794j10116k4835O8259J01635Q0146K4434n9988j36912j35140l5004Q9039J55817J66881J63938J39963N8011
96445F53922o2496j48940j67284j49706j19273n0637O0904J45722J33235N3577N362K5419M7728N253q0347j40100
96429B12339j44148j04778l0458O3927J20225Q0739k3778r1694p5749l4740l3314m8223k0848M2920Q5310Q4137O8860
96412A50727N9831M6001K5569K3415N4938R8805J14837P8520N363n0069m2106K785L206o9699j40341j25299m4764
96395A91719J5265J8099j0449n4048j10604j37971q2480K9366J05392J08938R1663Q8193N9904j9160r4236j01900
96379I7691n8631k5281k1159k0705o875J4309L4096M6833N1072N7559P2230O9920K5409k8493l1102P369M595p1685
96361B17152j49632j57309j12676o5807k0393L1549O2142O0446P3276J21379J32509M3053q1159j20132o2407K424
96345b5585K6555L5839L4212r791p0137o3875K3186R9376R2522L6404m330k2029l4746l3375j1603M722P336L4079
96327A18760R4868J18215L8991r2546j61537j35595r2230r5798j13087p9409k188M5744K1373l7761o4305l8005N653
96310d68857L1278M1675N5722P4751R0177J05499J23636J24245Q5235K3007k0748l3271l8798m8143l8533q98K7709
96293A33686Q727m2301p5937p1917m9732k1017L1303J11139J74428J67855R7304K7097J875k297k7013n9804n7125
96276C46271k7438l3469r6743j53767j40418p6062k1772O579L0326M3301K1020j6727j9159J4561K8029m467l8711
96259a38646l3660j4811k9496p3156r8106p7279k7828J9438M9576O3956O6305N3976K6703L930J3520M5390M0098
96242a10090l8621j34481j52410q2873j9387l6147r7962j20101p6100q972L5340M5390L1543J3828J9272O2797J25068
96225e43906J62697J45219Q2771K2369J0924M7179P6221N2477M76j7750R267K9751J1371j0503Q141N1204O7024L6783
96207B41715j4883o1690r7037j20791j29692j21743r8824o6256l1335M827M8638R3038J07383P5594L3288K8874N4761
96190e4133O3338M6697M1455M9484K4847l6569o7521l1787J0913k242l9378l7046r976j5244m0230j7607N6257J03642
96172D4900P7803K1741o783j0807k4510m7923m4654Q120Q2425J12608N8327l7091p9210l4130K8703L6708J0131O298
96154B02656J8283Q659P382P3996J72157J89725J00392M640k1778k3952o5906j22485j37287j15763r0642n5294m141
96137A40642J5028k9548p3662l3228O6458J23059J02116O2891M5230K1786k2366m7267k8386j337K753R143M1446
96120C94758N9152Q631q9262j53711j36386o1297J8733O8525P6928N4315L3992N0385J00768J41366J31341P1090
96104G69328j0168r1443j66380k15926k01442j07793J4999Q3778O8802K6820K7556O4705P1029J6320m7477n3381n022
96087B44305K8954m202q6912j57722j76893j56752j30043j01619m9690K2842O6051L8143l2745p7828p3596n6231
96071g03938m5088m326Q8192J76227J79963R8313R821k3800j4176n640j7461l7400m3348j9501K8374O8881P6612
96054a88295O6356O8663P5596N1865N349m682M4283Q7396N3298l4011q2643m9370J5342L6045r836q2812j19495q0853
96036a47804Q505O9899M8109k1305n2247j4818L4232L4210m898k9626j4102K2300M9477N3153L6494J6305J3981L4363
96018A36228N3684L9861j1448o5049p6101l6980R137J4225j6024l2099j4577k902k7799n4590l9455j1387l4517
96001a69793j01059j31483q6336j0015N1451J05337J55956J63622J08652M1684J4879M855m0001j09679j47462j29673
95985b79065p7060r455N6833Q6703N9970J7275J8521O1437Q9544P3717L7853J0465n95J0387M4460Q1399J06491
95968C88880J39138J86280J89756Q9151p1709j75983j75388j27722q7779m6107k99N14o6070j37146j38413p1100
95952a03997J6072R1456J33391J11898L3835l4660m6337l8944p0281j23319j36196r8007n0660j4704K2456N5250
95936b52747N8640L6332J7063N646j0832j3454L1672J00527J15762M6641m2632p1307l4264R623J4868q716j5474
95919a2652K9649J10444J58636J12600j4878j42382j96213j65223q5683l510M1905L0871j4734l8315L60Q1956J42306
95902C5137J27683L8236p1337j33594j23306p3754l1820l719L9425J07900J67204J69901J00270j2427j11170j44849
95886G9780j05375l7550L42j0027l8358m4566j5101L1163N6048K6160n5366j37897j58258r3715J9629J15218J44368
95869b23505J14332Q2795R2473J08192N6326n9655j34967r3537N313M8357J9202o058Q379J6082j6867n6210o0998
95852a00346l5924P85M2633O6529M0550j3426k5549K3309P0007O8929N4550N9579M5109j9360p1041l7541L7879N1308
95834B57980l120k6674L2682J14381J46978J33428J04648O0515K375k9438m455L9805L4317l7604j22612j56433
95818E46773j22239n8676k2217l3275n4986l9586L903J4145l9976j07786j11085l7861L9900M1878l7732j24663
95802a43483j39676p7961p276J4528K618J2324O4076J30407J83640K15378K08840J39182K2779o8542p4359j0305
95786D72170N8745R6463J18520J43899J54192J17604M0565k7530n0971n5733r6726j74712k16353j60947m6662K3993
95770C96517l14p0334j03648p1988j2652K4036K4706J7785L1812N1466L7219r76R696J03348J96702J80123P1380l450
95752H81428J1604L3257j9067j01003j26056r9720q8021r9259q9551o3725p4948j18409j12492j6561R6750J27754
95736A41981O9745P558J8429R8646J74972J75992J03227L1632K5242O5064Q8681Q2349Q3799J02000J00032O9982
95720A439331N5989P0952N7094j7726q0361m1317O9160J31163Q9439L529n6724q8703j08818r9594n1655q901j6071
95703A346787m7313l7577K7762R9207J32340J29170J11459R3306Q5247Q6629O3721k2650j45296k06089j42511j3939
95687A560253O4284O2076N9139J21832K06334K16173J25512N783n9152m8075P558P2214J24395J45394J20519O0680
95671B844919R129P786M9687P5757L5227n2246j13628j07299o8841n6266p1565o8592k9156J0223J7646J4529L8348
95654B535658Q1224J00149P9502N0200M4543N9446P1589O5709L9270J682j9740K653N5859Q7830P6067P0332J25776
95637C527749K07761K18120J24586J0290l3070j5422r011l3385l7429J3409Q6612J27648J14455N7518j5666o1685
95621D282480m3903K2606P5674P7836O0313P4425J24249J74394K02338K08359J86979J27627M5758j7143l3637j2975
95605E555380J9520M9101P5149J03869J41659J84604K13539K10875J82456J52084J35503J30749J31472J35594J40795
95590G562349J45014J53301J71709J92021J95047J75349J54844J64391K11939K69525K93449K63814K06944J71012
95576A0330708J75846J97759K10065K22527K62530L24420L59193L23385K33655J66529J92916L00586L90771L76818
95562A4067708K83653K14280K13750K18422J68900J18697J67998L16338M51291M83101M31429L70978L46439L59422
95548A8212406L93046M23593M36716M46011M69170M86928M68743M40572M67994N55472O27535O43271O61661P36023
95534B5469141Q02573P56915O12210M93625M76284N05943M95891M34886L68202L23359K94232K69253K43022K17643
95520C1763179K11403K44488L00594L30946L18365L08527L47691M15517M58903M73098M98684N40877N46420M79609
95506C7238301L77351K98339K50915K07972J66306J43571J30379R9867O5992P4698J19385J22920M2892n2369o7437
95491C9219082q127L7194K9741K3882P0755J43253J86079J94734K10132K62097L43346M15603M22822L27087J55058
95476D2032738j5254j34465k23193l15702l98377m37408m38126m35330m42397m48843m54365m65490m68321m46873
95462C6908594m26462m56540n41126o20090o35306n93593n50135n43513n59511n55607n16375m79611m95780n61654
95448B9373291o16692o14498n72529n36724n28191n48047n97615o53582o55325n72729m70040m44289n05945n77039
95434B1480046o05084o14596o34640o41474o04229n36367m67594m06615l65086l76664m49798n32990n70497n69195
95420A4105217n69199n70968n39640m68921l91135l25848k65376k18052k20590k85860l69714m16243m19225m15597
95406H628849m27246m32103l95952l19696k47155k27823k74514l56171m26734m56876m43759m04517l66602l53506
95392C496195l66838l82670l71121l18906k32827j31272l9966J3683J8246q173l3126m3131n4904q7834j29986j40636
95376A186734r1216j296P1956Q2896L5246k7310o2131n8531l8375l5188o6329j12928j27682p5392K7046J15616
95360H23116J30064O2600l9018j10624j15584o1315J4249O6640O4323N852o9153j00446o2779M67K1219j5206n9213
95343E55192o3601k9271K1386P6409J20060J26098R6122P1522P3394O4929J5042l6977To448p651l5669k5339L3807
95325A012028P3693N8245L7153N2872O6102K4653n1161j07515j34696j49763j43567j06793p4723p9543q3398k9662
95309C63925N4622Q3464L8926k016J5996N2162M2709q502n4386p7216q8946q5228m8625R229M8596M7932K1872q704
95291D05810l7099n3743l6019K2521Q5081R9155N4372m741l1223k6267k6022n1126q6438j02247p7244j0211O5847
95274A90406Q9697K9007o5736j05927p6797n8746j08323j65900j36407l1938L6858J0701m5064m0306K3071P5685
95258c79719Q4264P6932P7393O8148L4629P556K8673Q6954J19655Q1632o221q5671j19941j09604o7257m610N5712
95241e1475Q1688N8020K077m8259n4916J92Q8391J32443P1717n6620j37446j02600n437N7916O8861Q1776J19333
95224C05661J32883P7679k1238j05350j53266j81778j92716j57680o4568M6633J18258J38739J47111J66814J62077
95209D19259Q7989l0555j08939r6378k6035L7368O4143N5911J3444n5963j20341j48628j45417j33291j11930o3727
95193c63090P289P0529J01757J01249Q3575O5485N5226L8908o999p0524r2100k7534Q9096J73734J74047J01107k70
95176E01485p9907r8776n7935n015J8815K3773L1009J5451n4358j36142j44853o9522O626J8830r317l2055n3451
95159a25342r2068j24180j12778o3665j2714J7791J9642j0828m6677l2005M1724R2557M1779o6375j04620k2761R4388
95142e06132J42704J13348O2272J6556l7302r4214j12344o1956L5364J23746J53792J08751J4185p1774j00195p7216
95126b90415n2002m6511k1651N7544J43234J42320M0185o2922o9234o72M2062J2086m2125n8227k9158J7827O2208
95109a55451Q5815O4603L08n8060n8216o319L9894M0237J3081N69J0765J2531j6130n6125p5041o9922n8481l7118
95091c23060J5332Q3944J07439M9752m4283r6877q3390m0248m692J6326K6741K8474K7456K4873P293k8818n3708
95074b87446l6269J0670M7852N8466M5826L627o3647j08306q6485k9771p322j9292J188P1760J22862J01025M0151
95057a35111l702k3735k9775q480L4261M8036J1635j7153J3166N5768K8905n8062j14475r1017k7275J8331K7301Q185
95039b63197k2634l8980k2942R834L2688M9230P6955R9327P8806J7647l7040n4656m9084l8247j4634K7258O4342
95022h5327O7731L7489J000j4651l208J9543L3206L5862M2895N5690M5558j3727j05272j77594j90616j45091p6554
95005d73066k8512j7550j4991K1473R0478J42818J43025J06556O2483J5139l1610m6168k691P7083J45383J73721
94989C63571J54981R0348N049n2149o1382n9569q4069j18047j25566j04521o3498J1185J08789J54768R2162k0255
94973B91797o6891k1885L4751M0396J3708p866k0026k4387j1480R457J1531r157l7356p6631j26836j34991m6435
94956a82301R0354J53279J00795J8361j3618j6237l9208p1780q0535p2254o4285m5488j6007j1670l8272l7986K0958
94939c05894P6014N8192o3j7622J5376M7604O1987P6271P1545J1765p0512r6268n6405k4923m0534n5918l2203l866
94921b85454l219R258P3549J39616J26125M5503q003O915L1640J5005m514K6786P3398N2393l9515j15445j22544
94904B1494j05548j16027j23527p3395J1936N9752N4306M7127O5052P6378N8808L9326M4854O2549O9724N8906J6714
94887B68429p1673j72976k10649j52771n5505J0597L7328N2103O0599N9224O8916J08251J53104J60828J18965M5307
94871D80077l5524r3115j01429p3817n3745m8502j7441M7105Q5786O1653K2062J3895p00o7916j38427j36970r6195
94854a53203j09684j67076j53216k5140J16648J65734J28382O6326L700n8522j01485j16195j24501j29312r2100l366
94838g53010P3440Q0725N0637N5621J04526J43572J41553J18304R3974O0170J0762l3108m3628j7290K1292M1881
94822A49421L8222L5438N5465P7147N5993j0836p0902q2989o5367n4268m5552j4093K8550L8288j658n7865q7978
94805a2984q0985n2359k0844R93Q820J1193K4894N4876Q1219P7875M9200L4718O0174R2228P2527R77n4887n5589
94787B92046n1344j03779j81256j95928j27798m0261K5580R2309J64124J84678J21598K9554k4168m6992p8995j09564
94771e0196j02243p0729n9452o3896l7539K5826P7920Q7945P5063O2199M6338K4436M727j7439n2968q0625o2031q830
94753b01494J3770k5327p4735o9828j3243M7459Q8955J17477J28909J10197P1990L9597J3771k4192o8796q8217p2130
94736e837m7711l6079k5328n361K001k1989n1205m7482k4185l1339p2479q3758k0588P3692J24731J26567J34575
94719a1775J69118J82984J39377P3834M5891N9299O5999L3229k6782q6782j33457j63258j69342j39803o6019L8993
94703A1506J27649J46693R7222M3710L6041M3109K221p9801j26026r4848l5895j7963m0811n1817k4847J4415L1497
94686H2055K0176k030j2431L076L6680N8068M2531J562k7293k3735p350j3119n0491q9803q8426l4704L0337M3532
94668c1365j6554j00036j33385r7505m4672l2321n3745n0020J2638R6931J38759J26716J12210J31904J46494Q9764
94652B95813k8538j12751r4346j9882J2229j8319l9319k314M6687M5944K0759M6268J20638J42812M1416j21064
94636C36033k14332j86538j01122l8011q129K0887N7656Q1334Q3398P8774P7014O9758N0314K3919n679l8465o0673
94619B26138m9416r341J7131j391m2054n9970n2661n8839r2877j16392q9400k2120M3390Q0749Q6421O0452J1375
94602f8805l0275l6095j6147k670N96J8430M8350M6754m452n1008k5546O1692J31490J31969Q7439M4488J0106l0641
94584C15675o4618n9758j9365J0878L183j3342K823M0205M5358l492o6036r2608p8455m7579j1007K6862M0479O666
94566C5869m5934n5830j0055L1777J5552l8442p1904o5632m5492k9790r482K3556O0102Q7332R7699Q6770O1737M6462
94548A74295N6778P5880P4071M5813P841k6506m7088l8948q331R37l8040p8141n3744J0498J7688n7141j16400p6685
94530g7223J1029M3941K0254K3692P5804R6951L2756n6575p6241j9672L5756L2351j1415m2288l6563j5462j2446
94513B4649l2656m2430l681P6291J38691J30533O5048R696J0488M2758M7666N338m8628p5937p6558o4875l3837K4442
94495A96998P6379O8870J609n9539o0884k3596l452j3731k3110j5406r558j7519k0351l696R717j0234n0083o0363
94477a7949k0730K3389Q724o6802j34218j29191n9796J3857M9677N1042L8320K5937K6196M2199N0296K1525k8152
94460a05676m2022L452N8147N7446J2n9477p6497m8604K652N1510P6600P3889N8030L9122J2795j3776j1813K7102
94442A02892O1334M4645j3547o5132q6332q9988q7520p6585o1609n3051m9055m3579m1267l6691m75P2771J23382
94425b99807Q8116o387o8013n4193n236L4619O0580O2530J3567o5386r6837m6205K4684M8755M6706P4755J22995
94408f4757J30512P8324P948m1052o2435o0619m0957j8904n896N408J5684J530m0872o2025j9111N0100P0945L8769
94390a7408J8953L9555N1865J7868k4995k4739L067k48n1732j06445j15385p5265j9658K1839M9586Q1505J16468
94373c5169J20917O6384k6326r9837j14988p5633p424N9982R2824P1122J7658j7763j4324J060m038l3953p9144
94356g8652j29178j57158j28113m8453K3102M3861M0214N8721Q8497P7645J7532l6082l3358J3286N4240N6748K2536
94339a14612k4315n2197m2375q902J4331J6002K1216N0706Q3391Q0476L7521j0862l5954m0827l6229j5475K7858
94322e0247P1772Q0498M7005Q31l0221m6677n7016n1954k0097K2252M2471L2118J3503K254j3228m3042o7650o0031
94304a27459k5735L349J5537L7746R6665J74497K17920J88366R3858k5246j27232j82965j79103j28848p4043n1987
94288i4680n3156l2434K6770Q3076R3741P8751Q9344J19418R8000r922j34634j71646j01632k657M8835M7748K6943
94271A11865j02l3562n3180l3705Q037J9406k0937o8089o2268J952P7935J23611J29913J02736N1294j261k7261k7514
94253B98870k9156l7205j7859M6308J10548J11421M3573l6691p5122o0361j5358J8317j055p2630j33702j24365o8511
94236d2978m2963o4245o4444J629Q3519J05342O1501r6m9069p5797n6818K1147J15147J58846J39196R7212O0443
94219D47572K2745j3337k8076k5345l2429m8016l9794j1431k0736r7355j80430j79397p8707M9002J21440J15135
94203H41O8402L7236M0741M0346j2894j06236j67381j49511q1209j2131N3115J30269J94016J90585J05285j9084
94187C12390j27040j83490j72092r9735o097O0446Q1821O9272L5187q052l6201l7979m2775q1400j24305j08212k8090
94170d96352M9320P6675P8490R1576J06240J00634Q7133Q2473O9881L5212N550K118j2058p6271j47369j41767n7054
94153a45569J7337J8708k3842n7319p2340p3831m4014K1650Q4899J15145J33647J62254J62730Q5804l5887j03832
94137B45540o7263K1642P0929L3576o9078j68283j86578r6234M2339J25810J05480K2228n5246r4771r6986o7852
94121b34747k0681K0453M5503O9151R6587J00226N7508m689l4347j6280J5547K1712r642o4973j12563j13125n6631
94104b40991P853J2274m8522j04009r3388l5392J1330L0206M8536O9387N3519j3678p6960o7700J3148J03005J58047
94087a73335J84961J90230J46776M2781o7457j06540o2127K754K6504L343l9793q1250j04151r1181m4850O333L9735
94070a27267N6327N2668Q339o8040j10661o3315L6032Q6481M4813k7372m8756j2113K7642K8709k794l7597n6206
94053b13110n7931n0180l2419L790M9297O3586J4947o5168j02514o8446j6585r566l7824m2762q29N3206Q0635Q0846
94035c51027P3636O6495N1503K1007k1701o0324p3113m9947k145M7945Q1150Q3889N3388J1456n784Q983J8321q680
94017e4948m6059m4998o194K3234K2371J8558K7008J9270j8922m1106K637Q5141J28026J02719O1228N9391Q6572
94000D23928Q7961L0574p0444j70286k19528j88786r7143j2366M315l7083o3154k1722N4958Q9565N4437J272r749
93983a43251J6612L1544J9359J6264M8080Q6071Q8923O4815N8255Q3560J06085R3617N4079P655m9384j24551j89390
93966B68343j95991j36184n6097r68L2160P1066J16019J34388J01888L0432m2901p9929o1338n775L1198L899o7534
93949A42676j09222p4946J683M8458K9061l7098j04508j27661q2508J335M5754N488o1201n1867M4548J24040J01342
93932a04626J7542k5224K289M1849M7821M1466N7578Q4568Q2698L7833k4404o7641p5705o0914m7066m0828k5070R123
93914d8711L3219O470o8467j35416j36925o5293L6719J09960J18128P7042M5812O3598R4315O7220k0426q3605n7239
93897C6401J5129M1787N736k5627o245K8883K5396j3035l9876l3956j9640k4935m4508m9608k3158K0914N1846N5083
93879E87M8833O2134R7570J23854J07339M4806l5271r7372j25258j31173j37983j46286j26460n7366L1832P8675
93863b61539N0640k2124p8767p9620l0859K0400J7821m7310j06030p3867M1846J33179J15693K7373l1113k3004O180
93846c41101J5001J0449P397K427K585K9811P3467Q1492K9210l6768n5917k8565n9O686L821l521l0488p9311j21446
93827d34830j23483p9315j4595L4799N5327P1571J14675J68874J75911J10683K3301k4442l6329n2224o4575k6904
93811a01556N4185J01660O9372Q951n083J8677P011o8047j46218j52775q1364J2314P7804J07797J14083R2011L1411
93794A40233m1163o3159n349P3546P8323r598j01184r9843j0958P1354P3245R684n3978p9782p8318o7085m0558M014
93776b00576L6929K8956O085K2409O7974O3809j3458o5869p157Q6902O9260n1838j06215j4108Q4240L3714j05040
93759f3983j49322n5496M8459P0106N5917O7544P7159M3743M486J5846N6629O0752J8260j8682k0014j5815m3253
93742A52336q8122r4392k7030P6486J25274O4196n8515j38148j27704p2229k6883J0844O3286J11583J15704P2457
93726A59143J3771l9200q4900j14473j12559q5249n8327m3078k4542J1010N1282O7055M3493L358o443L2945P7281
93709a09433O4718J491l4534N241P3556R4136O1562K9098J9254J532m3819r0385j04630q2518l4899L1006R8640
93692a9984J34273J11679L7872m9982j07288j10073p6590n2872n9559o5426l4965J6829M9742N8727O3355N1566m872
93675e7568p5663p9023J1114J18304J55302J17743N5295k108m5771n7560l2248o350j4904l7795l4759j4411j7254
93658a7656m3867n4826l6464j2357J0646N1885J04166J26031J03619P1641N3475K8555j6296n2276n9475o6547r5522
93641I4732j07392n9757Q696J8919k9618m9290R496Q1389P2915j2137q1243p2976k3099l006k5879l9350M5P1701
93623a45854J17713J09043P0304M4291M6128N2869K8353m0360j20727j53131j08031k3024L5542M5214L6907L3411
93607B8648J6141l1834q4472j01021p2748k0335L0116M8290J1865n0243o1832J0410J01671J33379J19875J25333
93591B03243J41500R6678j4337j01458j05016o8787n0944l7896K610M7963O1470N6749O0609N5110J9533q966J3436
93574C71497N3820M1830k5942q8909j14432j16655r5056l2727L9364N2298n329o1238n1073J0968O7356P6871K9152
93557A51795n1103j04260q9204m3508l7143o5161n6054M974M7824M1427N2130J20937J68393J06475j6796q1238o4884
93540H4604n0420p7228q8907m2754J5030K0393k0457n2865m7036j5889J8124M6592P3063R9750J13324Q8430J8559
93523A82313o1979j03597q6295k7973M0937R4950J17329J06813P6397L7134l941k7528j4477J4183R731k9287m1210
93506B83500L471M1196N282o6208q3525l6651M963P863O287K0464K6922K2174L6279O0971L9467l9929j06583j01123
93488A24820m8756k908K8099N6650O8976M8329N729m7672j13094j54169r5538O8663K13740K07414O9696n8296q9047
93471B82636o2694n0776n8360m5715J90M8255O0139K7853k0825n4099p2917r9231j24979j08278m0179K5239M4540
93454b49201N1618R8920J59044J50807N8431l8227o5109l5406j0316j8264l8089l8369j1904J8533K0407j4049n4149
93437a5323o0786k2732M5025J18217J61110J37435N8883k829K127K8153k557p8953j13752p9747n5125j01590j65012
93420a47456j51671o0872J8491K6275q172k5986j7260j8074m4298n3556Q601J25681K02745J67776N9554k3811m7561
93403A0406n7907q2095q0817k3970M8738Q4336Q5980Q1040O2882J8222k1199j5450J4695J5620j4391k9357k0245
93386G6488k9802p1808r8203p3919l3908l0286o0067q1549p3228l9888J4617P8659J13819R1253M3905L7812Q3540
93369e2565J17283Q7227K0890k2906l8093o3296j03436j11724o2274J587J9849q963l5205k4071J6828O4096R7573
93352i7200R6496N4754P165M540M6582P1111L3164l1235m9264j723O0961Q2317M9419j4329p2665q9282m8270K2738
93334A25279O7352N3783O807k0639j792M1956O7890N7741L6902M1680O5481N6609j2112q9287r5230k3531M5889M5280
93316D70058o146m6413n4547n4591n8771n1176k4821L144J9370K8174L0794J7486j0957l7561n2929o0531n2491j2442
93298D5650M4084O9097M7387K6630M6029O8199L4187l5692o0382j4920L6769L9503J4457J344q466l6758o1255m6736
93280B09127o306J7362J3183K227j483J2250O5579J50691J95386J38462K8481k7260j2214j5323p8824j22416o8286
93263E00636L5345Q5611O5400L5629K5272J3178K078K4238O5242N6553l0873j39802j97549j87466j27563k7585R4352
93246B92696J87930K10244J78386J50850J62398J97088K14075J79717Q7753k7499j06248j16158q6886p1689q0582
93231A372075p6296l5184J5759L2442N180l3873m1651L599Q4480J48541J45810P6668p980o4740r8794j28453j30057
93214A267526o0349O2917J45275J09330j4229j15679j17794l7635N2820R8226Q7768L8172k9801j00362j60921k00788
93198A024476k15959k09851j78932j04269J8608J39755J81866J31093O9192P8561J40348J72627J48519J13360Q8826
93183A598220L4562o9966j69813k03336j80449j48104j17167p3392k9794j1855p713J4670N1495P3610Q4267J12925
93167I58160J50475J43639O7688l6435j12291j41606j36985j15283r1525o9819l0940L8721R7126O7736o3945k07214
93151E17502k50926j73957m9677L8095N7098K3860k3784m9139l6406r48K3625J2598l0054p2065p8222m6052r143Q122
93133a39473K2690N2935O5638J3382p5211j02177k2413Q9122J28357Q3593K7198J5821M1490O2357M2793k2601r1933
93116A91568j01799m4053P541j0143n5826l9195M6305J13216J02350M5513r113o4453j30961j72607j48164p4232k641
93099c46694M2005O4192O1735L3041N034Q879L2396L5565J1725l483J3927M8350P6154R2489R6962Q1890M8028R494
93081D11689k6032n9190p6289n7633k2031k5845q9655j55867j55476r5006l5853k941L5641R7658J45234J32324N9634
93064H0362l3655j03190j12563n1385L5226O9448K6431k6696r211P8538J71573K23099K24366J65856M4521q9597
93048F93123j58373j47210j20966j27110j35312j06032o8259p6850j24289j51333j31004q9794n0505n367M6198P7058
93032f76025O7775L3597J531j5667j1428K2220P5597J14182J10779P4244L1773m497l4394m3017l835Q2494J67230
93015g441J87700J26067L0281k6245o026O8509J43208J75966J56402R6392J0495r3190k00445k69910k44368j09444
92999C7951O3351J64574J48680O4167k2550r4372j55175j80137j43492p3445k7268j7057m840L1107P0685R5050
92983d2771J07627J01252N2177l0108q7459p8284l0099K113P198J7872N6532J10024J48759J47152R3208N47r0822
92966D84918j41233j39945j04880o4827m4716m9539n2322j5450O3070J38224J62859J30834P1603K1907O876K2571
92950D89950K9689o017o0409p6507n2963n4170j05766j39452r1842p698K1677j3143m6603m7825m1263k9115J7281
92933b14176P8550Q5780K6559k0948K655N7155P1585L8397m463l5291m6324k5562J0097M844o1274j24849j18481
92916b75746n9732m294M6667J16958J67514J33444M1645m988K4273M6244K307m6890j9952N8918J00410P4054K3090
92899D23922j8572n6308q9625r8764q4957p7657q7905q8780n6037k485M0080N3674M1130J9378J2803L5073O8937
92882C3907P8917N0369J895m3563p8128r1016n8534K1372R8425J07716M3938k6549m1429j2840l257m1578q9454r4548
92864a44357n3254o176J1107o672m4700p7532p4586k6859K7817L4927j0696n3911m5778N008O0140R7620J06163P1020
92846a30719Q176j5145M8432J43497J59138O5830m9169r6098p5244l1151K3352Q7157J21576Q8914K2111o662J5055
92829C79050K6875j3834p8913j20971j32808j32563j24226r9866n9752r925M3645Q5254R3426O6510K4575k0996p1412
92812a45931j05725q3920j0315M5636L1640j4440j9370K1976N2120M5331L4194L9488L5862P493j4237J930M1885
92795c6383P6143R7918J01804O5177o586m9874j3309N8193O7128r723r2117j05364o9201n2424p6977j03776r5926
92778b45297o1152l2131k6693l2820k3496J5474O8409J01543R3966N4872J2522p588L187L2070N2466M6050J9624o329
92760F4677k1153k3556m332M7258J15898J59890J48118Q5286Q42o7120p9881k6582M1902M4632l6196j22867j34943
92743A91873q7361n5237o4400p1593m4852j893M1806J02482J75842K05728J50894N2951r461j8015k2113n7547j03138
92726C85966j21846j04285n8799O009O7483Q5178M0828k9730p0370o7052n4609o0323o2809k1089O4459J36457J32595
92709B68063N0238m6759q9471p0656m5465o5045j16865j38949r1010j015O4445O8774L4535O810K537M613m988k3510
92691a93718l7603l7943j8071K4666P3981R3373O0783K053l0054j5085J2032L999m5542r8734j09846n5742N1182
92674c20269J58062J91140J14742j8893j02870p7117J4746Q1203P8128K9600k6667p6197j08927j03446n3924Q085
92658b12604M3349M6338L8557L2827K7057K5216L7256N7750O8238O3636N4909M3420J8304j4033k5652p886O961j6036
92640B87607p1559j26001j52033j32712n7576N1951J31366J28621O6172J0716j4572m3961r2870j20914r5187m4529
92624b75481j1721J4759P1986J42953J60449R5947N30n9394p3897p5613q1044p6984n4954k7745o377J7217N0493
92607a88876P5478O2712J1154m1604n7912l7342l393L3686P5998J05941R2169M1088O939K1403M1950J2573m2974
92590B08990m5097K2675P8289M9936l0015p9956p8986o8803o9563n8271l1959l0146o8722r6799n5946M2725J32462
92573a79186J62989J29233M8287m9994j13598r4500k605R1002J21384Q5622K4249k8188n5017m1673J7091R2307
92557B07403J28488R0270l774r6159j33667j00303k3626M4857O5868L9791j250k8816m1555n4074p1521q1230o7421
92540a26719l2506m559j7463p3358j28171j30840q0176k5151m97J6868O7486J41686J82275J52734P4696o498o4934
92523e5127r1288p7989l5607o017k3411o2639n7392K0355J21228J71724J49986R4781N3125L7085K5248j0566p7891
92506A75605j47895j68643j10912n589P7225R2579N5736J1055j9250m4320p3254r2947q1969l9190P497K3223j60
92489c41209l2487l3011P090N4190O7086L7703n827l0331k7016j5224k2182n4766q7984q7643m7547L799L5602M1211
92471e38546K9322J0628N594L9152R9694J24462O7470k5506n7107r40O2886N5240l407l7370k3751o178j5472k8955
92453b42784j6609J1398K2908R669j561K1703Q1088J36864J41570R1938L2824m552m5194j20839j98907k09895j42453
92436d32832n7851J191N9137J36335J84326J47629N8220M330J2635K1297k0447p9920r4333n6116q885J7379K7050
92419h0855K3160q332o6338j13310j06638m1387N2434J43879K11972K30904J79448Q0685M229j825L2044L9085N774
92402E84929k1016j4470l429r594l721L2446M3719l4588j67901k45461k16478j41837r4288o9328l1148O155Q40l8923
92384d24093n7544k8023J9686M8325N2452M2807K8569K5971N0018Q1167P3227J9194j9262J6245R5348J26243O8091
92367B18421k0842n8266k9954J2767K4414O981j0724j1272m299j5016n3492r0220p9787k4625R020k6790q1354n8776
92349b93814M8705J40704J41810R2919O8213O0121J7500m1128m5636m94K861p1319j31713q6240K1768P3861L7288
92332C5406q859K196M3927N2509J1880m1142o5165m6059O8L9516M8577L7836L9317O5743R3768Q9676M0274m1929
92314C97539j30058j95135k17165j89889j16014p903J00416J58273J36695N9016j9256n5884m0060J5684Q0487J15453
92298I2199J03308O1336J1540m0982q0444o6629P343P1423N2068k3936o1405k5666K9300O0468Q1249R1102M9993
92281D12267l4920p9945m1357J0907M486j9360J3001O8741N6832j9244o8802o0911n3058o9750o5142l0154k8313
92264d722q1352j16080q1106k9434j9209j3093M1261R7865P7270K104l2463k023K9449K8276L2250O0976P2233L8782
92246A00984K71K019L4157O4716Q6735R8784Q1055K9611j7677k6155r614J563J0121L3108N6660N1340J9329j2701
92228F04306l8270o8223q7597o0306J1469O8680N6702j5985r6342j44101j51402j21397n6865K5125Q6510R4031N5161
92211A61496J9957L4585Q8349J17103P1150k4732r1950p8279o604N3771M9436k1762j14128j62534j28148l6198M0554
92194b7934N1749J5165j9573l5418m8968n9203l6848K5497Q8310J11342R8911P6692M9147J1628j5049l489L2022
92177C13981M5474K0948j0851k4665l1916m4600m4760j8224P460o465n2856q2152o1231q885K5809Q245n1374j01282
92159a17344r4073m1880p218k0289k9429L1663J43228K10986J79292R0528J9891j0781l2083p0045j19912j60453
92143b7919j65689j10175Q001J43088K20358J95375R4442r089n9023n4741l0391j1331k961r115l2062n1032l3018
92126F4718J7785M9886K9351r732j1515K5426N4509M5596J986o8195j44048j66887q9580M1535J18127J01386O1085
92109A21433O1108P5221N6871K4151J2482l252o1557j22984j09184k3003M6690M4428O670r506L699K3175L1258J2542
92091A90242m2585j11151j50936j54485j50572j41236q8331J3163J00920J23850J11648J17185J24756P7693j8911
92076A250r0614r7244q4755j05267j30878r4034M858Q1213O8668J958k8962J1507P4079R8690P9989M3949n443p9913
92058b50949j61982k03783j72971p6057N9598J96790K82283K69147J66118M3078l1948m9603m3306l4528j3625K9451
92042G713P2251P0225P896o6410q2010l2941O733j9567p1730p6142l8617k7773n8711p2977m3046j3468j0473N254
92024d43793M8538N4986j1655o6663j2579J04288J48549Q7199K2595L0656O4942M9559j4553p7264j12716j23196
92008b51107j11839q4248m5762J7832J15487J98103J90254R8411K4509L3291O6282L9400k8193n0712m512N3160P7400
91991C37756P7620O6461K7158n2712j50834k21917k21039j32358o198N7713J4566n4563l4167P2066J44750J07743
91975C2045J1736n9580r3726j18106j23176p6779J0868Q4417R7216M6187k6256m9533J9807J33926J81776J13806K704
91958A87332n4248m9909l7878l4601j8183O791J9525L9254R0938J25310O5365n7984j12343l9436O2175P8825K9139
91941C00072O480L8671Q1365J05561J11249Q1745L171q2628j13771r0077n8046k6819K9443Q8833Q1198r697j08268
91924D38482j36750r1394j2413O3206R4257M2472o9845j53606j46925q3009l1473r409J0888M0738O7012Q2645Q6810
91907A91686P4146N4060N3699O8411M1899n9462j77560k15572j44430j8326R1692J36907R6439N206m5048j743O1772
91890B13776K7837r8385j82196j35452k2865L9495K3441j8730m4710m8137k7768J4443N6313P1901N6667K0176k4089
91873g8283m8998l0211O871j40n8704q7346k0130R3550J51456J33032J06734J16057J24945Q1429j8777j40340k32899
91856I8246k42714j50921j3919P9131J03078J08379J26752J22694O7911Q928R101N4464O8724R193r2145j73444
91840A83458j94305j51294p6815k0397m840n006J0802L4399L9647K9729K2263M486m2955q4120n5029L3993R0200
91823a85784O6233L3512P3044J43288J33400K4931q2744j12881r9423j06860j28250j12316n0890J3907M9536N5019
91807b86278L6936P294k074L1522P5254O6172m995p3651q3439n3476l6979m4871n0168m7223n4326n8014j0803Q9505
91789d99614J62079J30565K8419l2260M190P7968R8878M6739l3368r3544j05472n5418L3604R2924P3309J3467m825
91772f2359L3091O3490M6831J8011J1938J703m5999j02179j14324q1159l8992m85M2125P4958P7580O5082O3112N5497
91754A07921J3739l2288k0496M1865O9136J0121q4592j32629j10184m7259K2434P3702Q5365N7857J9107m417n011
91737F4371J9757O3766R0504N8021k0997q7520j16474j35136j44197r1416L1052J28703J13852L0474m442M1277R1043
91720A32638Q2696M1442K1326L4437N5776N5411J4309n4254r3651n5689K7701O6520K2067m3586m8425J1166O9603
91703C39487P7799M8631K1907J0685k644k4058k6044J1198N1766L9637j2144j8866O0489J52773J61486Q8584P960
91686I88646m8953j04634j46710j15827l655J04984J22502M8616n1657j18208j24638q1601l8457m6179r4702j18923
91670A70604q4830l1688p028j591J7686M4372M3787J0982j6643r60N7486J13406J08539L0617o0054r3139p3849o2188
91652A65509o8965l8269M7188J16512J12159P8158Q5629J20469J17578P1194L1268Q267l6176j02667j34890j05947
91636D67017o1585m8931m8937j2260O6488J37786J46765Q2283r881o0899m2536N469K7514J7508N621r01j8871l9240
91618F12410k7752J8243N9381O9353N5618J8292n6293j41357j67122j09275l1729J491J2099N2655J06736J15088
91602E87838Q0362O5849Q6095P7658Q008n4325l0717N0708R0802N1510r482l4536l5897m9301o8149o4074m3896l9830
91584F68623n1867m3181J104M6387N5191L5355K2965L5684O2271Q5002R2594P9064M8868K0765J2250K0837K9173
91567A221085K4869Q930p441p371J8569N3444O1635L0071j0876k5147j7541k0533m3675o2020n3004k0934J7370M9658
91549A217089O5539N4310J4489m0890q7949r6823m7212M3049J16063J24713Q0606L0686l523l4585o6895q5393q7865
91532A195409q7573p5251k1962O0125J00427M6839o5413j52161j67740j27485o6515j3384P497j3255n2194o9061
91516D98303m2702K0381R9168J59028J58456R1569J6703K763M4216O8435L7379Q63K4561R7844J47653J25643M7760
91499A598023m1998j10581j38231j17918o8616k7676j3530j0360k884p422m3943q8954r1061m0326R551R936j3417
91482H00593Q330R2361J73555J77645J00219j760p5669j07242j02526o8337j7463K9082N9684Q2043J04666J17073
91466A372254J01567O0168J5475j4727k8327k1612J7601Q2378J27680J09767M7494J5916O3232J53882K12140K03053
91450B517941J45300O3226l0426j03788j06360k7651P2339J20917J05323O3591K2646j8293n2022n5463k8575p156
91434B681549j8041m6189o5633p9704j04321j29451j31272j15768j14074j29370j22850p0053m803J8578q641m8858
91418A511099p6097j02910j41160j62252j21168j7273Q6355J13999M6673o1661j34305j33107p2324J1764Q8163
91403H35796J34915J41897J20912R6904P8061M9249M918l2207m3359m4157n6464o6066m1202J4858O3706Q2571Q5010
91386A425342R1464J06414J20070J04766K4627j08400k02811j73530n9120J5772M539j3960K4441P4857Q2684Q5589
91370A602744J30155J60869J01931J970k3517K9268N6245K5103K0302Q2465J29354R2720K5529N67n733m2234p0478
91353B317260k1741Q1151J55076J79706J98716K17437J91539J17827N3331L0050J8495p363k8715k4929o159J6933
91337C488614M9115P5846N8390q626p2054q3483o1163n9972r7934j38922j40148j00026o1740p2005j28023j71260
91321B476609j51570q9661n0066o0636r5209j31616j77400k25836k36868j91410j26939q6747o4726l3386L027K1933
91305G79499K4653K3329N627l9020o8648j8857J06642K17041K23145J22233q802p9073m6091N0043J11403P9960J3760
91288A496844J7547R0104J07769n883j62434k23672j79487j24923r4734l0558Q2265J56895J30591O1351L4714L9376
91272A395765R743n4348r1080p3625k7179L4602J12690J67729J42819N4686q491j431K8693K9241J2792O185q324
91255A730467m9233p8671m6564L3646J02223J28336J26545J13172Q6019M1792j2259n6708n9374l812O6274P3980
91239B195833J3080k0493M8351J57488J80017R1108r468l7759j7846j8361n6045r2735r3154n9696k7494l4875q3060
91222B134891j27301j27699r8872q2944q8350r2216r0135r8107j11454j09729j00653j10308j28776j17188p4281
91207E76878m3038m1553m1100k6180j9744k8554k0554J3867L0090n627o1922q7258p1599l5048M011K1203p070n5838
91189A00964n8377N68M8387K7985j3257L402P0124J15192J08398P1375J1580p1841j30822j04117j6774L3266M333
91172B00386m0807l5123R371M5556N9305N8673M4044K6705L7320P9480J10073J02255R3415J26706J71576J53996
91156A242931N7411n1245r8595p3315j4054L7413N6855L6594j1804n8601p6364o4742m8963m8810n3590l7735j194
91139G92192K1767N500k8499l5983o838K5744L4699L3838N1531Q5688J00860O6125j2605r6802j49179j64339j63296
91122E60403j57257j29887o6858J0896O5584Q7143R2940Q4217L6626n0692j23807j21378m7921K2741K2883m1300
91106B44333j03809j14434q8171p4459r0477j05533q8879m4552J0502P0731J21589J27066P6816K3461K3731N4152
91090D2067M2454j5742l6660L0917J23008J41943P8736L303l8124n6401o0891l0181M1866J15062J44551J28033Q9049
91073G42990L5618l4719r9046j12721n8944K5470Q6376J00252P3705J4090p0564j47368j68290j16949k5417O2362
91057C06845J18982J21572N5541m2492q7160l5751M9768Q0397N4325L4383L2980p6p1325j11319q1860m3661o6029
91040C15120j21588j28022o0587L0986R5437J20288J12475Q2293M3999O198l0490n2491l6014R286L4591K0624J4299
91023D56404N4141R4723O2110l7269j21719j37201j00484m7169O357M6669O0923O1129P1435Q5787P3421K6645l1465
91006F24437q1977j16071j17424q3160m9638m5145l1681L8722J18323J00238k3887j29856j22016n0777j8318l6523
90990b4753m6523k8761j7241k9475m8659o2974o9233n0210R54M4351L2576j6055l0339K2871R7590J26185R0786L2153
90972B3243O824L7240R3326J28649J35494J38620J30906O7179m5402j06730m0629P8744R6517l0517j83008k29776
90956C00680j62079n7457K3820O4598O1536K3642j7494l3921l0149k4815j9489q519k743j4027k5039n672L8094N9341
90938A70307K7943k5179m3961k2177j4581n9841j18148j19575o2928j9595l1054n3742l4471O979J8789N684J4986
90921c60564M9830O0260K3337k3452l8327j6581L2364R8100J44814J26685N4162L41J0548M3851L7167p303l6498
90904A98734k1431K0870O1463P9181O0231J2962k4634k2500N08j297l9850p6430o5787m180O3579P7573J5452p6579
90886B57865j18579p7255m50M0984L1596J5669L5325Q3203J13644R0517K6160k7050l2705j1602q151k5861l1623
90869C61687k1577l4036q2092j22220j18453r5327r1726r9237q6025n0509j0976K7503N3770L3118l6161p7399j3871
90852d63531J17416J93332J47451L2480n8949q0778l7636L8664R8941J07489P9199N2736K7899k3016q2678r1782
90836E7237m1264L350M61p415K2054M3496j1220j12516j52568q3948K2091O9419M1606r820m3578n6657m9276p412
90818c15960O0529R7911N1455m9913j07267o3479K8802P9869P1651M9645L3900L235l6226l6346J9957Q6411J17796
90801I1970J17731R9761N5747k876k5934N949L6339J0872l6813l7786J862J3713k1568m9088l4738j7360l7447o6685
90783A03649n0938P155N2680N4510L7303L1553K3561k0309r1085j30399r7635k0898M0816O7124P5979P1024M1131
90766A95221J3784M6873J38337J96843J48029L3519m4035m5664j4418O137R621q090n7236j16600j38950j12251p6699
90749A74421o4570n8215k6638K5660O7307P7298N7696K6278R043K3878N9187P9614O1288J4170l0241m3004j5587
90732D37585K8237M1904j596p5470j23079j14399o5754j4597M478k7289r1739j32215j07198m4267p526j1672n355
90715c09952N3348J38832J86715J56168O0176l9588o8583l210R6796J47401J27056P2792Q660o3125j08153p7664j419
90698C76250J5383o9302j64371j64802q1987L106O0020J06840J30604R7526K7243k2070l8762n8809q5547q0479m0205
90681A0638j1879j5262j3026J9199N1414N4092M1523L1413R789l1796o7330p6101p0502n5497q446O3486R7373N8850
90663H7938Q685K1506P2546P9412L4363R128K8463K9348k5570p3688m4001L3006O8785L7198r267k7535k9202l6600
90645B64515m3889l6874j6610J3188N5708J00357J12954O8307j5349r0240j25366j29234j26193j17719p7207P260
90629a56392R0979J01838K9830l8461j4523P2755J01919J3588j08624j40479o0661M7636J07337J08196P3284K4656
90613B52878r338j599L6553N5453K1606m9332j19708j59911j45857o9465K7448P1411M1967J818L221L414o5182
90596a04623j64537j72666m8370R9212J44086R1146L8717L4030L5261P463j5986N067M2210K9605m4227j13760j10152
90579b47524l3556N7820J12326J21021R9354O0199J5621j5348k5191l7040p7298j25327j20681l7578P3144J41722
90563c8336J57671J56462J45898R6352P175o9745r5419r0759q9242q2384n1828j9735j2585J240P0964J65451J86387
90546D37567R7032k3730q4714q4230o9616m7197P486P7991J09189P9161K3601j3614k1559j6981k7167p0890j26700
90529B45629j31621m7997P5605J46851J27014N2043k7718q0104p6531j1476N5383M2515m3843j00318n5744M3083
90513B12771J07882J16761J01467P6750M0109P718p840l2505q9095j41593j37303q8177n1577m1708k4230L424m237
90496D8617n9822j05463q5738j7233M1081N4824L0517n259k1898k956L5854O4785P8878R2194R6390O7120J6851p681
90478C21061M365J1723k760L398N3343R0880N5409k2836o4657n1508k9138k1526j1780k762k3468o3463o7639k0701
90460A57941J9064M83n2601q5449q1684n3474m134N3397P2514K2954m8286n8763M858O7666O1050J036m2292k7395
90442F885K3524N6422L9218r131l9033k5384M468J2082N131K2059O0647O3456l385q8709j09799n4171P740J1514
90424a6466l0962n8692l3354L1491R3533J13146P3669l899o5667o6667j7111K7451L0034R788L712J0957J799k8686
90406G4076n0532m5529k9941j7537Q082O1313J20805J56659J71197J80662J73257J24202M4193k6714p0730r8457
90390G75006j05596p1473j0817K0760m659n1309p3055o3834l3013K2759Q7454J10763P5379M3248P5268J30108J09949
90373A036938l783j28386j93073k03477j80272j09027P395J03922J17474O6620J7294j2194o1440j46971k17951
90358I3069k10951j25418k5866K4172J8799K19J742J3450R375p667r524J5043M6769O7065P8209Q3747P1939L6505
90340A80677J511O323O2159J28273J39219P0001k3838n5274r113L4736J0621l6531j9052N4106Q2001J7540o9104
90323E74255r5065o0794q004M6696Q4743N6726m8237j46811j49790q1573m1720o4761r0165o6479j3977K5555L9126
90306d0275K5639j6430o0213n4025J5667R3206J10203N4367l1803r8860j21580j02132o2088k5921l827Q300J7302
90289b92470K8523M2773M6211J8713l0716n5994k6642K8580N9779O0377N9129O4526N9631M2473K6703N977l7504
90272A00069q8930j09009q7824m8762j233O0556J10198R9801L4843j5258n112L4163N3433N0110M6838M8678N2002
90255C34563N8992N6650K0557l4985n6311l1262j9678o0364r9985p4244j4728J843j7287Q321R2821J43124Q7729
90238C95756k0048p3648m7001p638j4155m5896m2317J2670O5389N5093p373m4484o898N7948O1878q203o9676m9737
90220B11660K3611O3003L2641j9228l7125k9929m3825q7236j19660j13764q9257o6945k5227N8729J46053J66259
90204F9760J11245N0812M0808N9848N9572L4798P840k2698o9292j08134r4400k8897K8072K2199l7802r8225j18166
90187i2660r9299o9346m8623l4572j4936J2971M3753P5208J00129R3062L3775n1319j00796q4031l0128J9846N7034
90170a89932Q2370P7238L3367j1684j0270L3373P0429P0363M6377K3047P667n915k6334n5835p6920n7481J1689R5295
90152A16844J48349J59380J40133R4736L0623j8527k2094J621O117k0342m8441o0321o6689o7777m0839J6275O2460
90135D31508N6594M413n2322p7139o0056j5778K6894M5334L9690K1584q349n1642q3358o2622J2859Q1513O8984l3754
90117C44353j50006j80863r6971L1730J08121J08249Q7655Q7006P4949J2880o5706r4572p2300o0294q6303j08187
90101f0259q5452l6420m290o750l9283r0415j28162j04421o745J09821J69164J47306Q7837N3420O8418R9210Q9170
90084B62149K3984m4332n7267k2980Q62r736j8871R004O3385J13592J43086J43157J06719M6163j0679n4722r6294
90067E97220j25291j12429o5286l7250n4058p3039m7628N789M2163N3467N7144M8791J5835j9795k1347Q373L3126
90050C05785L6542L1140K2341N819j948K4189O6421O5174p018r8889j30375p7960M196M2209J3628l5317l9991J3616
90032B39562P3502P9956L3097q040O596N9914Q4378L9849l2032n0320K054M7143J1669p1382j12025r6576r8469
90015B08876j47208j69200j02850l106L4891P878j4623r427j6537m6605n4238j8335J9152K2121J6563M6287J07745
89998a18616J57110J58145J03273J0701p8929j19799r3471k0425O0701J14420J19547Q5894N5990O0225P1058L5428
89982F01252m4610j01421q3770j5658M1417N3947K8284j1303l4691k2377P320J0519k1725m1194q879M0329L7693
89965D35133k5284q2187p3854j2826M3857N9115L6133n434m6335o3699l7384K2705O7704N0739k0566q9572j12905
89948A45340r8208p3177m4940j2700M343j0161k9094n756N7368R9909P5949P099m9085n8376k3816L4714R3773J31893
89930B45075J38748J16358P1929K1611n520O378K9648K0106j9851l9087j0972K6558K4043j9088p0885j11814j34267
89913B88970j27540r9568q8873j14210j31541q5845O560P4802Q7904Q3407R6414J08834Q9482M7451J7978J5081J9145
89896B88451O74n1789j12862j27987o5181L4311Q6473N9750J1405R760M9314P2069M9775P683k1780l0012j8092J1548
89878B53510L9667L5594o584n6559q5038r4421r8584r0769n4242L341M9378O1763M8893L1647K0149J4737J6852K6886
89860A16220L7164L8987L4676L1000K1296r147n1164o2221j1388P1427J17939R9450N6547L7524L6097J9534m935J768
89842E80774M0697O2942M0174J088k5978o1107j23353j70357j43576n6844J7140M4208N4964O8799N5634J158m4714
89825C41649l0895J7479L4031N008k0753j1625L180j7055o3585q9271o8790k8993j6219m2608p6396q6260p5297n4049
89807b80449l761R0376J77797J74168P3213k8923n5530m2148n7202q0327l7571O6473J38984J27229Q0217O0940O3677
89790D67163N2186K5346K190j9536m8026o8650o8811o9426r4936j27562j24862p3417L55O0324P8563M1830k7184
89773E547o6606k9130O0854J30674J38304J01867N4254N034m0220n5861k1629L8907P3114N5629J1661k1527l6728
89756D04144m4946l9191k704M7415O2908K8110j2722k0168j9228m9950q4074n4952L0569P7050K0605q8550j54660
89739I9656j43675q7185k0460L5462N5385K5525k5836m8204j9950L8279Q8800R7809N3299j0462k7621K5971Q9927
89722B26720Q5100R761o5882r0389p6604o2002o4708q2376r9836r2082m9329l144Q75l9136p6718p2096k6245L7851
89704e40240R5492J19119R1856L3829j1545k6156k7285k5821p354L4151P6244R9308J11414J23105J20716Q6414K8976
89687C82223k2930m6736l5926j601K6002J7894j9075m7586n0515n0115n9614m7815J2212P9281P6842n778q5510q1584
89669C9669j4610K3094r424m6249n020R1660J30961N2545o7757j07186l7098O6519J29821J43110J23014P6181J9911
89652F09141j1621j1945j7784n2970q8461q5055m6019o8L6234M7259L986r2997j78099j78457j00541j8807J4733R675
89634a61796n181j4137m05N1531J20256J50350J13539M2764j1655l6883n2021p0014q5639q6802o1602q596M5596
89617g0695N7349J6291k8897k0432L8652Q8796Q6004M3812J57k7334l5799j3778M2337R7262J00942N3055J0466J1471
89599D49659K3479k950n4168p4296n3557l8304m5689l0159L1803P6204K7424q6559j54223j13117j4222N1179M7318
89582C9822N455k4188j2920L0130O4648N6536J7950n314P990K8328J6716k5735o1813n9239j8857K6301L3482j4380
89564A04912q6121j25023j00868l2239M1551R3988J14574J01465O5653K9697R014J273O92J1525L8539P4289J05044
89547D47965J22026J20677R8444O1587K7005Q480K180j2293n5711j25132j79958j68933r1128j5351p845m8526n7363
89530A26124l376N7618O4911K5916j5655m0853n0979l9226p972J3369R532J3368N3367R1143O7738l83l3816j472
89512C29354M0218L3880p111l7326m2555l2959j1025J7068K4457n069m3256m4806n40N5725Q1059N0299k8700j04851
89494B73862j11355l3215O7109J17873J15461J04859J03956R1154N9152L0893J4493j2640n7781q9979q7562p6695
89478E09585r1325j16526j05826m5967K4920O1561N2317J8761m985N736M4341P1992N5910J0026j9471r493J9214
89461D80770L9391N0376O1123O1554L2682k4353q6924j31537j41136j04068l1214K9312K5409l7933r0914p0556Q978
89444G0960P2117O2497m876o8365q2593n3396j8758l173M734K7741O1390P5391N6796L3238L6948N6515M7270p976
89426C66460o6829o7230N742R9474J40628J03213L0831j2818j3714j3647m2518p0512n4226j2063r668o6184j19151
89409A97788j05719m4362j564P08K783L8747Q9745J14280R6946N4797J5065l132j366m829l5585p4521p1658j1495
89391B56628N1108M7611j9205p5652o6994k1692j0654n7599j11180j05791l3977M9202Q5409O5464K4550q85j293
89374G5050J3722L3635N1054N8835N4471M2829K6069k992m4318p1964n3028O568N3366M1682j0963m4407l0988p364
89356A91257k1618o8565r8604q1224l3902J3501N5342R5346J17098R8745N1184J0479j3940n1994j13545j44057q0803
89339g5300N1407J44729J27705M9677J6823O3108J22054J23302P6551M1205M0837M0629M900n1534q2213o6478l1695
89322E95707j7386l0147m4997m4543l7683l4972k7014m056K0678L2741M8495R0805J37634J37541Q4734L3500J6858
89305I57895k315n9718j09852p8882J7451P2003J4127j05434j75062j38341l7270L7247L0351k4140l9890J4266O3757
89288D36193K5461o6596r8173l3504M0504M5968R251j3526k7401n4443o4315k4443K7532L7508K1330J9329O655n4367
89270B32963j03581m2196R9649J74699J20640L5371R918J874n4872j17366j09651o0217n5849r9182j14951p5608
89254a58359k3573K2205Q6256J56265J72767J23740P4506P0785P5940M2886o687k2788p270j705j5453j4150K1512
89237E96877O0655N6863L082n7756p7253n3724l0201l6004m9991m0926k2113k9033n5964o3689n0912o3068j10484
89220b3641j29129o1249N8370J39583J42518J07089Q5057Q0286O4068K5945p621n428K3711L4072N407j5163K9163
89203E53038J09531J25498L3888q5105j26874q8027m6621m8050o8810p8922p7184n9265q866N7849Q4155M0103l0527
89186B85811o0146l6593o422r915l7205m7959j8413L4404O9147O0557K5565P059L1977Q8119J37147J42901R4579
89169G60613J7467m1292n3778l8830l3498l9005j9288L9326R3575R1829M3319R418K2325L7933r597j14712j88796
89152E77009j56005m6263L1704R478p3796j30926j26381r4889p9408q0572o4996l495R6080J79692J83023R9961N994
89135C26210j4522L9930R4777R0038L0928m6719j17297j59855j50382q3506J6297J14445J78287J75018R7644j013
89119E90280m6489l1885k4146o1408r7298q1256l8226j4959L996N4649J00047O4071m4566j20674r1210N573Q5805
89102B52304J06213O4617k4018j13473j36315p6439n167l293o2719r9148n2500N0846J27344J10642J0070q8883r6902
89085c6821p314J04345J71582J95896K01187J74366R3533j2071q0711r0555p3956o2779n6320m5183l3264k8043l2449
89068C81443m9081p0883p0239k5895L7216O4786L8494j462r607J2682L1903K8026P153j7659l9021n2689n5034m4237
89050A65896k1611N632K5281L2462L9765O4404J04511J38167J46127J25411Q1894K3318l6567p6966p9588m0623J9783
89033G17296N9207M2790j5022n6777m9522k5942l0507m7664k8488K3742N0445K4066j8281m2099n9403p8176o4676
89016D00989j887N7980N4226L200k9858k3319r403p750q353j6614n6111j17789j57362j54614j29029q7679j2233
88999b95606Q2461J33757J11223O5078N2045N3097J6473m8044p8676n1750l005L8569P9191J13617J09030O2158K4772
88982D64390L4873N7478L6206j9884m7855j9201K9356N5229N7323N1930M0408K4027K0105L1871K3923l3918j07181
88965F99080j22710o0126K0095N6244N8276P0859R0328O5583j9935j12136j49696j31206r4111n3083K782O1547Q0722
88948D62513M1666j7485m3982k8667k966Q861J1419J7592K8721L8608M2788M0935L8378M0662L6225k080p3501j18360
88930E21327p2265M0042J08205O0705m7136j04182p5309j7918J4760L0091N2022P4694Q4235R0165J05889J19488
88914I84813J07829O4967Q07p0043j21818j22935p2975j8379m218k0642k4448o735p455n6610j26037j55566j18190
88897B32365m7663j261p18j6271j1157J0567J7446M500N300M3787J00717J40503J46574J16083M9150l2769q3553
88880F73600p6163l0958K1704P6970J22586J09765J3917r8521j30572p6076j5569Q351L5173Q7441J08709N0878l6203
88863H45032o6734l6293j5692m5697r3383j08116p6563k3879N959k0811q3461j03426k8172Q7930J34046P6177q339
88846D38578l8272j6918J1579M2208R4633J44951J30140K8135j03264j82922j81379j27716o1267K64M8445O6559
88830B93754M4113J896k0136o108K3165M9170Q1005J18958J22330O1906q662k50P7675J01197j129j25009j14728
88813F99147J8838J02657L3030r3944j28205n9486R801K7798L0787L6639N580o7084j03110m0170P0385J20882P8435
88796G41980J0246j2504O446J2673k2035o3917o0160j3203Q579m3224j20080j30429o2561P811L9661P8013J47491
88779E24787J76798J02158j4842o3241l8856k8370n8967o8180k5668J5850J3086j2041l5507o7644r7763q6340m8057
88762A87203n5294j12396j18615k3008P2158N3133l0715l9710N4835J49717J63782J09053K2677o7688j09464n6937
88746A98731M4359R1482O3374M5130Q8956J34330J07197K6947l5639n2977m6251m1121n9831j16089j77138j70178
88730A01282o9126N8496J29835J37090J20217Q9718L2362l2859o6725p0989q4528j15416j20861o4974L5157J30359
88714B09038J82716J81826J38918P5787J2234l8208o1248m5905n156K5052K4224J0024M583m367m2131r7387j23999
88697D46001r4164k9287K3674L1963l815n2726p4303m8993Q746O9277J10221J15992P5714J916o0943p1241l2374
88680D15658J4968L7490L2018J3684L444K1902P0248J15158J15477P0591K3057M661m69k2831n3454n1107o743K6373
88662H30125q692r3372j44096j10298l3370J3288J7738K7243O6388J02843J00468O7291L5938K6469M1164O5904O5054
88645A070085J1310o0722p0998M914Q6997Q4157R664m4132l0142O552N302l5173p3240q0852o2780l9605l1732n2053
88627F97552r6244j33530j15994j9920J06746J60890Q8184l5898p9274j4397N2808L6355j8433k7635n439k3463p2225
88610E00083o2745L5438J45050J86373J59911J02793L0083m6459r4488r6268p5556o0981m9576k5999R675M7977P5869
88593G81180O8841J1835o3750j01805q8579n8730l2759k045J7018j7030r0477j22926p7136j6123J153J7374R8114
88576C24155K03913K28172J43426L1376k7884k8786m128J7769J2266k6436n7071k9608L6899O6734L3584J056K9558
88559I54995Q8754J00976M0622m9249j19580j54005j51464j09430l8066L0593O7499P6705Q5109R8743Q7174K9604
88543A038980l5984m3058J9390Q6934R9247O6373L2040N414l1421p1755q6946p2541n1380l4981j8061n968r372j5224
88525H71687k463J5827Q951j2694n635K9686L2875k8559r8871r9437k7763M4918N9498K0986k6644m9204m4875l6777
88507F51506m8484q0283j07296j00737n0638K4797Q5242R4891N8192K0771J8868L7469L5054m558o5442j24087j51270
88490B93995j13543j7181O6325P1359K6311J5024N5476Q1662N1488K542j8165j2311P710M6751Q3066O5749J550k2783
88472F85025L6977R9263O6945l0189q3906o1362k3573j1537m161J0103K373l6853o8073n3551M670Q4868J61202
88455G78221J95905J60939P5846r999p0688j05438j03292n7459n496K284k6273l9198k0613K341K6419P3328J20008
88438I96835J09455N1444L0831P9724J17330O6224l6516r9855r6256o1149k2338P568L860m2544r1731r9953p7311
88421H35618n7658l8663J535N4478R5019J18105J17492O4105l7201j05700p2730J1356L6195j5668n7744l9784r697
88404H99058j5978l1894j5787J9570M2779N6492O9566O1952K5632L987L6976Q8030P5444k9303j69574k62715k62361
88387E91874j72823l7325Q3828J46420J44123R8249L9378L784K0913P9842J24266J07067M1128k4230o2612p9145
88371A104737p4007l7990J1276K5827j9530r0447j28332j11720o7676l0744q387J1886L5411N1236M9190L8164L9634
88354G98528O2320R1026J06275J08234J09250J04280O6348j5265j00586j23424n9245M1361R7063O7998k3233j27876
88338A203054k03764k16474j45861j6275R9455J37447J02583N1467K1083j508l9180q3020j02914q1724k6854L8343
88322G35858Q3542Q5591M9501R237m097Q962K6040L2292K7892J3245j6064n7300r6508j22196j34783j36835j22348
88305C82029q5643l6144Q937M6481Q6082J21248J22521P8878L0952L2101P8606J11234R2735M9453K0766M263j8043
88288A126456l0129m467L9001M4300n897o5144q2167n3494p041L5373O1056N6134J6394l9868q3833r6962p7458l7830
88270G94424O5K0212K6871L3051L5375J7616j7985m1907k9099J1711M6193M5125R922k1972o218N5486J01732P8059
88252A158661J0807k0302J5938O7039P4662M8461L7889N8633P7020N5402p928p8201j14127j06153q5252q0234p5070
88235A037245l6989K0188M4312K2272J432J6161M0492M1587L4150M1022L7106j6878j04828j65553j64378j21057
88219G26284p6619o1206q1433j11119j06592n4545J2194O5142J15205J68054J82863J24619L0877k8660m2309n0311
88203H12444o0852l4576M3056J28742J72525J60345J01255J6833n0847o7646n5698p0460j16783j31703p0262L0820
88187H07193R9948J11437R5249Q6458Q5696O2278n899q6135j01915k1232Q2333J04757M1267j5740j1773M252k4454
88170A313720o5499m7525K8339Q0289M1240o7808j55455j40569l0676P5149Q4497J2804m5222l9380o849J1919K8965
88153A077939N0873L5892l5606j00193q5083q129N6086Q0913R5937J13005J09920P9060L5071j8371p6145r8909n4921
88136A257339J2176K6482n920R2P3791J33280J05831L7923K3717O5353P3797m144j20815j95591k00486j60720j04888
88119A017217m3700J3261M6375M2447J7333J1514N2331J17121J42944Q5646k8538j19445j28848p6385l1073k9783
88103A088417m1487k0545K5525M7878K7539J108P393L7319N3631L9180N888k8621n2131n3988k8593J7572O7835R9497
88085A293417R0866M4265Q04K127L1047K5858l1649q2469p0463j6992J9716K2952J0550j6663o0842q2712l8492L9869
88067A181189O4300N120o3849n5319L2074J20727J32587N1987o1495j17173p8420n809J4284k1341l7103Q416O6903
88050A237078P4698L6067M202J1753M6574P4890P1246M3020K8690M7144N6264N805p1830q4569q372P3259Q7060O3144
88032A796123O5552Q8227Q0983L6449j4121o2276j14760j44851j16772n0085o07J9033M4562Q7058J10500R0316M6849
88015A962180R788j2570k3352l3103o4592j19619j44091p9941M0523J09105P1409q887m2209k0736K999L847J715
87998A652466J2665K5822K3306l333m7587q1256p2031k8080o58j5155k7010J4102P8159Q5053J5013o5215r6139r4698
87980A375424j05095j21922j01554l0741N1950R8792R4672O1554L8247M6851O4021M2330j7283l8667L9056J56458
87964A654093J82107Q1504k4574j1156R2737J55487J16070L1835l1414p3165j07602j16287q9848o1061n3814m2934
87948A701978o774K1416L495l5352m0376m873L5751O4787Q6286Q5549M5210r310l4290k8400j7621L139M8258P6030
87930A994903K7593o5381r9431m6581L668j5797n5288m7615j9337k5275l6086J3547R8674J21738N0993l8449o9921
87913A791955m7680k1183j8446l2346l8892j8502K0075M3897M5768O6242J28163J77504J46328N7278n69N506K2417
87896B327515Q599j3600k3019m4394q8686j08025o1104J5828N1789K8384j7127n3444p8832r6731j03539r5324o4720
87879A583570l252P3897J23424J18988Q6184O8218P0031O1752K6686k1248o3521r5873j18221j21388r0516k1250
87863A677481O4003J20491J17326P1374L1106K8021N9520J08278J46378J28475L0518r4068j46096r2306m835L4008
87847B279674K2237M224m469j1580n770K4635N2201M0551R02k4001j8369L024L1680O3601P7723O0721L8653L9458
87829B675095L9555l234p5254j15787r3831l1349L8507Q8389Q6780K7904l6575n0830k8367j3242J1449R3434J96736
87812B809380K16245J26693K3657j7083k8977n7369o7104k1005K5805J208o2930p5886k5432J4945J806l3177n0231
87795B780545m3677j3816L9999Q7448Q3142L0478j4149j6450n514k3121o4299r0367q1534n5620l8686k8574L154
87778B548959O3895J05159O8029k8974q7816m2793N8818J18526R6464K4511n3687j05916j03350m9121j309j1732
87762B599663n0506m5281J3400O4391O9437N0876L1110J9l8694m7739j1290L4809N2052L9607R429l3513o6587n3861
87744B617322j793L5656L5901M2069Q2139J07271O6379P82n259N0576Q3128M0979k7379m6211p252L2566K2080l5901
87726C093053r4596j10747q7965o9053p4637o4584J1345J33388K21776K32283K00831J74688J41439O5700l2494r1705
87710C648722r6773r5327j10408r2349L87J13425J50984J02517N0403M9146O5057N8413N6239R2241J26342R3493P844
87693D220356m9469l8268O330M4698P3384Q4273M6297m2989j33016j77249j80243j64676j29437p1334j6643N034n35
87676C476513q354j1456j4750p602K7349Q2245J21102J09252M2730l9820p5622l3670M1929P3453M2741Q272J7236
87659C851548M4860M6986K7097J0042j0175m1822m5292K0711J13129J34711O1616j9172k3808K7825N9872M8263L3332
87642D339723M4673O3982O5983N5093M3209K1039j9168m9510l2887J7963M9336M8247O9968J47627K13820J73846
87626E252944M1396o7151p8537l6028j0904j2106k1314n0680j04680j31440q1872P484N3730L3206r167l7903n0320
87609D696658l4642K0925P2535M8838m1836r8472n7552J9731L7998J977m49O9639J49189J61393J10110N9390M4432
87592E259864L8733R824k4612j9722L1165Q3895R6751O8933K2272k2109l7890l817N5906P9075M4609N540M068J51
87574E692636n3557j06650o9117M0439J01743O0806j050K356M8698P4262P7841Q7668Q0612J6563p3003j05119m7670
87557E827458N2701J35473J68097J35411M7962l5138m6815P860N1973L2046k0636l7627Q353Q7313J46198J42279
87541F702908O7303l8336j07493j00974l8653K7647O3034O8741O6341P2101Q2449Q2421O9470N8468N3908L4884p959
87524G156260l6411o149N7319P2261Q093o4355o1398R966P7526J03855J07067R5955M9529k5814p6391p1405n2103
87507G343805p0111j04811q9446q467P7228J06040P9650M1675K4121L1576N5751Q5386J10650J29184J42800J48007
87491H103038J40930J27637J10723P1532l001p4108p3314R366R6125J10801O7767L3539K4269o689q2346j53597
87475H502672j56051q5933J387N4486P1917Q8831J25783J58343J49114J06153P9659Q6847P6882P635p1790p2730M831
87458I128036N8218J7074n7696m9444O4964J82281J88743Q3537k3391k9375N5988J31303J21196M9500j0729k3726
87442I886479J466N6223J32720J91548J85076J19666N1079J3456l474n864J7958M8438L3263l3181q1661n9718n206
87425A0548268J9334K4521O4829J36198J71781J40549R1216Q0411R9757R9189N6195m651m9807p0476p4493o0522
87409A1272299j8505M1685Q2090P6474M7272L9477O6601J10759J65011K31272K76086K43021J31314J7767k8187j5472
87393A2738964P624K2669L6958M7674N3560P6965J33465J97605K31520K26574J89052J16796K6935k7783j8620J0201
87377A4070159J734k9941k9606J0067N1326Q5495J36043J93218K13629J90153J61227J43177J13420P2645O4247
87362A5446993J10891J79729K27663K37146J98173J08309P441l9266j2943M9591J25638K23445L13700L22363K34791
87347A7733664J39379J12058J15094P4282N642j2207M0431J09767J58333J91753K00757J55400P2557K2759M1604
87332A9161273Q3334R0658P0390O9213J05610J58428K02668K25756K18545J77357J16620O5899N1983Q3948J45411
87317B1027093J96501J97429J43923P4788L4805L3327M6508N4381O2373Q4262J16827J43101J57089J71884J99791
87302B2744082K36835K75233L17590L61285L77729L33796K39218J50770J17049J32870J58138J66591J60951J50775
87288B5922912J35123J09859Q2435P3347R8666J47092J80447J69972J31279J09564J29297J72312K05581K13423
87274B7881309K00689J83744J83114K06330K33725K40646K35444K49285K84476L06803L01696L00057L23192L36247
87260C1466757K93257K06583J34225J11694J30635J72244K23140K61412K63240K29454J82646J39393J09122J14905
87246C4038707J81543K94243L93046M21229L71786K89213K36458K48291K95382L03287K32432J33230R5001J45562
87232C7679410K30998K90167L12817L20047L23923L21358L03587K62236K07412J80773K19455L00931L57936L58771
87218D1669821L37817L33126L35302L24735L21218L56069M16945M59295M61185M34838L94194L42122K83634K25032
87204D6695333J65692J13416R7194J38203K17364K97542L64662M15533M23356L65825K85854K68443L37702M20542
87190E0606661M37334L91524L41493L19792L19130L32337L60727L92756M13735M32320M62127M80832M46869L62724
87176E6100361K85699K62524K81456L02083L05676L00703L03491L31369L91828M58587M80938M41162L83365L58830
87162F0988072L62165L54873L36072L45313L95441M45979M56752M35218M13960M07786M11663M19792M26833M24719
87148F6624638M13803M04246L95543L73275L40688L32140L71381M30426M56050M30865L85070L51344L32022L15020
87134G1956511L03191L15270L59740M12265M27524L86671L30348L21417L68328M12386M05772L71579L59725L72354
87120G7103081L72272L44603L03366K49626J77743J22582J40144K22034K82112K59874J95613J66804J86456K10150
87106H0336460K18303K36433K77376L11365L05749K63032K07346J56640J20226J05405J12368J30736J46951J47332
87092H3075722J15123M2960m2615q4622m2709O2962J65879K14175K10205J86191J52683R0618l348q7866j14973q5287
87076H3855098m0028o049J8185K4971o715o0016p4098l0104n302q2794k25259l05590k68176j94894j85656k30896
87060H2182677k48593k09261j65886j69786k07658k31987k21546j98147k00870k50970l29605l87148l85615l33245
87046G8642360k70784k32329k32061k74810l52136m31813m80111m97627n07548n08026m71500m01846l52485l59618
87032G3269666l87028l72650l11319k55065k44375k77740l40829m20144m82682m87724m40791m04861m33396n10820
87018F7900242n75784n83509n30591m44113l71099l58980m15545m93413n33702n18849m71136m17733l77653l64866
87004F1443269l77161l93643m05811m33852m86974n33312n47772n62466o12152o48242n85237m40139l42751l71655
86990E4702102m51883m67847m14898l68139l49653l18256k74224k80162l60246m51588m85671m63990m23947l79257
86976D9212341l30841k97507k94443l06919l21055l56949m33624n20285n62995n48752n05672m50731l82060l20666
86962D3579842l08968l51207l96048m03115l94742m12197m46666m51957m13803l67931l47618l44701l30399k90674
86948C8319816k33043j80252j65153k07691k83972l40959l57017l62236l78479l72890l12582k40759k37353l04042
86934C4343388l51076l18119k49492k13956k05922j84349j67639k10561k99109l49910l28620k95546l00894l00918
86920C0567277k33367j30369q7030j34352k06810k37011k26785k11371k02807j97342k05769k41623k91188l19060
86906B7642393k99636k34284j51098r8089j16544j98974k84528l17123l00206k75517k61549k43614k18483k08569
86892B4434179k19784k20228j85444j40938j30218j54871j78052j81611j86415k09750k31363k18820j70822j18459
86878B1887404q9658q4747q6533q7799j04260j54135k22874k62112k39465j81544j48335j69789k27394k88473l26419
86863A9213867l11817k29089j15546m1398k8046k5518J923J3848l7178j15037j43898j22472j22965j75934k25535
86848A7535205k17723j73273j43242j39196j42643j47866j59072j69110j71622j75430j83577j78750j50487j12799
86834A5270415p3110j2829P0426J26743R8583j0317j39764k31799k56485k02034q5063L3747Q6814O2979J0477k4039
86818A4724744l6108m5296o4033r0203j11934j16394j06539j04509j24130j49025j55043j42418j25602j06641q5244
86803A3161625p9641j03291j31887j31146j10569j09150j31335j42724j33418j37642j74747k13200k15353j82909
86789A1164613j35073p4616l694N3493P5615P4916P4694O7602K3568o2941j52600j91975j61427r6937o1988q4751
86773A0508499j25488j23755p3440k4708j3397k4421l3649m6393p0761q3755n5908M056N2083M8370j5359j11207
86757I810767j87765k07090j79808j45272j15261o9109j0088J8023p451n0440o7867o0363m0743L554P1143J09754
86741H871984P8300J9916Q463L6386K5551m7748j08008q4695p317L8480J5097m2049q3526r5104q8966o9974k7537
86724H439253L5678Q0396O1632j1871p8901j03648j19557j65445k11329j96427j21860n1418k6793l5508o2606j15654
86708G315942j82403k14479j80536j02186j7736N7222J15372J39759J27385J04752R3156P6316K5243n7021j32190
86693G168596j59597j26654o1762j9817l3108p0785o9541r995O1759R2487P2053J9864m1469q2616p4487k6414Q050
86676F646564r050n3411p5402o4854n2283n9969q0795r9746j09553j02088o5861n691M3546M2757O35j5986M2543
86659E981356J23700J14240q554j24187j21352n0809m3089j10553j43051r6137n7597q9969j25186q6350j7262n92
86643E144608j9540O39O3160J08561J17958J13434Q0933j1404j28114j88164j70319j19829n8453K6915J08310J23186
86627E191881P2629K8608K3034J2175k3984l4873O531M2313J6691m0333p2191q1223r5578j00629o8765k1359Q30L88
86609D856145o79j8672p9559j52442j73724j27793n1189K7135R0150R4435N714j19506j63078q4406K8190P6066O3990
86592D270777N4069N9409M7426J8896R899J4988k3330j21677k01771j72649m4841P7085J08709N8860r016n0550o0649
86575D035635m9446k5762L837L6697O9021Q1281M7238k3594p1416m5815K7402P1977N2604O448j9977k5153k7578
86558D143399k6174j8298k9161q0279j38543j39551o9462Q568K5753j5188n3587n0486l1333m2598q1267q9756k9444
86541C282593N7409Q5019K5316n4857p4152l2933j064k0303n6165n5912k0974N251M034K218K6866O8553J00949
86524C341848J14611J14586J01454P5126M5146J5144l0715r7316j45674j30988p3259m1684n4712m8642K1619J01150
86508C307694J08393N3767J7419K6519K9679l230l1569k0901n919l3986r0728j27826j33654j30270j20674q5440
86492B759274k5677K8106N1527M6294K6818P198k533m954j4337l2647l7944j5473J1737O833l3274p6184r4248q5192
86474B515324n7783k0316J5960M0630N3499N8712N4370M1150L2380L6516L5860M811n0800r0863p9898j8632N8361
86457B629281J05787R9506O1194L8942M5780L7033k2541r0340r1239k3783L2924K6558r205k5115l1256n8638q7270
86440B637618o9564o914N1167P7609Q5724P6118K2298p0334j38879j31325p0736j7384R267L2810O1526P3398N8393
86423B680792L4600J4726o439k0083L33M6320N5155j5769j17176j55926j06972l2354J2073L8385P5269J00095O4731
86406B667760k8632j16670j40138r5100k0180M1797O3272L7123j7340n8975n3888j0167K1755j715o1003q1060j5324
86389B131515Q5992J22869O6753j385J578M8925M5945l1497j01044r1560l9532k3573m1656k1842M8733P9223k294
86372B277150j30304j66784p0889N3711Q9082L1214l4342m3933o505L2841M0577J3298k1986k9460o432O426k2755
86355B010909p1391r6458r3624q2711n3084J8159R5185R7689J0768p4876o9239J3151R4553J38373J60071J62188
86339B259663J22908M8435j7641n1599p6633j13772j37241j07505l5806J3555n717o2081p5796j2985O8113Q5591
86323A901489L6889j532J9197N5504L7918k9340p2888m1568L9714J03867J03581M0652m4087j04118j19520r7977
86307A827781n0050J6045P3504Q4999N0783J7714J4250Q726l0905o7782m2367K6900N2871j124o7121o3917k765L4132
86289A881674K062n3591n6589O112O4370M4379m1543j06858r4529l7289J648J0349J4755J5324q428m1502l6817J8840
86271A582367Q3748J10963Q4184R355q2632j26081p0362M6303J24987J25018J00354R5555P2114j2484j08383j28070
86255A906936p1043k2427l2928o5709p2019n8930n3163m3036P6O2423R2240O5485J8062J040K1750M4765M1097J6478
86237A851097r399l1837n8179q7467j05940r9046o2109o265M2909O5269O8849P4916P5869L7924l8068r3785q3898
86220A540840l9129j6720j4502J0912N7362P3976M4584Q833j1996m6035j03235j36359j06452m0510J3813M9665P8432
86203A363479Q6161O0193K9684L0603N0288N1436L3438K2956J5807k1093q8192j37175j28030p2772j1606L2502O3896
86186A381575R0440R9089O0031l3702j32208j60792j01209j8349J3885p481l0474k1860M724J9999R463j8984l5773
86169A118374r770N1310R5625Q4861M0343P358n467j9295l7019m2350l7158l9201m4341k8288R202L2314J0388m6478
86151A140408r5004r1521k7985N0457Q1173N5120K8442M0811N6490K5047l4710o7204o9637q0614r3976o3294K567
86134H56570K9063j2950n5568l0153M3328J04314J35861J52035J45500J04899N6707L4964K5565j1005p3153j19492
86118A386485j28602j14255q5687l7344J7684M5581L6389J8544J3950O810k2039n0327l2199M0263J12134J12862
86102A320249K8294p7347j15881n5892M9544J13162Q7068q349j10849j62183j41496p2198K600N8160R8999J29431
86086A143312J29780Q3042J8757j354M2628R0603O6976k1448q4543n8283J3791L7638j0318o0922n1325q23L2892
86069A370403L4447L1162L6462L5201J8220m628k5837m6828o5441q2339j12083j56123j72602j15106n157P5181P5328
86052H90260K6427j1137j3777O534L2166M5645L5114J5783K0016M8967O4522M7614K8683L5203M6803L6361J9402
86035A374586J9099J3012l1811q8438r1052k5102M8294O0435n348j12677j90743j67127l8334R0268R3415k7350
86019I21127j35793j21126j6319P3023J04865J12381J14492Q5824J8730m2821n8674m9342o4806j07658j18942n1014
86003F63947O3544J37194J20163M6711j7737m8364n6684m1586O038N2982L5897m8550j09294o0737O5288J52138
85987I60950J33332N1010k0061n8264q4160j02220r3534n6536k0393r453j3926q070J1587J9111r152o2895j02239
85970E35087r4391m7287p905k1813q3919j27278p4787Q1469K52911L21430K43763Q8018l4502o9711n4188n8149
85954H48748j03864j44264j22694m5522K1738L3882J7539K5023O0417Q6330Q7993Q0960N6107k1835j35972j93972
85938E50614j31167j333Q6173R4453P2890O6626P5645R4097J20969J23185N3677p0040j57523j41163l9185Q9028
85922H86946J93728K21915J28115n0438j87030j95506j24725o7235k7455L8928R8526O1619p4485k02081k38273
85907D62549j99295j24794k0636Q6983J29548Q8359M2312O0650J01501Q2277N382n7324p2239o3189m4766j0624J9381
85890D86075J0453k3447k6515J8245O5941P7492O3433M8370L5902K3987J5825K67m1145r0904r5774l2590N4838
85873E90453J05032J00242O1187Q504m5201q4427r9121r7069r1016p8694m6611J0009P4435J11635R2982L3709m701
85856F41348K2682Q3512J03423O2404J6294J2926L0546K3501q812l3166l6574l2709l0192k8473l5524n7704p6396
85839F57086o3910k3496J0818J7629J0831J3724K8319L9971M0082L0690J0705k5295o3968o1666J5090J28782J80886
85822I46278J12129k4052j20156j31414r3681m0400L3695J13890J37375O7617m2769j07277r8651n2090m186K8287
85806G24595K9697n052m5791m9732j1039L5988N7914M5639R513k5596l5483l1081n6004j18127j50279q6988L5913
85789C24087J13777J01450N3631L2393L2564J9819q128l1811m6329n3191l9367L540N2275O9306M0785j6612p5609
85772E72580j12516j13740q2901l6792J0027M8232O5046N3640L3734L7921O7587Q4526N7916j094o2106j07167j22821
85755C92072q7825q28R0999J23333Q0783J5470o278K9758P2609N7122k7992j23355j58518j26803q6462q6254j08743
85738D9088r6224j8016R7722J87710K01812J40193N1572j0767l0653k0486J2741O4013J01230Q2032R666o4821j08287
85721F48525j33411j44987j09151j3292Q6143J25675J15026J04163R6712N9124K537j5038K2973O1813N1718K391
85705I60921n8120j25179j86327j97018j35550n4259k8094o3833r9337q7108m2889r367j191K444K5198O3857R1010
85688E5158Q8496P2082O7869O9122M6910R535J0084O7548J16738Q0953k5734j14624j28669q5247k1261M6243R4992
85671D50195R0689L5120j9066l2554k5450k8720k4078K2792Q8909J04853M2864m1602o8684j7180N6669P4526J3671
85654G22954o4436p6836j8775K4015j7555j05518j45758j04161k6802L5512O4322M3911l3209j14232j07501N308
85638H1239J28012J61894J16301O4480L3820J620k9792k8208N24O439k7289n3355k9282K3135N3109M5876K6461J9419
85620E94403K9694N2174P9858J04036J13380R1016K0380q7754j78769j93590j33450o2222l3200l5059k3250J6122
85604C53769N2491M8600k190o8076j02012q5439n1175m2835m9833j5616P5068J53667J44489N8700k5498n9793o0677
85587C23640n4636l6574K735M3173N4911L6678J5400J3533K8342M1008L9079K7497J5997q25l7102q3669j01046o2536
85569B65605Q281O3661Q3389P6469M6177q285n9610o7059l4992j6482l9784o8195n7229j4949K6429O2101R3025Q4729
85551D43281J0456p6602q2862K809Q5766Q6047K6533k8593o4960r6502j00005m3475L8395O9083L4302o99R740L4715
85533C47429L3164K0937L0226M4779K7991p729j2865K3701N6575M6501P433j7536m049L4425N7327K8121m6582j13558
85515E56290j28808j07899r5451r8626r0543p1844p5258r8296q6350j2639O8870Q8786M7589m286m1436o8368o9474
85498b87743j4707Q0696J53234J64045J36254J02180N1686l4395j23336j46370q1980M325K5630k5676o5398k0268
85482h1823P4020J11432N2014k6072l4924Q127K3559n098k0285K061J2689k0487n1949l2555R970J9818M571J6660
85464F1728O4804J04712J09588R2122N6459j3283j02751j56191j39252p6834r896M8410R2115R7110N1429j3499n4240
85447B12531o1367m9660k5228O012J7694r664n0808o3056m5185l0420k4237M901O3480J07709J05309Q6261R7144
85430C41416J27901J23994O4950n271l2853j3332J5152K0639N161q223l628J1952J5202j0507n4803q5293p9008m8491
85412C84958k8901l6906n2702n0038l0526r896J8084O9163J15866R0641k6686j53759j82368j00318M218N4856N7282
85395A22968N2054M8118L0931K897j6432j4577P321L3635L0539k4413r2442r4518j3965O2255N0595j5890m0850m972
85377A23254K2538O773l384K8288N7084L4321n399L591N3260P4698M1674Q14k586K4859O0049J00701J40417J41543
85359I02495P1883m0727j21292j22468p3406m6035p5057j18081j03475j8752O4095O7030q33n3786l2849L0688O6334
85342C95764N0847J9329P718J3174O643l6942j14873j82592j76077q0459L1099O7619L0476O561M2085Q1774O6233
85325B28379L1104M8373J06927J25341P0260p612n3802n9838k9700L2089Q2964O3047j9586q8062j08190j29462
85309B92232j77488j87158j08581q853J6678j6724k4117R456L0399L2488O2613J14269J21818P4369L5040K3200k2211
85292B67430j22982k00331j88147j24958p1252j2843P6383J41840J13917K9502o105L3336O7899L4946l0340n5016
85276d6721j9944K8632L2197k3011q6147q6666j5155N9931P6234M8866K8594K5109J7965J2891K8683M6238L1845K534
85258A62075O860M1736N0792J5099j3648Q236N2851O1646J5856n4900j07730j17181r5970r0384j26535j61369j24885
85241d77451j4325R6165J47129J49231J36088J14766Q8269P7842Q5998P5552K3793l4663n7707n7912p0699q6187
85225A95889o5670j4390J5460k326l6177m6092k5551J7536Q1197J45059J57383Q6456k3085q0512m3744L8531Q8217
85208D88181P9034L9262m909n2732r7446j10936p9407k8947O305K0851K1371O3m1622o5573m0405k56n792m6721m5070
85189C5251K5841Q7630O2462j7241n9887m3140k7747n5323r6760j10338r3874n7268O683Q7739J32905J04624M4111
85172B5668K3126L8295J4515o9370j21485n3945Q2355J48988R3838M151k1097J8384O8149J05603J30619J18137M5142
85155F51073n6579j27625j44725j14030k9899R8843K01583J97170R4406j7397p6891r0115o8072l789P3520R7241
85139F84714M6721k8565r0399j49444j95447j71808p2014J0134n143p1375q5495k5864M7525R1940J06979Q8495L2707
85122B13661k6769n0562n0661o0183o6448l6715R493K3978J0844R254O299m7951j34645j61982q7988K7733J18171
85105c04471J79628K17383J98330J10653J3583k9113k7677l2643n8098q3161r8496j05018q7960l3519M1750J05744
85089F915J37657J22195M9794m9859j09372r5467n1726l4934l9235k3911J3275M0427M9276N7886O7415O3554N2380
85072B56270M8275L2920k3496r8375j22776o4363L1511R4000R0486L5257l0051n6835k5421K5062K9422k9454j01402
85055I1030j28377r6954k9832L9633P4400N2119k687l2827j5274J0317r62l8067n3840k5333L0772Q6674J21189
85038H1981J20177Q5136L8533K974k1527m7955p8468j03044j12796j01691o4126m189N9238J05379J21508R8706L8713
85021B18549k7359n4950l8412k1304l3647n0069m1287l2549o0543r5015o6643K9257J18184J45521J30837J02762
85005B23332M1841o6550j66034j75128q7657J6469O0754M4986L0283P0185J52561K00274J44102N807j13283j40213
84989B41729r7385m2883J2111Q1318J34897J20928M7496k0036m8915o6486q5629o7089R027Q4435Q2636N00r7756
84972B88898j54328j49382q3947J9751J07472J28186R0338N4562O1618Q8750Q4715L0036m5602r3334q5921l7595
84956C04217J0616K6773Q622k8240o7488r0584p8321l4956R4j1175n9269r7015r2331n1318P314P3218J32866J61552
84938A14575J43870R1441L0632j7538l9217k5110J8479O2613P4506M4932p408n4351p5065o1334j9979K6168M7783
84921C54997K7829k6294q7893j26527j20941o6592J8576R5051J21232Q5523J9418k9116l6063j1058K6145O2421Q2956
84904C89664O7027R841n7526q6221n2591K0081Q1549R5063O4527K7494J7822L1154L1689l033n0464o3566k1750M2710
84886E43470O9075K0647q0266j66645j80090j14829j4550O4120Q3386M0088k9880p3681p1759o0003p8153j06018
84870a55088q7079j4413M9937N4240J7974m237J4193O2259J08771J08614L2310p9919j31678p6211K1890O7518M5011
84853C4092P735m668J3438O2644J25037J44702Q6483k106n0435o4875r5307j24201q8216r688N789o6132j13759n4871
84835a94338L8598N7950K0927K2975P8409J11549Q1233K0537l8958r5149j22680p4553L8791J34006J47770J01238
84819C28305N1087K0474M988Q058L3314N9538N2403k021q4700j54482j69142j15647k9463L1406M0651K0319J410
84802I6498j1781k8636m3442l8928j1362K3121M6361N3171M8367L6352J7486p814l5563n8932o7322m4889J6502R3100
84784H2289J33513J09965N7286L3240M4263M4558J0862k3693k4479l152J2603J8606J4435j6422o6714q0675k0281
84767C26204O7028J00776P2280M0831L4226J6944l4288q4301r4924q1249q1195r9916j14712j14268j04041q2277
84751b32882l4790M2572J23654J59919J19590K6567n2714p5232o0798n1042n1274m0427j8196n280q534k0747m1575
84734b21189o1930m7217J4572O4808L6751l9042n9790J1597J01718J35199J17286P9876J6171q1417j69335j91557
84718b93499j40849m9314M4949R4943O1221k5669o7340j3809O3111O6598O928k4805J3581P6995J08704R4703M9656
84701F6104j332l1781m1720o0707q9485p1655K7369J47466K00927J80587J32257N6824o3558j61772j28152K1644
84685A83016J29109Q9593k2234p7723o2722m7105m9128k1431N1419J19381J31946Q6019Q370p0958j26930j49611
84669A71011j47802j30793r9083o1844l5991j0984N0238J45366K01870J55323L6654o2642r6547q9517o7333k0526
84653f2600N0746J02691R0628K6084l4241n1828m3106n0921q7508j14908q6783l663Q3133J18316Q3382K788o7745
84636d5535o9513O859R5823J18828P5446L3828K8690K4327l953j6775J8469N8807M4743j1583n5809p3993q1072n8362
84618H9225J6993R2102P3526m3311j49797j52357o9346K1240P5887R7278R6131P7538M2436j5585r1073j39669j10387
84601h9169j8470N6453O5372M2238L6848L8367L753o7397j27475j36377r2609k1148M5420Q3241R2065Q5115N9913
84584E6140L489o5386r4147n9616m897J2980j0852l9564m7080l2324k495K7803L6155J8165N27N500J8534J5307M286
84565a57475J4473N0521Q2911P6697J9349o4046j15217r0627j9808J6587j3081n0644l4029J7882M3627K1805k9993
84548b31068r7986j56649j47926m9753N5923O2749j6514o1488n035R0890J36904J23754R7028Q0941O6701M2230M358
84531d941l5382m6339j0173M0789N5586L4661J8779R511l1904r3580r9081k2743N1187M0024k1713m1050q80L0981
84513a26268M810n8306j06195j01142l6847M8331Q5875M4365k5100m2214J4327R7871J53783J57933J15876N7904
84497B85003J9548N59l3155q2897r3428l6628K5965K5849k389K9960J24148J82268J38963L1950o8079j28411j38943
84480B80283r4634k4212J7641J9365L0682Q3671J36826J29637O1508j1700l6293R66O6459R8973O4723K053k1828k240
84462H01880pm4825r0565q8694n2813k0648k352l27k9330p4675p7355r231P6717J18147J22648J22084R4513N704
84444H50871j01221j40618j01991n9495o1965q1309p8117n2737j3723M4447J06048J25138Q0670N318o0432j06711
84428C54173j30196j13731n7631P00K4690J1860k5919q0218j23688j12053m5526M775k2132q9037j00538k3550P6736
84411d51285J23095J06225O5538K7536p627l6416m1737j6720K0584M6751N7211N9346M9030J3664l8977p7006q2396
84394a83184p3618p1737o3282k5278K7426N7472O1911P1962R3145R2794O3685N2563R1174J34887J14531K9873n2869
84377D21455q7968r0086q3070n1478L0730J41412K07592J70140M7353p2653j11209p1681k4958k4896n5201o3531
84361B81951k5833L5275P5925O0251j2944r1755j02100k7691N5571N7428k3882j08149j31810r9959m4179K0339P8036
84344c526R7179O4666J2481k2716m9985j00498j62084j76502j13301j7618L8340L7081K3190L2425M5010K6758p250
84327b76350n119M8398J05535J14702P7761L0494p234l3836l8940j0940L3147N7099M7275K2061J420r258q573j110
84309A46532q880m8047r0032q2145k0864K9579J4516m2197p3051n0401n799K1564K5326K2612K7542L6986K9471j8677
84291h5965j01210j69547j70874j02409j4965M0769N9736P0966R5428J28328J55035J64166J40634O8945l2775r4661
84275A51601n1013P2454J61566J32778K6402n2055o2687n6410p7342r7586o9425M44O0106P2470M0502j1115n7528
84258A83162q5063r3393q0945l3313N1922J34295J61736J37895J16947J20204J07045N1937l973k0330k8505p7057
84242F42564j39966j46493q7066k4091p50k035j2060m6057j01373j29132r2951k7559n153n3502j25398j42649o5463
84225e59134O9184J75477J96373J50102Q8829L0720l7089j05668j42099j39682j23444r8256m0147M3495R4248P5948
84209c21143L0532K2160N1264O5534M2591J9585L6990Q4057J14188J01126O6256M8459N3086M3143j1556q9556j39458
84192B17258j37835j04289o4965k6661J3286N4416R0594J02685O6076p138n1638j9525M2335M0892l5546r8897q3698
84175b650k5003J2125J9029J9574J4510P47M714M3197Q0585P3633L3262k017k6310n4018p6022p8865q2783j07707
84157a53999j23958r2752l5818m278N715L9969R6479J18720Q5454M3930L8568N9303P5625P4749N2733J1333k5185
84140B66588l0761k0147k8462m9183m3489j0104J4384K6442N5886Q6412N9279j6667m5792J6374Q6793P7763K0044
84123D65360j3875l9662j12000j91025j75850o5561J9719j694p6469j05448n8814K7977J11356J55501J38643Q2062
84107A60220M1250M0392M3362Q986n7071j22878j65337j63301r6988J2749R8279J15793R7464R8897J19483J15018
84091C46318P0292J4457k7642n7146p4353o8431m2550k2485l0640o5639j05449j17472q0271j9699m818o8639j44830
84074d98997j33991l3414N5020O0314K6441K9557O7267Q3504O5166N0446N8424P2130Q7611J19886J51100J28196
84058C88660L5851o9599j24220j22356r5448n7806n797M9364Q1488P7073M4676L679k5139l0328k1072j3578k550
84041A12898K7672N7058L6041l7731r0371o1796P722L4109R782K309L7789N6911R085o9175j08826j00659q8226r1034
84023b56442q0874l3242L1496O9521O1541L0343J2610J6527J4756j3290m3884l5529J0518M4987L3235l888k5082
84006a66697j9324k433J4627K8031K5663j868l7334m6410j4066M1303Q9218J10988J04917Q0689N1178K3587l16j2366
83988B69387N179O0184J30577J72915J53617P2535l6702j24602j51862j10512k6700N4646R2192P2104K3589p28J8721
83971F74540L7678j498r2266j66877j76516j31445n8239L0251R9087Q4863j9263j11767q7923J8879P5298K9251k6644
83954A77409J034P5892J00769O0132J7493J13k8394p8460r9797o8637m3993q2551j38949j15639K509J23742J60795
83937F3468J12434K5027o8511j42493j63420j29676r3923r5426r3831k6316Q6083J57092J59713J56018J79594J66155
83921B91988N7293q4965j45617j11598p7852r9369j16187n3153O7701J58880J72517J27117N4551k7350r3185j08179
83905A2592o4371N825O3339R1078Q4309L9454l0966r3113j23209j30609j30295j09870n3562J3460M4527L4693K2553
83888c24165K0919n678p0033j17581r7098l8803n075J0513O4592J51880J91228J44968Q1369P5745J04456R2326K8062
83871C07625k9501m3579l7817m0620m0930j6379K4708M6250J7072o0966j44187j72721j24494l8508L3924Q7810
83855b32313J45085J90845J78067J03774L1573J0514R303k9854r7517j25934q5345k1940J3251L0625O7335J15206
83839C02675J24564P2939o704o9530r8538r3718n6679n260K6230K6682K3276L0895J7751l6928p9671l9717N8965
83822A97232J11509P0332L155j4393M74q500l5746l2554K537J9819k279l1372l6830k2593K055L9471P7639Q3980
83804D23936M3493k0654p5069j02067r3102m6965J2181M2622L0990J1692K2341N4509O6534L4461k5387p5405q3920
83787B20190m4163J3839L5096j2889r7916j47092j25281p3775n2883o2204n2535j2821N171k7318n3992q714P8148
83770d19139J15975Q6247O3194R0955J18467R2496M4763L0013L2556L026m8544o7921m4580j8339j2067j9868m7636
83753d02r6186j13647m5008O4567R9224K9709l8787j7341M2660L8638k8759p1595n4224k8698k8060m849Q7165K01107
83735C5514K37430J59922L1896o0752q8147p0702l0501J9680N4336M3393p538n3052n9245l9159k4331k3678k7642
83718I7424l1489l3533k8524k1887l0029m7941m3779j0387R822j4005m6908l9613n959N751k248J5870O4737R2889
83700f9809O8486J7312k0953k8100K27M6390N7486m01p1904o1055L8805J29329J38113R7502O7489M9231J5225l1685
83682D41688p2259r7348q6632j3127R3724J45120J00429K8071R094K8010J7048l2840p0130o4579l1617N175K5057
83665D24884M844m8715q2413n8287q307J7067K4389M8680Q0201Q1530N4705K8350j544n0657q4387n3342J4995L7625
83647D29618n281m7120m2434k3839k8145l5995k2285r282k5566n3245n6702l3029N10M1306Q9762J23723J15139O1025
83629D78160j8437r5646j39108j29079q7245o3704p3129p0257j3945O8937J14826J02020O6109M6702N0311O3764
83613C00279P4454O9447L6924j5958n5762m8124N295N9811O4213P873o9272j12938r5678k5310O9070J46809J66617
83596E77750J13583J9176o1360r9302j15023j47420k01733k28801j66575j8334J19403J42139N8522j4499k00M1402
83580A8728J3551o0586n8987O5768K12638K56977J86660P5644k4202j06723j58776j53929j03930o3971o4696p1199
83564c7033l3691M2846J06723J24842J09341Q0097L4635k8425q2721r9410q5818p0447n8885l7133j3176j5010m1803
83547a05068n7636m7009l6300m0564l0727J5719O7405P9735N5568K9266J5121Q648J4821L3857L9235J2469j7036r700
83529B7804K1645L0488O041j8964j9844L86L0144M9024K7500k7522m8924J3731J12403J56195J30240Q9172M9962
83512F29481j8987j01239j23331o9117j5131j4266k6266j0240m766m9079r0985n4900L7847R4755P8283L9013L0617
83495C31689M7694N0690J4686m8977r9916j06807q7817q6161r7023o7925M067L8066j6618q8819q0052q551K8247
83478b73527J1567K2236R5989J51585J01555l1326j49859j85158j26194K553J38573J89492J09551l1893j06557o3148
83462a44561K6146O4442L8056J05k1248m7539q4792q7419j9365P9862J31679J08961N2751N700k9726o4137r3211
83445h4296j08552j03943o3223K0573J03690J13933L7387n5762r6788r0430p2568m1360K1430R1938J22519J06133
83429i9319P6387N1982K4374l933j2343L22M351k4381p4482j08174q9753j4868P4491J19137J02726O3758L2927p782
83411A15420p2829j17027q5043J684O4161O8059N4022O1610P3180N0289j0942p8801j16077j01829m6454P213J7370
83394a15994j7348o4309r3902r1937n2777Q393N0365M9669L8156N6584Q3234N9553j7344q4068r8909q4262o7181
83377d42077l5027K2324P4677R0171P5891N0762J3097l3660n5524k3928M4475J10194J49321J47727R0949o334q9005
83360A84033j16808j08493r7196p1071n707O6676Q0481K8862k0374j2499L3088O5035O5671N2107M0340L5261M0492
83343B59898N2602N0917J3757n1073j02911j03017n2728P197L9396M7974O3733R5728J19465J19324J13915J17474
83327G91651J02239L6291n5548j12854j19702j17058j26438j12516n0316J4915K0695k6566o8139q0048q7649r4491
83311h5534n9273L0186J09761J09919M7589L051J7006N2871O1288M2521L0470M1654N9271N5805J9112l6464p8801
83294D20432q4730n9592k3040J7037N7291P1854K7474o0785j20269r6884k5866L518m8818j30122j56905j01739j3407
83277c24551L4644R554n5008q8818m6917M9877J35175J59200J30451R7054R2036J01020Q2652J6252p3156j34060
83261A85405j30208p0032m211J0568l8871j06845j36418j19700q8797n2839J0234Q5017J00805L1051l6499j769
83245c63109J01666J47485R8345N2665Q7248J45311J32799N1770k9751q6366j38004j77128j68467j10713l9495K4883
83229b70861Q5464J34488J55817J51065J24058N8875m0232j09825q9049j0444L2122M431l8549m6586l5191l7020
83213F8563m7133m1699j3217L1652P9076J04574R4309P1949O8173O6878K8498l4043o0048l2409n695k2229n5280
83196C01919o3442n1124m2517m0115m2108n8277p5016m9580K0325O5486L5401j6934l103O7915R2106R717j13485
83179C7168j65880j16998l8670j1558l3299l2229K9786R2771O5843n1923j60605j73970r9089R723J17213J92190
83163c39527J84326Q1632l6990p3104k5718J7713L147l2786l3379L946M3676O0383M5931N36n5052p9496n1607k293
83145b88662J6295r323m0785l4053J3303O2442P1798L2739k4658n4275k8570L6664R1534R9546P8736P6306R4950
83128A93987P5655j6624j16886j20984j9100Q4616R9257M6016N947J2808L6236M2654L0403J4668Q515J4234J6907R44
83110D09253j3394K1657J08826J69147J20693j7311j39699j71414j30576p5799l4906o374J713k6385p3626q2704
83094E9101j4695Q8032J25702M7188q5266j63223j48349q6006j9625M7603J00318R2709K1813l7079k1118L3164M7172
83077H7441J0730k4142l2816l3075k4094J7148P3632Q8413M5008n766j9958j4664k3571l8705k6404K4680R4471
83060A98328J50141J60182J14004M0975j2915l6191n2770o7403n2575p945J4408j7571n5814l5707K3489M1674l818
83043D00492m6471l3670j771q049l3680j6174M1432O4515J9663l2986l4069j4499l4114p1410n0814L2088R2235P5593
83025C48311K6206M419M546k279k393K2484L4482j3045r0290j22680j00071q8148j25468j69972j67041j21996p7632
83008f40567n2776l1474K520L9657M9526J2446m6325o8688l1703J2851J729m7106m9344L3473J38711J75646J22270
82991c79154L1473l3434m7587k4568R388L7474N3363M8075J3475l3581n2841k6276J6159L7812M0619M1902L1320q853
82973b45234n8071p6663o1842m4835m2006m8003o2856q0570o6330J419P7417R5680O0639L1953K8820K0971R177K9739
82955d30595O9594O6072J3768j7124M40P861j8769p676P8195J43927R3584j2755m3612R253L7045q225n7338m7426N43
82936a23238M5017P6520Q3938M7571m103j595O5423J16719R0317K8483R157L7638O0333N4286M3306L5962L523o8919
82918F00338j46097j76064j42160o9070P649O0956P1101L3384k0558l1764K6411J03836J20396N9273j9963o6235
82902D11433q8954j04665q5663j2204O1583O1329k22l5084l690L5157J7382l7744o5974m6466j1138J3547L3687N8633
82884B00947P4447N9585J8394j2141L481N7760J02897J01312O1370J3800k8621o7521r2380q8231o3563m2468l2224
82867B66844k3102j2550q44K7375P9514J18263R2522Q892p1717j15510j43104j60789j26410k6696O1754N4369j9952
82850H859m7277J7351Q6344N9404l6919p9027n965R8909J08369O752r2547q3520J6735J07434J26167R3762N5143
82833D39974K5338J287j4772k5774m8061q7593j22361j22370p6973M2P4253J00608N9990p511l9347l1616m4013
82816H1101j03067j45483r9538R444Q6774Q5664M5310J6477R31k3689o0198r2568j03348p6815j0718N9950P6653
82799b53120J8430o4425r8736o3783k561L5270M1660L9054L9904L5106K0391J3359K7811M2836K5231j5588k8112Q884
82781a78389M6261K8795k3767m2985q208L2127L9294L4121M6907N9887L5898j8087n1370k7405L9854J00085J02950
82764B15968L5357n7895j03085o9367m382J9206j6654o6138p6271l0699M9777J21439J39555R6840M0043K2122L9506
82747C55322M3456R399l9692p8904j07305j16363p8312L525O6807N1919k5298r5824j19925j15350j13031j19639
82731d79215j25284j19738r5075n1649m347L2221O1855R3156J14379J05469P2709M5654L7398L2610J9673R467J3460
82714b37257K6299M2056O6710R8846J15180R5074N1704K1415K1408K7495k49o6902j21127j00252o431Q1502R3535
82697B09006M7636J2724J1475R148p018j071L9037O1133K0911m9444r0606r9662j12621j28427j09717n1897L805
82680b35588L1743M9976P6326R6196R1033O9760N5308N8624P4294Q4473O4792P241o1199j03217j11591j00905o8212
82663G9054k278O6987P7815J6864m9228n1334L106N7133Q0312P9375N4860l439p7417j19788j08923p8727p4383r2942
82645a42953q9221l8534K6288N2836L3914J3079K2089L9056K9279M971O289L1037K9513j9883p3079q2089n8284m1130
82627b56822l2446m394M1341O7465N6576L5713L4141M4787M4648L4124L2780M0503K6698k6008p7632o1139K7686
82610B8021R9154O7173l6205r5299o1512p567q626l6235k2659K3645M0371J7493J282M781n192k9525k5886N479J508
82591c9799o4531j28347j19215m5096M4434J22977J68944J40893L6768o2657p7221k8645L2k3293p0249j20547j60779
82574d26331j40090k3608J12684J41417N7794k431M4449J13745Q7704j4730q3865p6515l8768p675J8757K7065q921
82557b19319o2367o2718Q963Q8298J11293Q4610N3564M0652L7544K5990j1703p4591j21262r7944p768P5039Q1083
82540e0636J5529o2077j01893q9539l5503L1119P1447O6371L5754J5386K0041L6138L9633J4741l0442o0546m3648
82523a28125O046L7201K3987l275l819K2860N0903O4909N5952Q517o8481j14690p1103L7664J14872R7600K0103m1474
82505A09647n7438n5388o4665q1735r0072q9735r2098r1908o2730P896Q7579J25287J12839R6741J14023J39753
82489A07996J25217P0043J7657j4648n4051j08902j34295r5402l2678j6032m6712n7579j8030J5431j3892o7791o1138
82472c84806J1282O1832L7441k813K0666Q6581J07177O2196K4547M4236P5599N4066n444l3765k339N1905Q0902O5451
82454C54714J0938n8706j03727r7098n5313k0570j3412k0921k4353j4543J3862N4842P7745N0117k0133q8750j26487
82437h1795j41099j38028q7855L6701J96835K90956K44228R2734m2045p7136n2417o7124j43493j97548j56414n6906
82421c80406Q109Q394m722J7967O5996R3736O9679K619n7540n4663J3934Q8660J23904J44046J81699J94078J11930
82404F27420l7717j35485j12286k4355L5048L9603J9158J938L607K8985N0315K3898m2102q0965o0500l2813m9549
82387B54200p9767p0972m8830q1983j67574k23723j93595r7406J8559J26218K01122K18566J84591J34034Q4859K8459
82371B86758k7177m6756j9373J4029J0094k3997m9949n1828m5771m6358m6621l4329j5592j1910k9758m0845j2372
82354a91755L8188M5834k2415j13432j45801j05700m7517j1715Q722K0532N941l1837m6360o785N2372P7054O7301
82337d07373O6116Q6375Q8387L4189o3203j51489j81624j36019l4906P4546J46195J62878J38148R4897M9972J4278
82321a8633q853l0035o4372j05899j22301q9511k6581K0434K9566J9613J0758o748m2863o6110l0191N6610J26672
82304c48444J32554R7726O4532K6546m3747j19957j31819n8938L2451O9024N2820L7507N0715P6325R7946J17218
82288A52459J25716R6780K5731m3704n8209j4311L8585N1689J7999l6764q2535r6372o5341L170Q0047J35850J57930
82271D88720J39640P2489k6942r8411q6406j0554M7569L7520j3326n5838p9029r0024p7951m0443j4823l3263o7416
82254I1512o9382n1556o5236j06003j09905n6005k783P871J7337P1452J28459J12975L2748k8450k5965K816J4824
82237c5291J7167K4520J5792k5274n9246k7830O6303J51554J61477R4322j548p7196j08077q9214l0641L6677O6058
82220A79553K8799m8686r6544p0530m669K8250R146o045K7106O7262L7302o6849j61622j72376j05938j8372M8088
82203c26125P4584N2464L8l0988q628L0909K7980j5332m0426k3417r306l5800o9080n1604J4477O9789O9165J8626
82185b52674m7920r5481r4492l3355O3837J47072J75836J43480P6647K1146J3913M8018P3585N4038J2648k096J0464
82168C14666K97n7011j15322j10100l5543N1199R1485P3063K4917j6262l2594k9925k2335j2923M968K6088K4497
82151A79165k0046q8472j28596j02845k6054M8865P8559N6875L582n5102r1068q2996m1304j1492k7685o8403q2967
82134d59984n5748j3684K4380O1867Q2193M7221l2248p3229j6824Q3008J19758O5090j3131n1146n0603l9791k9667
82117c52538k1804j4808J1332P6252J51251J72845J22904N5524K3266J6441P58k5346m4531n6013n8370k8037L9297
82100F8423Q8536N7542l8944j23627j50444j38112j09994n4209L3933J10939J23662P3602J5494k532K1287N7591
82084C3147Q2009R0854R0467Q0552N3286Q652l8452p4968j05945j38542j53880j20055m3584J6139R990l4383m2360
82067b87073P946N1826K6691l4708m2586K6753R5536Q7319K2205k2141j2554J9180L8836M3161L3657N705k5331k9347
82049E075r526n907k8981l0247K5253R0945R2729L3160j3519j0081l331m1327r2013q7850k6673K2962J8122k339
82031f3548J9831P5448J00546O4986Q612j8921j8873k1355l0107k4772o207j32j2233j4945P544L0340K4644J913m230
82012A18541J2045K3352J0502j4949l4838n1518p7147j04972j08165p2356j9990Q426l307l2551m6351l3063k278
81995d28619L1570N5725O3620O6403Q5720J18174J23688P4877N018k6135q953J0064J165q962J3423N1726N7147J0731
81977B96382n1736p4103l5727K0079K0315n7124j43819j46588m9171P7205J56079J63367J12457L3741k4361k6271
81961B70725J966J520k8086k3631L4840Q0200O3055L1464M1532M7704l0070j62933k31432j82231q3214j5416J2141
81944a71866K0402N372l6276p4349p4995l5946K6710R5203J38911J24907O3132J0428O477L0190L8163K1754O896
81927A95113J7593N3870Q7638P5475L683p3504p8006n121O1423N3345j587l2788k4240j5715k9514m3049l0010P251
81909B21857M8524P5252Q0199P3940P3545O9753K3691p7368j76838j96642j23966j9192N7925R3488R0160L9437n0587
81892C03178j29344j41740q6215j1615M1064P2256R7265J09999R2471N2162K5725L5032N5510M7941J4203o556l134
81875E68202k2489j08031k24097k76908k14950q3793K7087P1515O8913N8925N7636N7714N3525N3602O7061Q3114
81859B37026P5196L4868n959o201K7911L9369j1716r2615j30851r3308j1182O6036J12661J21955R1507L0830l4780
81842D50747q2810j04042q9842l3699M0914Q1484N9980N211m1797p9853j22405j46968j19634n7684j3970n96J6680
81825b38284M4375M5044J3695M474M2814O9352K6159m5234n6459L194O0327O4256L7592J8787J1725N777l78j2694
81807I4522m2485p5424p2421k3316K4653J7344l7436p0627k3095Q8281J78066J73237Q8351M769k9641n1694j14308
81790A28776j98346k32721j86069r6636j7211L1077N2662O1811P4635Q8794P7147K9868j2933j0328J3701M238l5823
81773b27358n0376k1005J0763J8231J9867K2297N350j2301K9494J26261J72141Q9997n7616j51483j61433j39407
81757c26578j10568n7504P686M3136N1176P7034J21995J26378O1409k0604n8246n6646n7577p0725p2897n3147k1767
81740d17445J6199O4729J12062J24947P9965m643p7320r8347p5318m7743l8896l6564k3415n311M426J0910K7417
81723c84347N0578O6091P0733O8975N5894K5313r711k6804k4843k6518m8194p9868r5753p6794k7501K1675L6837
81706d04237J5030j1884j2936J6759O9797J37464J90705J81094R2693k4817j03953j25321j11075p7390l1083N459
81690a93695J0928j367n423o994k4139l6877r578M0919N7119K5261r569k1527l3640m9777k5362N3806J21986J15859
81672G930O3520L5961M4965M9657L8486L5965L6031l045q5278j52350j52767r7828l2893J3080L4438L8754M8986
81655g6388Q7139J35789J41228P7031j6588p7586q5722o0488k0580K1697M3059K7120k462k663L0555N5684M3602
81638C20427J0144j9559m4650o5432n8383p822N4948P8144M8447k663m2911o2145o0544m7405m8881q2295j20149
81621a50729j13417n5748R602N2178Q2866J08059J02941N9552K0182K1961L6654Q796o5392j38129j73523j70117
81605c64264j33517p1479j0768K3618M3807P3922R5314O5548n231m9623l0199J5325L6602L3819L1289K9516K0291
81588a96030J8450L8731O1582N8070L1989L671k9081p3535j00748p2656j1184J1052l2484p7285n0877K8027P3064
81571c19244M2118j3537j8660L7753J00906J17833Q5322L9133J6710K9335N3100M6106q359p3814r4337n8756q703
81554b7094K0068L1129L0883L002m7362o4907j3644N1757M8771j1519l9016l348K3734r098n0011l7900j0612m1528
81536a46695j09421j17866l2895P5621J34254J40916J26159R9870O1467J8513k8996q7501j36353j35116q4183l6486
81520b58712k2464n981M7852J00679Q9604K5250j6835P48L4559K9464j3067n2738o2698m3695j1548Q323o448m4747
81502b02454n6791m057Q6406J35037Q3557m7263j72269k12594j57415o1545J4764N5425P4145P0900L3340k1190m2800
81485d24804o306N5133R4313J03573R8797P6241K7169j7265o705N3110Q8731M6814l5748p8891n8915k8038l7647
81468e0438p3280q0859m0530Q840K0066p775l8981n0366m5396k5746J6026O7334R5868R7543J06451J29564J15137
81451B43458L3969m6304l7286L8715P0021Q163p6753j05171p7032k9067K0128M5313P716p6024j19498p5356j599
81434a76607L6477O6353J35453J96528J63474M9654m8272q9729j16898j45417j28896n3563J7879L1699Q562n828j93
81417e9324J6746L8235M4540J4383l0987m4163k5343k4135n3160o3215k9139L964m192k4089n859N2572J19244J62729
81399H8807J46017M4637r1699j54882j02040j0070L7518N6111R5309J33183J15794N8052J9213L739l1347q6075
81383C22267j14167j05355r7847j05191r5502n1924Q83L8676O0594O8966O8837Q1505J12769J18713N7265l5750q2961
81366B41778p2678o2655p4794o1509J975O0708N1829j5851q6624j22401j16187p9879m5032m2918o2657n9886j9899
81349e66680K4862N0453O8202Q1413O8964L7175L3820P5466J10539R4153N1641K3457k373m5807p0578l8968K195
81332b066k2818q8584q5938J5846J09701R2511r81n7328k7197M9352J23087J70152J59842O3674q2993j83857j78887
81315E3516j03556k5626L4834Q2349Q7605K4874m7304k7644Q5148J65730J19631M549o1485n7760n0973o5737n8813
81298A59338j6865J1095j211j5766l752N601j3109k9637j3807N725j0672m4756n1124k7687n491O457J4756L471l8012
81279f5446o2215n045J13929J92826J69252R1729M2383L0725N051n5556j09119j12905q0298n5310m9157l0797J8187
81262C8234O7366P6437N2570L7104M0805L0991q181m2029l5194l401J4189Q890m238k4313n5566p4634n1407m08K8071
81243I5286J1363k4639m9151n4709l7135J1994P6128J10754R2131M6029J0039q991j9769j3251K5365Q2043J18603
81226D72090J11620P1625K6935m38j0532k9107q4955j67479k17723j84992r0145j0404J481l6628p3248q0277n8516
81209c60693j1650N1360R2980O5184k7323j03921q1404K9065J25365J25718N5602O782K7608Q2026J10298R4409N1050
81192C32456p787p4901j22139j13446n3507M069J5785k004k979K4480N2188O5492Q3014J11256J16535P1832O234
81175E06578l1632m6375q6628j61847k15708k00782j38793p6825j8163N8994J33009J42356O5952l8675r5093q2307
81159b85939l4995Q966M1252P4529J18655J62236J71676J20256K8640l8579l7427J670Q210m1890j01944j23109
81143G2207j13297j02142p7729q320P9477J04983M2031k6133q116P1496J10524P9029N7526J06720J66940J37505
81127F92701J5190j05189j50412j32025r3102n0176q407J0029j1185n0940p2410o8327o1333o4874o7688n8653m4144
81110c20945l0401o958L4300P3953Q2788O5146N9729Q5517J08845Q5006J6998n3260j00576j30123j40109j12543
81094b82633n2632J376L0176O1687J16568J53713J13568N271r1205j13597p7229m0792l8447n5071n0088K477Q5294
81077b31564J45664J42972Q7401K1459k7605n9132p4732p3310o8882q0498r6561p9125j7522M8091P3937O1634M1399
81060a86374K6189P246j5584k2820N869P2275J50934J91786J50936M1049o2015r0707n9071l7326n6653p5002m7430
81043f698O943L6727L2125K8027M0827M3158J2891k5553l2832r072J0180O043q19J5930M8717O0949K7533l3969p5054
81024A86053o4713k5440p648k4761l5786p351L1497K6707k4192o9186o7611k1400N1958J28945J60455J01785j4490
81007C24822q9279p7395n1297r7684j88534k14776j28330R751J16446J63244J58072J06161J8678o8120j11476r7642
80991b27359n3748k6472l9904o6910n8479j1078K4168J9809J9882O6973J16764Q8375j5528j04304j12519n5699K6728
80974d09301J14164J76583J74257J17346O9541O0154M4997j1165o7109o5881j9689J4631J0932k1410p4790j33366
80958b0106j50571r2432N939P2018P7297N0897K4367K908j5935l2353m9195n7508k9615L8845R3808P3752o907o6641
80940h1432n2395R086N8947O9092M7410J1054k8465o7803j05624j24963r2238K270J08885J53694J14816M3173M282
80923F9789J6497M6164M6833M339m4077m4241P378M8646K7991k6307m9738l5335l2199n6348o4205l1693l892k9530
80905a49928q3669r8438n0970J8941O9347R4863J00401P2816N013o6781q4604m0219p67l3745j15618j52961j00589
80888f16908j7804J4158q264k8863j7043J0678L4909N0839N0608L2094J8092K5283K6148q121l7694P974J15876
80871c48038J79285J26988J0821o2873m5352L3648J09072J15201K4028j12011j90297j65566r5429n0872k6041J9746
80855d77690P2802Q0191L4696j3558k5396n366L0850P6656J16287J21866Q0175N559p0921j10920q5327r189N4836
80838a24449O0654L4144K9792M5999L0878k8596p4423n3043J5082O7636P8852P7721R5568J18176R9906K2796o9541
80821D27152j13678j01837r0027j18941j56989j49047r4317l5502J0469O0717J10209J20767P9463K5072l720j3293
80805d3502k8509n0927o6908p3800p2427m8986J0331R1038J51639J51804P9231l4752j20364j14022k0260Q0086
80789a10328J03505M5865j8834j9279M2115R7208Q2847M45r1381j34467j12295m1879M7398J14227J14407M4192l7325
80772A26421o5742m8160m6573q4651j14865r2443l8698q20J9187N5870J16305J63949J66589J31232Q4765M0966k269
80755D11063m4090p2408p8025p3666q8366j32172j71998j60200q9397k190N6532P7160O9968L9639m173k9689n508
80738b97520O0702J23226J38281R4225J0799p4272j19681j00267k4308O8127J26604J18934N3710k1808o0282n8132
80722C8338m8540m6118k1530M9197J29305J49061Q9021O145l5070l6478n2337j11546j76567j86587j28309m9588m372
80705d35975J421K350K4546O0422Q8305R8664R3899P4019L4552k0425o6757o8883j3641O0097Q5164L8663k3768l2966
80687c13N262K2568j3601n8590o0824k9909n846M072J6876K4366q81n2372q3266o4212k0943r39j9762n2689o8398
80668d59401n7746l1315O53L6188O7906P4714M4903M108k961L4427P7751Q5367N3597K685n1631r2638r3470m5320
80650c52183J4620L2097o446o1436q2477n0788J3123P0218R6555J04442J20925J43085J37009Q9417L0129j5750o5697
80633B16843j39079k05307k10933j43507l6932O8725J40646J51121J06539O2330O3961Q6802P9459M6549K8905J7136
80617C33258l8057j23594j52677q5775M770L3478J0353Q69J9117J9498k1860o7799o6055r052N6230P2809L5070K33
80599B0816J9570P1302R7461R0989Q7394P7740J3126q5747j16840m5425J9998k4542j23936j49212q6057l2125l3194
80582a98682l4736M93L1026J8519j3140l1916l9831l0611K4619J08613J37848O3732n0088j02035p1472j7774J1231
80565a94204K0509L0224L9252L0053o713m9081m7702J9156R3117Q4942n328p0223l2865M8352O7221J7930j8018q909
80547A7713r886n4476q8627m9555M3782J21613J48237J32205P6439k9002j59769k42134k12381q7166M1058Q9060
80531b62889O1683L4059N2564P6054L6943n8440j29732j20834n6248J1559O5672J06259J08498N0593k9815n8443
80515a12517j0155O5363J11435J21102J12184Q3892K7493m4624j11601j68457k07038j91217r4817L9927J29184
80500b49846J44868J42990J73254K00792J56799M1660o9167j16011j10662r8028r9785j09917j17340j12335q5715
80485c08443l8227J5878O0877Q6078Q0835M2433m782j9658J1703N5552O6210L1084k6349p0113o8418j1112O7921
80468b8531J04776O9498N209k2566n700P988r485k9526j6289J7886K7366j1588p7529j27492j31376q7724j6879N7683
80450b74279J20503J59837J65752J42355J09252P5741K8300l3620o7493l3810L3995N5448Q447m2430m5109l3643
80434C69246o0284j00397q8411k5223J8164L029l0410k7763J8381Q2673J32971J28032M2295q1258j50903j31589
80418I8553q7452q3342r0993m6388L6833P9651M7947j5537o6819j03164j20075q9992j3733N4108O6918M2416K7600
80401b63469L5170M6183N3729O8485Q8741R2163N7772j4710r9309j51482j39843q2826l6225l1615m6157m4652k5331
80384d93376n689R812K2511K4015J5418J9465M4842O2868N2648M1619N8637P4434M5362k840l289M4613O9946M4663
80366A25659K7514O1207R4399N8271k9041r1784r5367n9417r05P1846J21727J04936L6822j7311k8789l5799p0114
80349B73854r9322p4864q202L9495L4339M223p901k775k1084q5183j59737j82994j34811n7325j657K8299O2745
80332c92900J10499J41308J22847N7231j9954o3305m5006K0055P3898O0312j9120j02565j26432q0700q176M0399
80316b31609M9824M7682O8463J08299J26887J02034O2684M7391M8645K9606j6459o1640r2941j23593j51191j49153
80300a35071j13243p4832m9864j6064L5695P0558O3658M5237N0390N8736L4185m019r170J1246N776l3623n9136m9004
80282a68545l7613m4150l2767K1608P8840Q8332O0245L7239K6174O946j3483j0577L401j0741m9219n4376O831Q9181
80264b674J19032P5595m69o3684j02421j22842j16970o3274L9262J46960J96836J65166R3599M7046M9667P0238O3452
80247E94519J4155n2594r1478p2228j1923K9583L831p1899j25096r7227Q67R7666J18248M2778p6575j59031j65687
80230b2091j24024q0320m6900j0610K9070N8045O9533O0783K4495k4093l2500K8618J03237J06102L8941j3908j3255
80213A51123j3213n4740r0324o8701k6566k2225k9258J5124Q4952Q6484N072n8910k6043N9915R8835N0831m5917
80196A16439j30300j57686j16618l7570L2514P5974J00740R3979L0284o0422r3079l1100O0105J05504J16956J41434
80180B47154J57756J05036k384p1005n0514O440K6754J149m0992q6995j30476j45255j16056p1038m1868j2728M4314
80163a80708R9697R1832K6392j0436L4459J03077J04958L9443j6170k5083l3139q0237j27814j12715l8259L3396
80147i1307O4061P2694Q9903J18594J47020J68078J70821J37670O9612l36l7086m0182l7871n0690p3314q8881q7050
80130E31736o3859j5732N1766J09540J19357Q0146M6355O8535J16044R9084j5296j48521k02917j72348j16987o2845
80114D24058N141O4356N2916l0147r2050n6560L8454R6404P9795K8761j1257l1897m2155m6908m6463l3528N849P0234
80096D75003J29531J50920J31219R3926O7431P1098R7597J00266L4463o7828j05028k3575J04081J61487J22438N7857
80080A600886L0910L8222M6220L5369O922j6867l116M8560Q8641Q3242P3985J15265J70964J51029N2137k3237j3975
80063B485157J3785k3912r9436j19334n9055J4502L6354L603m7577p6669n5675N700N1616L2660l3621q6909j05041
80046A936148j22032j61584j94629j82883j34101q7678o3830n4437n5578p9714j28653j74349j82131j46277r0315
80031G7957l6419R473M0899M0591L141m4239o4599n1927l0711j6905r89K6710N6680P7344R1085R4741N9482m0327
80013B91987j74265k56601k21854r6495K1999O2070L8427Q629l479r661j998M7646J20595J39334O0940n4682j13082
79996a40490r2780m0333J0713N6034P6285M7992k166k0484r189j9262n0614l6774M1219J00810O7094k3880q5577
79979a21402r3092p4998m0169J3801M8800K0838m1550o0643j1888N3261Q6906R2930R3536J00754J25749J63181
79963C56014J59488N6210j14705k33674k22926j30800n6715l4053k6864p339J5243K9450M0376N2424O2567P0286
79947A4982P2403N4839J4670j6383j489M7258P6119O0189L6166M5832P2495O4553J0713m2859n4606l7537l2316n0773
79929C34256o6397n1664q320L3964L8434p925p0999r3043o0596l0051n2035q6717m6345P5327J73427J55359M5319
79912B81994o6416j30784j48728j14539k2261Q0754J14759N8291k6278p0368o3562l0540J1463M8975O2188M8236
79896C3184L0851K1961k455n9971j17605j28022r8640q2267r4660q3631m729J00795J42904R4987L3698M9353J37532
79879b6715K04926J75884O8054l9199q6343p2938l7307j8143k8713n2502o3527n4235l6433j5576J5950N1765O0678
79862D5626K2080m3697r8772j25479j21598q0430q493N1838N8757K8733J8916M5876O0554K1213m1269n8622q549
79845b33316O2772R5253P2578K6755L01R113L6934N9492O8169O8573O4375N2246K9824L76k9480n2355o4513p0750
79827A96347p7099p6616n6230k2424r23j498n531k225r045l2877m0940o432M0956N3980L9060L7719M7890K3546m2367
79808F5291r3989r0958n9407l8132j9331K1627P2392J00034J01377J01547J12190J17323R4622L5294m6110j09904
79792C63866j17071p3266l1029l0978n4324m9575N611Q2650J31238J20713O3552L584k9192m6983o9233p6020l9503
79775A54040N843j2115r1526j34753p5202L2675R8876J16414J27103J17502M1253p2555j28840r6720n0524n7471
79759b6000r5058j11895j04752q9866n3225J3260O5156N7284J9068J6431N0178N7579J9787O34M8702J13971J10333
79742I1587L1865m4209n8827k6408J0509L0651K2073k9885j06183j39700q4452J6558P7528P4321N4570M6966K0863
79725a2173m3386r8837q8280k3150L5487N3981M6620L5978L1312L7316N0211N2519M2065N2620J05537J50584J07103
79708E35507k7006j55388j93169j56986j18152j02739q0446l3249J3546L3799L7978N1468P6418R3543R0533P0552
79692A36209L7168q881n2429o1709k0814M1868P5717N9426J6404k1620m6783o3876o7711m9292j2952K9221P0571
79675F0517J00108Q9536J7081r1240j66021j55005p2968J6693O4565P0609O0156M1410L410m7583p7065o6231m6599
79658a98627n8310q3786o6063J117M8920K4004l5926n3953j2747M0048O4055N6516K2131l3615p5668n4470K7358
79641c89016R7838R2259K7493k1867p521N1735J03362J14924R3839O6787M9324L8652L0093K4334J1569l2549j14249
79624B37007j95163k22801j85577j18358n8685k1143j0150k4996m3388k8838K7385Q7899J06631P3320J3655l8435
79608d01637n8978m3442j5492j3249m6834p6560n4964R783N5851M4468J4870L6103J10031J59540J31122P3900P3502
79591a986J25560J34295M4119q7977j78414k16172k26954j89811o7130R9312J99782J75832P3586l0411j01456j31109
79575c78934j09173m7166R667L1286M0266P1703J16504J33093J03701N6706L7290O3568J03144R5252J6247p9844
79559B63310j14125p4255j7732J4434L6933O1806O0548J9324j8399j2185J0677M241j3289R695N8253N1990m0368
79542C00858j43472j61660q9142n071K1042r145m7966o0843m7586j6336L7980J11489J62823J43600O6259P247J9893
79525B89970P0846R1138O5658L3995J9624N843j9088m0081n1813p5636j13864j18932m7222O7171J31078R3309N77
79508D02573o1310n8621j8522L0390P7980R2097K1435j17919k04349j30687M7873J56172J00189l7789j24298j26262
79492D8952r6446p0790m7171l0720l0212k2431K0363P3750Q6149N8303M4191O8000R1776P9140M5806K6629K7973
79475C73262L2526K2768j6164q7388j57502j68791j01045m036N2066M5608Q261k0829k4114k182L0607M5359J6393
79458D4799m6659r4448q3124k7430O933k1581p3406p0108O830Q7179R1752J6844p3015j11901p8087p57N9452O3074
79440c03653M2556O5972J30198J42047M9036o5225q7538l8289l7179j19384j84594j45860l9932M6229Q4146R3896
79424c67574Q8035P7702Q7619J14557J08728M3308l2745n8980m8150n4521q2334q1593k5789N1796R5548P0520j6866
79407c0739j07338j18688l1165O9560P8959m802q8164j01797o3145k0094J2886M3813O9901Q0710P1123L6633k1025
79390a23372p2554p3134j4548N4595P8399M8468k609m1185m6507n971O9377J27898J10274J4709r1040j40861j37870
79373b45931j26594j12279n2812N8157J48591J48916Q6303M8386O8170R9336R9977P8506M8208L189l5370j5066O2423
79356C62110J08159N3163n3616j11238r4367n5151l1068k0236k5956n1912o2635k0455M0418M6571n090l9999j5761
79339B2937L1163O1503Q1724R3372O9020J7104L212N7015J11944Q9973M174p0585q8415m7101M3244J45870J83795
79322H09949J06476m0701j61083k06079j89315j30859m7804J4639R155m8996r1193p6885k9252R242J8873K871j6189
79305f7151m368M0282O0954O210q4603j15196n5320K6778O4820O6452O2521M6455O263k9416k7326l668K896p637n667
79286a6721R620K832m5315j07684j38242j14896n7205j2204j3624m3569m6821M270P4003J06659Q8618M9615K0505
79269b40159J3227K7430M8610M7652R556l9216n3341j7113M4100R0755Q9619K5217p4733j32698q2976M6712J45308
79252e2050J28462K0996q1404j11405p5274k1216P055j1133p1153j40492j66051j05096L4715J85351K62027K30045
79236C3377J30252L7601J12J7086N6879P9143N3436j6630q6056j06439p7527m5669m6896o8595p4878n2319j6765
79219a83888J3188L2262M2118M4486M3687M6024N0533M4399J4695l2801p0073o7485j8783N5934J27038J67403J55295
79202D64032Q7649j766n7698n5023k5661k0805n7550j15541j67401j87617j48057m3788P5568J36278J15135N9521
79186E7276K4078J3425J068k1354l8026l8536l1196k9905l9980n4076n6910m0436j6219k597K19P147K1231L1485
79168b13306M0603O7188J08758J29703J04704N1852K474l9835q5102j20523j18408p3017o563N3525Q5077P4371L5038
79151I6539J1635L3940P2721O8672K571q7581j52715j68317j31132n6022K0895O7907R2584J23377J54450J44292
79135B93816P9394M143l1093k2922R81J9392J5788k9088j07062j65269j58170j07137p0608n9906k7131N4095J36038
79118a74739J50752R2540J7577k6508m0281m3197l6034r364K7240M6232L1168p631m5295o0474m5346j2418R975O432
79100a19371M57L0602R3874J36901J18979O1899J5725l907j4259j7276O656N5361Q9669P2725L745r0775j76566
79083B64439k19458k00997j37676o7404j1858L1578O4846Q4170R9052J21427J30117Q5050q033q4926r7226o5825
79067a2724l6521j8135K337J5334L053k0398k4559q489L920N445R638K1430L3596M3583M5863K2220k6730n6405k7382
79048b4924K9719M4515m93n2814o5995m5068j1119K7808N4465L9887j0375m5155k9839R271K3716k733n5283j09547
79030b23964j31780r4915k0866K7371K3748J3656L9525P2131N9777J2042j7222o197K7717P5645J33514J63653J23539
79013B77374L4127l7377o6988r0351j24384j36283j10176q2471p6953n8180P432Q6589J22777J12911R2047O6073
78997A6167J2175o4801j24746j40207j14997n8942J7441Q3298J02032P4918M0344K2504R429j1713k9999l5453l8430
78980b40980m3000k5109L3867J04047J28788R2940M5925M2826P5107Q1244K8989l5754m3901N362M2793K1709k8434
78963B86419o0654p7979r8867r1229r648J09019J60073J01632J2254j2216L1490Q3670J10497J08340N6702o0427
78947F49076j92153k45433j90362r7118m8031m5435k8368M2135J36731J86964J48143L9192p4640j42097j64329
78932b5725j68321j62164j41447j22259j25037j26731p7070K2123R8771J01033O8151O9231R8116Q3919K928p3911
78916d78393o6605J5928R2826J07258P4899M3374L5865M5309N8423N9864K4357o0446j53972j76254q9165M8692
78900d18040J35003J26418O4801R929j7569k2209m640K6994M1960J4175m3809r4136j12297r6802n4699j040L6193
78883d09768L7601J9782J9808M7663P0388N0469r228o3652o6201j3949M5514O1305L6299J9887L5121M0288r596q5328
78865a73597j11480o6753q222J5137K4533N6846Q8820O7054j245m2934j6657K7814J8315l7798o2112j3810N0288
78848a85801M6922k6289q9494q2801l3324n277j3790k0851k550J9909K2966K0283L7547O6721P1061L1330l1721q0701
78830b55860r3277p0548k8881J0467L2490L6098K8643J4652k154q970N651K5092J0584m4870q4651m5795N1436J08727
78812c11166O1498m3779j06352p8873R026J05479J70375J73087J12571M1769K1161L9576L0927k0150m9906j9353
78796A35890J6303r431p2199r7702o8408k5522P866L5881M0193k626n7309n9134j5756o315n9597j05014p7437n623
78778d25940M6759P1743R5676J10244Q4765K6913j7877j9860J1587M4045M2007m601n3331m5681P324K2452l8722
78761d2497j02630q5299j1794L3658L6413M7939P8596Q5458O2153M8889M0138k7847j63258k67135k41981j01980
78745f11177N9097J61183J70932J01003J9528Q674O4558Q2818n139j24805j48627n9588M3734Q5210Q1684P8806Q6878
78728I4769R8343J15574J34513J33488R8651L9373k9290r5081j35756j28526q3121l8764j5874M933M1667P2773O2787
78711C70459J4323k7900k6213R488L7037L3545J9442K1640K5658o654p0606j08289q4482l6617j6519j6062K466K7998
78693A68714J3564m0764q0000p5103n3754l8467j3603K3000L4118N467j6256P298L9779K4733k4785m8212l0690j4827
78675a19788k2489k0728K0605P8385J03779P7309K3281j5393j1873K0245L6667J1934k4601k2051K5894P1939P3541
78658C06656L6136p942m0101o0658o8116n2096r312M0563O3672M4431M706k4754m9175r8255j62723j80941j17688
78641c75597k5122J5995m174k8872k3874q994k478R890L6040N5523N6991N8473O8472O3526L0475k64P609M8444Q8376
78622G0439J03905Q4793K5615n5443j09781j02792n4438j2039L469J069j2807l9143o6258p2289m8155m747L5674
78605b52928M8506K7329N565K6992P5243P1511k1537j30556j56805j01725m7194l4398l8966n7423j22747k08062
78589i17195k07537p5948P8029J15109M4063j525N4023J50413J98619J86135J46604R1306K2518k5218j5591L1367
78573a24828O0604N9088O7116J05139J31545R7164J3588o1321r0202q1203n6713k6634P309M4900Q8053J28068J32022
78556D93695O8325m4358j35819j46943q2174M826N8449M9902r906o5730n2416L5976J25537J38355P8755J8748R179
78539E44401L4896N0516K7566l3457j06400j48963j35037q4640m1522k0285l40K7596M2360L0177R794M94r220l5879
78521A52057o1283m8223O222N5793N2327J43m5321l7752L981J4095l8477j06346j22943q6544m7599k1530L2148
78504b99252J27131J97261J68740O0413l2549m9749k3781k2130o0513r2837p6334k5596Q533M817p204r36J365l0721
78486a53342o8701n0756K3564P9545O8898L3455L2417N2296M0700k103k5680j0854Q404M532j2649l0773n3408o9815
78468a34270m9045J2857P0626P7443L3638k6774p2396p9718l1125O0356J37729J43193P7456Qk9954l283M2564O2833
78450B92138M1777R2l0198l8529m0508n2670p4107r4873j06895r8252n2743K7771J08367J45157J23957O6232L384
78433B20100m2092n6856l8051K409M6750Q3759J00068O7826k8076j42453j83437j03986L4522J18920R7959J5090
78417A92452o0640r7608r3707n0560J8897Q3123J16720J16381P9679k202j07127j69248j41866n4491K6895P3702
78401f9600Q9351O0228k3654j11172j27442p8122m7000p0085q3566l1906M1468O4352L9217J3389p269m0356n4878
78384d37045j748R0789J31172Q4814J4078j9125k7758m5885n4232q884P9896J42423J23694L9034m7364q5448p3769
78367i5358l7492Q691N6755P7659M0294l0511o0882k2371K3082J2860k5471k9740r142j7359m5159l2021J7644K6168
78349a42353k9404p2217m5505N968K4850L5021P9647J27103J17930O4687K3704q465q5607j98490k47469j57075K4284
78332d83391J65343J74929P5353l1310o3499l0040M270J1840K5364O2602Q0560L9320k9628o3563m6914n934M3376
78315g1322R0485J01550N7500N762J1523O3149Q5546M6156j1229m0367m0032k0031J7325M3714J3651o1777r9835
78298A91768m3156O2402J21376R4865K5081k3052j6790L1656Q2237J01492Q8041N7207R520o0065j29070j60839
78282D32673j51520j24641p8530J1016J24405J88018J57050O7864j5670o8009r2983r5151q8621r1652q5749k9792
78266E8708N3879O9150k5171j31972j31568m1260J8355p417n2169l6736L9953J24472J63960J30935M4338k9323l9991
78249B08143j5161j3050l2631l1788j8058l9623q6064q7818l2704O503o529j1734L6424Q2152O0513O198r333N772
78231B1212l634l2536l3347j4727k7510o0171m2391L7049J01361R6962N8402L3348J3307j9857l8656j4506K2096
78214I6402J7886k8759p0326p0884l3631J3985L5560P549m5864o2806k0426K2660O62o2259p8148j0819Q5042J42640
78196f1536J48825J16291M3543n8365j33605j26732n3021J5861L7748L6935M8615O3722N3095J9887p304k2389m5194
78179G6376p5501q1977n2643k2686k5040l9128k3613J8024M6198N0257N7086P1135N6920J805m8947n2645k9434k3496
78161i7309l3443k8699j5158k6987n5318m4969J8480O9035M3620k7666n5907k417Q4968J38647J36219R3517L0284
78144B26897l3260o7706n4562j3397J5357J8732J9639K7541Q227o7079j55836j69688p7808M7504J11076R7416O5641
78127a306O1306P2727P2158N8046L8845N642m9013r6482q5713m44J08524J58228J04912j6482j25071j69328j66075
78110b9526j60084j58188j26787n2919K4662O3934P4784R5481J26206J23926O9955Q125p743J5879K4073r929m9579
78093C2270m4738N368N4899O4899L6700k331k8355l4665k9870k8567l6333m1500k9155l720J3339J1272L344N436
78075e1707J2516Q551m781k147L7639J00029J35292R9219M96r8328j38056j16443p3266l3307R896N7812R0138R5118
78057A28671Q5602O9887L7465p307l1977k4656k1636m8142o3730j8804N5837P6600J8328o0431j04003j10681q9220
78040a08197l1394M5040Q6372P6183P0053J12143J58280J33858L8260o1769j20451j39417j21578o1553J3416M7142
78024A36388J7479l7956o8343n1053J4231J08292J75665J52215M3591n3930n1108K7669P0428Q873j06470j70201
78008B15770j37561n7940m404M510K517J4092K3673R018k3267n4101q2207j10290j16048p4414p507K6252M512k9917
77990c97312k8908J905K5643K6897J0667k7693q8150j30028r7472P899J15533J63923J60316J41988J08167K8182
77974B1557r2946j95080k17767j54033m5191N7890J22054J40866J30995J11474Q1756L3007j6807k4322K3478P2455
77958D9386M9475n2386j57682j83960j21745l4671J1860J5073K5782P6163J29717J22906N1719j6483k8680p279Q1
77941g0724m704R865L6014L5772J1359O817L2372M4414J8372j2730j9376k4248n2677p9149p0189m6340m7904o0989
77923b94045l5148L1791Q1062P3907M1588L6769O4985Q5318O3804R186m0681n8801n0819l5320j3169K3746N7806
77906D1979N3528J1529j9061l535L3159M9042M2511L6218L1873J6429j1674n5900j29229k07253k11815j01994M6263
77889c77930J20086J09690R3525R9207P2843n047p0482p7636o5678p7978q8559o3547k9693j8577j214M8750P6535
77872b55705J7824q0502j02237j7941Q4044J28022J31795J35855J27446Q0203J8279j0794j562J2300R699m987k9512
77855B42227o7662j04145j05926o0991J781M4659O1454P0174P2610M6172j5233p5170r2639p2774n1278l6772o751
77838a50264L6599N2267K3758l050K0110P3222R4055N4861k2099j03724j56329j34043j5773J40025K27737J99791
77822C37143J05301J5454m6019q1188p8299l7841q636m6123j37117k02839j81886q6342K4295R7456J09468O3268r505
77805a63410n2366j7668Q6282J85526J94887R6811l4805j01989p8872l1244l5626r3629j41964j35672r3295n4559
77789d71593k2670K5948Q8303J24710J08251N8691J2939j7247l7642m0033j0895L2764N1100L4703K1365M2409P5587
77772G6690P4904L2500j5270l7473l9954m5678o2923p9203p5828m5013m74K8685K4126O19o119K1020N7264N9716
77754c2411J9168j6212J4970J09723J84869J63791O8167j2712m1224o9760j41863k08856j92357r6778l248L4715
77738b20018L6411L9187N0408O0339N7715K3368m8963j14641j06391k0563O4936Q2356M7705J8527J6545K5600L3328
77721D5849L4211J4523k4963m9012l1728n951k3411p1480p8014q371Q2405J13098O6861J479j6356K3114O3645L9637
77703A75536m7799j20372j06998k7098L8589M8914L1899J4780j9933q2261j24214q9114M840P1803N0701l3392j00304
77686c14423r0663j3856O4151Q2006M1175j019R92L5746O3645O7290N5700M1766M0418O7245J06725J02729K5182
77669C74809o4987p0968J4584R1839Q0007J1417l3603m3080p3224j50552k26942k39070j78184q7829j2816L6055
77653e72544P4679J12261J30018J01692L5814k0094k9163m849J2269K492k3958m9139n6700l3229J3795M9681N0961
77636b06014M0060N1673P5401P1528L9823K4272L9137M0242l420n3063n5025k1269p149k6002l7844k1600o903j8260
77618g4413l1576j5781J3373J9291P363J8572N9808Q2532M9681p540k9191m625K2496J9384j381j5406j8986j4792
77600G8809K579K4726J9949k5506p5853q6807o5247n5027p1773q7184p6795m8347j7884Q913K1370J318m6282q2947
77582e81988p5613l0674K4994Q0630J40383J94339K12247J75400J10692P8825J09229J47360R9894m7099j88414
77567D50205k16193j48132q6964p4913o3172k4402n346l1840m0525L0644J34704J67926J02124J945p1591j12228
77551A2242j27877j07812m4778M4671J30797J81348J70590J06465L9172J0033j14l7955j02136j40077j18657o1099
77535d5187j1910J419k7128p7597r9170m7459O0156J52853J77310J37122O5062o527m3562k2802L1758N7209K0838
77518C22385m0898p1035n6708k3731J1513N4679J04784J38481J28466O8750j7815r1458j18958r4892m4649o063j916
77501B60935k1196k9119q767R034j9143p9663j00996m3645M0431P0802L5777j1591l3874m0441n0234o9018r8248
77484a88956j25454j14259m8669K3330M3872L5272P2091J60620K17202J84557J00221K0361n5099j36751j86591
77469A747j64241r3002k6959J4560L2910J1139m9814q6629l5604P1857J39049J25599P9599M7149J4356l9609q5494
77452d3387p7594j7618M6148P2420O1358M2399L8845M2292K2979k7953p3924o6654l250O4662Q0204L1621m2498q9399
77434F0651q8586o8176o7343q3140p7116l9775j2071j9532k2690K4511R4598J19491Q9641N8536M6338N916q8342
77417f7089j74868j75552r9927k9574j2167j6056R439O7164J17597J24100P7353m808q0830j01002m7941L3475O9006
77400c11680L3149j8933j5497M5811J00408J01716P2122N7956O2808N1632O504m9656q3545q5713p1439o0013n6623
77383b20993m9872k7875L110K3965K7043K1638J3275k820k0652k0055J317J6951J2131R739K7064L2277j3581q4223
77365b51561j06051n1674K7370P2503Q3093Q9633R6164Q1564M1455j711k7139l3097k5191l907K8913N7968N7694
77348A36026J4306n2526r6305q2723k3297L6757O3792O0802M8184L3157Q107k6113m8354l6779J871L2552K7984j759
77330I5682k4964k7642k3119k5963l5152m5002n4361o0600o1873o7039q0985p8369k3763P0619J40408J42189J01362
77313e8572O5703M5319L0292L4025P2385J18637J26398Q9893M1868K69m2491q4066j08109j12847j05244p3558j0395
77296B9507M3277L2066l0506o8488m8149k1902m4759r9671j38990j52511j51139j21865n1636K6230O1191N2599M3760
77279f40986N3398N6964M1566L7137P1536J21993J39482J11086P1924N2838M0963J0542k4217k3766M398q882j02869
77262A3107k10627k25723j37128m2843j9780l3222l431P9765J49120J44594O9324k8403r8412j15375q4390k7334
77246e70758L6032Q6995R7649N1436j9842n0867j2089N8025J01819R7245N4203o068m7172l3477J7544L5404j1500
77229a15421n9773l7209K5864L6940k2375p4037o3993l3326m0010o6541n0761K2129R9608J21148P1466j3339p1933
77212b71563o1393N671P2336R3589P0735K8033j9606o2087q2590p4659n5782m2643k6750M042L5357M5096M1555N1419
77194b49240P3362P5269M0929r218m9775p4291p8634n2374n962K1091O688j8464j1736J9331K9509K987k8672l6414
77176c45614k4107l39M1437R3318J16522Q6709L5475J3156K1594J8065j6315m4868k1824M9374J14958J21228O5736
77159C24505L569n857L3569N6553K1704k8264k3859L0875O1026K1911m8987r0325q2143l6050L2959R2575Q9222L617
77141D56600j06698j59983j37795q9355n9189m7051l8410l6453m7741n8156m2813L372N3606P1554N0109K5229L7552
77124a25622P8890R8670P2681L7849L6499N1881L4613k2026p3609q6772p0122m1403o019J9907O627m3382p7693n3394
77106a62425N381L9682L0213O494r354k9247o3540r2024q7849m9944M396O2531J14152J39962J24890P7395J8248
77089A28961m2129r5043j13862p8921k4798k0811q1304j28163p8045N1802J61040J78478J19373L6796l8841r8865
77073a24332j31725j25977q5338k7787K2606M4057L4873K1503K7223L7180K4260N270K7170Q8585J23520Q7236J5347
77056F3671l3891n5442p5248q8218p0809l5046j7337k1360j7016R432M5836Q8123J39192J76035J63827J07929N1755
77039D31433J8354o294k9386l6926l2593m3839p2512q3283o0319l0587p803L7358J14249J64015J24455J5438q6732
77022D15028j36265j32951p8323J8421R9766R5874J8008l9656j7033L7977M2073j5323p3749q4909n4710j6323J739
77005G9644j4494n5249q6879q4573o4570o2285q1305q9508o5640k1674K4909O8644R3409O7245j0961q3377q9094
76988d75758l9350j006n293j0293L2845J08243J54864J39936Q6788L7847J5418J8326L1464K7964j7482r6151j53911
76971a45549j36816n4431K1052L2325n15j2858K1720P0410R9106J13030J23830J10451M6535m7851j13331j08997
76955A8111m7367J8553L0004l3753j22432j49099q9734k2577k5253o2219m0252M1763Q4832M0337k2344l2979j7763
76938d32172k1586j2457N1092J12458P8636l1713r8543o1364J3458M0400J5156j7500l2812k9515j1408K477j5568
76921d50961o0179q6939o3725K408R4094J92438K46354J95520O0120m5287l7718L0910M6216k3290j06868j34351
76905a41258r9204k9816M1651P7482N5488P296n371L3359P7814R1361Q8377Q4769N4501k1338r3759q9709j0229O3876
76887A85290P0871L0020r729m0067p9203j17188j22110r4315p0553o5441m7324O714O2911P0024K9698o626o290J1721
76869a91597J6840J0016J1903K7748M2376M0580J8313j9986o1143q1758n9638N733Q3653J25468R6142O357q3280
76852a2273j03495l7145O1441J17468J07259P0784N3376N1958L2517j3506n8983q8820j24228j77782k09901j65886
76836d97216m8929P5116J42869J35985O9149k0832p2837l9950M8618J04572Q2089K4777r527k2528l9324m7920k7270
76819a43158J361R112J5433M6312O3092Q553q7717j30953r3639m8899n4306p6883o4535k6154K41O953L920q849j8690
76800e98806O571O4855J01835Q6916O2562P0467P4039J8104o7070r4930m3506K1839M6270M1192L1930J2338k0934
76783a86328l7593j4822J9815K3622K398N198N5611J13813J19475O2538l557k2462L414K5763J8315P918L0271P6348
76765B99737J00544P0651n143r1570j51038j60150j16548l6996M5212Q0611K7238r3629j79351j34286J4034J32326
76749a98358J30468M6904l1923p7165j03738j10163r3770q4336r6407q2302n455O9766N1358k9584m1325O1394J69059
76732d25577J72027R6989L6032J3839l941k2947j9222J462J4049K9083P1903J13093Q4424k4143j34088j63841j10287
76715b71145l1337K1497L7227L6175M3826O3299P1061N2860L5429N4823R6141J00351L9497m7828j08239j27052
76699F6585j13192o8857o008L6859L4582J2549L827j1242o8462j30645j03838L4103J78803K15091J47507O9305L4899
76682C31866K3326J2251J7528M4889N9734L5225r067m6445q5365j34437j54382r6873J4857R2653Q1493J5625l6422
76665A66456m8489l5552p970L0204M8167M435q5838j38385r1467R960O5015M5848K4972O0633J10029R9070L8230N186
76647C00504K5803M1233O377m0249l8556N212L4086J6664l2354q8781j33910j41494r3366j6343K8499R930l6473
76630a53218m8195l600N8942Q4348N5087J643l4636l9442k3976r59K1199L0266K0761R839J6534K6098O766l4518
76612g061n1568k6635J725n15j6163k1296l2589o3166o7661L580J08514J37805M5988r0628j62640j36562o1493j696
76594d42061J6311R933J2157L3097N2545N7440O4525P9821O2416k1835j24087j51863q9723j8744R66J785K9231N6488
76576c71598L7622k04O977N0792N4151j0006p1642o1713m506K8611K3981L4940R4651J63705J78260J24923M9300K407
76558C30651l983N550j516m3479j13773j80290k03215j65921q7582k074O5454R3346N4579n4915j77607k17974j30568
76541h33317K5176J37557J47367Q7839K9310R013K0379M4558O6900P1465M8591J5384O460L0068N0346L1269j5685
76524b7320n0363n9409o3652p2948o6726k8632K5787O8093Q2644O4575J7186l4324m9449j1943N0507R5811R9410
76507C9247N3510l3643j22628j59172j28969p1552k3135J9643N7782N9864J8015p448L8340J08984J02430M25r8073
76490a46380r4547L985J09976J47688J07736L7937r841l6997r0046j74931k12249j29218K4884J21644J09026N7524
76474a73809M4178O0628O0580L5947Q689q031p214J6903M5841M5549J8389N388J8059J7885j1357k6663J856L6099
76456A88917L4377K0737L3785M9895K2300l6191p8082j03747j45472j83729j59054p0653J2701N5828R8530J64203
76440i5655J95512J33785J7160n9597o0461k9510r044O385K6327K7146j0007n4334n7546k1883j129l0105q2584
76423a05540j10583r9619o6794k6683J3973M1683M6302M0344M1243L7465Q3p0853j36841j60317j32158o4155J6202
76406g36248O3946M5467j9130o8481o3844j8479L6877Q5623J16648J19368J01591Q5529P6698O2260M1113K1057j2773
76389f2778p8416j38889j20928j5866R0472J20235Q9198N7500M4295L4409K6139K1880L771l4074n7849m2187j4371
76372g7459n672N741M9405R4349R0607N4717M5654P0106Q0429N8952L3306O259n6814j52738k16400j99667j26464
76355b45689m3926L6696J19253J78534J75893J08615K1511k8505j7119K6715M5962J3902l8738o7230o5500n2410
76339A67964k8284J5855N8220N9126J2982m6895r0128j01651o4431K3092J13780J41946R2578N790q0676j48206
76323A31062j66151j07626p624N3612M6753K2784K6016L2134N607l0610k9773L548J8859j0688n7356p5274m9292p961
76305b01980P731q437k2474j4148j0676l1784k9566N3708J76690K22518J44998K2067n7553q8633r8463q1002l9967
76288e6971l1392q6679j35265q2966N3846J62077J68068R8781J7961l6075n0234l2300j4859k0028k0308K1707Q0170
76271C5533Q7324L2454j7074j0200K3325K6262j3054o9128j20549j47224j18502k8373P0450J05832O0013j8539p3249
76254a74699q8409q3067p7875p3915n4822r221M4661O6616L8904o747k5127j3709p877k0347j7531K6448P8439Q0739
76236c17539K8406j9988j3946L2098O4713N4058J4429k3649m2056l9286k1939L008L0566N3515O1240N1960M0827
76219d3583L9205L0287q228n5837n9678q385M1108L7926N502j150K2142L6001K8486K4083K5672J937n5767j08803
76201d9082j22000j05607q8293p3728m1616K2898J07873J70260J59383O8358m2930j02428r7513o6283l3652K893
76185b91467L5680M6561M2620M1869K6050l2649r5428p9784K0020J05004R8639L9788Q943K2132M8380P7383J06659
76168B20400J00302K6871q0282j51699j55531j06747l2244L1457L8772j5105o8483o2766j1121M4590J04162J75955
76152E8531K13141J63352O2303l330j7385l7022p6574p9340k4740K1732N494l7233m2952j3116N361n632k8098n2878
76134A11614r0669j44695j95308k08027j54643m6074N5425Q7459N7002K7693L4852N4349O3520Q0138J15284J37522
76118a4558J24316J10246J35388J71509J51768O4332l0106p5456p6727p1942p8182q0007n5076J29O2225R3633P0370
76101E01862L384o7630j04390j00906q9324j07050j49402j68543j36987r2980q6479r2549l5535Q8889J77623J46593
76085c13424M6304m983K6848P2638P9885P5810R2553R7559M6442l3841o9228l2595L2641Q0228J07009J19962R9305
76068E23113K5630p6988j56023j80736j54851r1929j0886M8457M6877k488l6186j5425K6831L6885J2578p794r268
76051b2203j1980k4847k8089r852J0721R147j6509n1569p9650q5100n8648q560M5976R3109J25595J26406Q3729K1881
76033A19557j1984k175J7775J1824j5645l4040k4128P794L4936K5120k5152o9419n8555j7708l0092j18175j88198
76016c78265j41290o189J00091J26936J33653J70961J93760J35824K1986n4894n2045j7237j0061l1416m8384n0178
76000I3252m8465m4912l2249j7593j2647l977L3777R0034J16143Q4773K3792k6485o2253r7280j18675r7467l6795
75983a57027J8744K3102l3306j11687j37926n6561R6750K02594J79540P7405J959k5673o1665j06742q2334L1143
75967a41684J27179J09259K5557j0271J6031K3183k1629n8215m0565p305j7187p2587j36089j76090j68373r7515O631
75950f39670O8994M7407r630j9208L7654J08287J45260J50347J42273J19176O8236q601r0332j45165j41783p5080
75934b41835J1582N5030M0536K0542M3163Q2574P5053J2730m3519n0713l7327m6422o4314m5545J3922P1680R6637
75917f226R0753N7890n214q0802j32200j44696j31004r1691j6275O1693O7163j8049j03056q9642j016M9540P331
75900d85501o7259r4405o6130j9525K8969Q0999J18398J14561P7165M3890L2858K5939J0158R077M8515J01005R6277
75883E4991K647j19710j71915j20022k1710N1756Q7631J09018J14439Q2243K5004n814J8053O5040Q5676O9519M2743
75866C69589K6018J7149R178M738P155Q317n037l2083n1122m1208j1334O220K89J005L4038O7806M1088n3912j49783
75847B48111j78733j40607p8413j6385M4717Q9371Q7467L9095q779m109O0468J39609J67188J05633j4517j06650
75831D33466j04267k9698L3948M0516K1527K1216K8613M807m6921p9918o8847l9283k6136l1336l5095k7144j1721
75814H3727L892J2253Q095k060m523k639k0439o4980r8955p7684j1640L5417K1622k0379k5301K0341N9519L4683
75796d9051m3166j10453j24525r8833o6612l8980j4843o247k0444k8373P891P1081R3079M3954j7738j7125L7527
75779c82858O8516L3159k8675n8861n4047n0366n8357m5466J5906J04298J64896J62630J08789L6906l0267p8454
75763i2251q5382l8722L1067P1968P6140Q7156J18473J05808j1059j80841k71970k14049o5565O3025J11631Q9699
75747b04872M1160J4051L0936O3687O0671J5912j6526M141M9147O4763M5089K4997K0442J5157l323l3147p9813
75730A12472j47757k03605j87615q5182L7212R4426P1217K7150K0030M9152P6949Q0215O0824K2062l5374r1097
75714i8921j05051n6382K9102J01801J29864J12432O8707K6188L737p154k7431m5831j9183N7750J16565R3882K2901
75697D02976q233K1479M6360J9280k7773m9135n3892p2373r4861q4842l3574K6734N2519K2394l7088n8405l673O6800
75679A34693M7853p0139j69769j49873n0414J0944j3122o5479p0373n792R0438J48147J19054L5675j1794J1456L4990
75662B6495j0978q4922r0776j2748P4170J06806Q0807J3940o5891j04876o6791O977M2698L5296L8973O4263O3666
75645A17109K6865Q451L7134O9204O0317J8458m0371j18598j83902j61726l5259J00877J41966Q8390J4877l0215
75629A13577m3312k5212J5466M2239K8826J014l730K459j7420o0438r3552j11121j29220j32868q5909K852P4503
75612d21846R4587R2218J06322J24303R9216J5763p9236j15453o9075O937L3973p371o0702o8025l4995n972p52k903
75594b93011P111L4137P0868R6901R1171O4196N4988P3127P3277J9850n3267r0326r3438j01000j07394p0684K798
75577b20696N0209M3341K7220M1555N6230K2175n1386j10401j23091r8573n4319J239N6878R2570R0569N0156k751
75560a29075k6155k308L4352L6094R087O754M8772Q8821Q3427N1622L4583L2315K0476M6j6038m1483q8927j20882
75542B1481q9557k1278L882l3719o4927m0391o25M863P388O1851J38302J47847O5374m3686j19392j61237j74910
75525b98734j38242n6878L951o907n7525q1255o0304j5761M8498J28166J68258J08251j7796r5516o5288J4214O1166
75508c61702P1300Q4677J03076R8126P5077O9468Q4933Q1390L0660m9101j18340j47752j24177n6240J6951M9053
75492i2601L2921O854L348Q887q974m6436n8542j4305N7642R2679N9651m648l7240j6590K3551M1848L3017K1777
75474A02839K8351M5119L8755j9766j10930j61683j17380k0054K5662k0388q2454p0677P884Q1427J18365J38430
75458a6500J39036Q6405p606o6150m0604K0242L4351q151m5041l3236J432Q398k4773o6003p7338m6966O505M6088
75440h9911L4883l9188j42860k07673j79190o5191O9607J56776J65867J05206J1382n6847n0073K0372Q5049R6421
75424h5370Q3948R7573J19972Q5119j8888j14821j18847k6442R4458J67395J55657P7349j0679o0327o9770o1373
75408C14954l8315j34J2870m6275j41366j64433p3397L8158N8535j857m9693n0629n1301p0234n4294K7809J13744
75391a75858J18358M4251k4431k9302j872j2701p8286j38393j28039n5987R243K8396L4499P2531J30464J63378
75375d3749J59153J34399Q3142j1724j16447j58545j20353o6576n1227m8873j6622K5079K9516P009N526K5046K0004
75358a45242j2313j3981M2796J05110J12706P7432N0085M1684K3436j4077m7854o4331p5664r1544j06185j18256
75342b36198j34762j46653j27828p3496j8480J527o012l508K7296O7035Q8795R0584R0913R9776J04388Q7526N4334
75325c4763K8571J7672l114n3245j02046r0407n312R3014J35511J14651O7438J0109o7289j42884j50687n8407P0698
75308a70490J35540J09882N8552L8407K8794j2419o1506n0542L1002J09627J17987O7728O211n6612j30596j82523
75292C9042j56785o4639L940j6562r0356j33238j09280m3481L1904R8714J33311J12718M9248j0962l4734k8714j6521
75275b36395j0636j2870k1760k8789k2763q004m532j8720k5162O999P2261J24047J15741M6885k8895m4447K2863
75258g4177J27090J89639J63909O9868k6998o7743m2780J909L152o0074j40772j65743j07294q579O1208O7603K6617
75241A6835k5322o3867q2362q0537o0888l5953k4441k7996k1084J6511O0519O2034J4397k6445o808N9922J14626
75224a10859J20465Q5040L2002j6211l5110j2634K8312M5866K2190k4225o2724o9648l7649P460J5276k7872o1218
75207a01539k0080O5845J02325N9401M599p032m967l1727o7852q0559q9539j18305j24515n5361N3652J13146J01496
75190b01012P6478O8072L9732k6600q0181p1011j6384L6392P0087Q6562P4505K7129l1231o5007n5964n44Q5053
75173A6076J40552R3428m4217j51977j27498j0476P1705O0634J0682j1000j192J0696J0311q342n0901r6121r6834
75156a84474l6873L7788P0754N8626M1013M5896O7511Q4248P7567M3537J528j9669j6515j5926l3110m5205k6583R508
75138A59621K9480K3497L820k7132p5467j28365j56767j44324r3805j5960O1566R0734N0899m390M840Q2556J45567
75121F370J28417N6457o028l6884n1954n4889l3528J0665O3297J13631J43697J20832L5630o6436j25401j29360
75105A74516j07708p8591m1036n664J3238L2871Q1859J40711J49432Q8582J0940k6860k7956k8470l9577m3894k8432
75088B63961K201L0918L2772o255o2947r1660p8829o0206p2327j12085j54194j76523j56619q5075l189J9475k2257
75071g32839m6122N252P8149R3015O9966Q7655J44432J56599R5150K8828Q009o383n5890j01503q4786j8199M2356
75054b36311P3398P8900M9695j1359n3607l2133K0487L6063J1416N303M0104P0255N6830J6851j7332l9354n1457
75037A7749m7278l0205j3861P586N1314R7647R6298L9753j6023k9147k3031k8059k1506K6461Q5355R9234O5473K6162
75019D03922M36j9975k3630J0568N9489P2598M9294M3076P5944J03557Q5727L9360n993n4807j08837j26896p4175
75002E29658J0058M5520P861m6732n7364k8911j7009n8571j26697j54730j08920l1719N359j0624k4138M401M4367
74985a8191M9321K8098K1249L1512K6015p01j2633J1085L9448K4204m3626j17573j30877n7908N0315J10189R8288
74968A08215P2440P9337Q1875K4636o2922r7852o6788m3042p0033r7535o4402J0092N6174L8122k2939p9629q5377
74951b19628k3927O0097R1455N3171J2384K6798O2343M7998j6272n9320l4266L4200R4548J16690R2111K5382n8721
74934C05043j20250j27999p6178R389P0061M6231n5346j42239j26010k6657N1847M8004L09k6826k3615j5647n435
74917b15318K5003P0781J01433J00176Q0222O0118M2407K0882o404l8566p6030j13778j35426j25185q7609m5389
74901c42683j0663L0156Q6322J25847J00200J5835n1979m6834j0699l2515j21190j79306j25063k321P1109M8316J22
74884d45346R594O1929P3574J1530o1776p1454j9539L6243O5776Q4945R8338P5430M897o5039p6333l4371K147m84
74866b49939j4082K176L7967L6690l5613j37021j79255j17571mQ7502J12856J10135J12749J17964J21949J38414
74850A44917J57150J29960L7525o4374j09800j06176j05542j17376j07941p2443m3606k6651J1532P2668J03197O8266
74834b8694O924j8674N4J9473M5n8322j15500j11945k0343J02624J46258N8581q9015j76285j56964q1794j8749J1375
74816e30951K3383L0206L3606L3714L0614K1652Q786P877L8198R2931J28259J02529L0407k4390k2803N878J2790m087
74798A8599j2788l106J1635L0942N6197N5270k474p5635q1146j2004L9116M355o8797r1575m8155J1965N3342P0992
74780d3267N7514J1736l3751m1504j6564J1411L5822O3683P8494N7707J2492l2998q3507j45061j76104j29379l4889
74763d08165K5177K7002K4156M6676N3523J2975l6412m6472k5626J613M8646J19290J47459O2948r2214j86437j51484
74746c77345n6750q240k0189k3210K8872J03906J39893J16294O5335K8466J7146J4744M128j6059l7441m9352l6164
74729a05966J5375Q9007J29792Q9530j3141j01334j21206r3427o5409l9174J1761O6366N8324k4064r5488p9114j6403
74712b94571p460o1053q0849q750R4631J44448J38642J20575R1540K9238m1012o7788n2883m1526l8865m865O1651
74695a8897J02620Q4231L9714J784m8650j26230j83758j64450q3122p844K0121P844k5668n9655n8780k021P3651
74678d49110J02762P2883L8223M0119N2365K9238k1492m7550k3212K0288M0070L3995L1490M1783L4122j9672r6634
74661a20332j38132j14498n4554n007J8146K5206K3506J8279K7831O4806J05388J10398Q3056P2570J02372J22946
74645C41981O6972n9501j70745j87649j09813j282P2039Q3644M9853J1962K303R857r874p2260j25558j07063l0010
74628b35144K8123L1243K9010O7269J01897N7998m9255j18380q8475o355M5656L8527n495n3539p0141k8081M9418
74611b05724R1528O6790L5911O6921J22783R9495k6459j54558j83099j21718m9604m884L6341Q9538J22341R8905
74595H4507L4369j8860l2731l0670m5248o6275n6522j6081M973k1560m8034p829Q6094J42811R9638p015q8361r3285
74577h0079l8442K5526N5275L4517k5883j00999j62429j75870j10074K3067J46443J75634J09622L2722J2749K7572
74561e0649J2363m7497r9620q8832j6069O2965Q8236N1463L893l001K2948L7863L1333K7225J9020l0010j01946
74544h0315j11370k5769O2829N3850k1953n7855l1375j5058m0329n3223k3471m103l9720q5993p0155J6510J25673
74527d01827K06262K18206J43502K6816m0988k6079M106j4640m5584k0679L9220N7786K9610J8597L3735N665q5542
74510A48166j47440r5719K1573Q4901N7390J7253M4289J23053J67876J15580j6449j48946k09306j87564j29778q3271
74494b38392n8908m2594k2159N658L8094O4623P3035O4476N0957L3564n3m7610p8725o3529m448O9433J26390J42338
74476A12150J07181M0687j0086j1617K0215M0288K7292K624j228K3538N6997P1582N0345n845p9019j39661j58675
74459A46768j27899p6351n3318p7472j09354r6851m4978j0581k1348l4790P91P2862J23364J23537R6866P5721O7248
74442E4215O0588L9239j4217r6510j62865j58915q6358j0431J5830J2253L2739Q3188J11809Q2045K5669O740M5840
74425D0859R6971R7265K8194p1813j43065j48368r3389j6078M6487Q8367J27771J64600J60918Q7399j9064q0739
74409C66315p2177n1986p6918j16657r6984j2389N5238L7646m1325j05438j10144o2430J5079J01202J62984J60357
74393A52373Q1819l1818j10534j10826n5859j6266l7317q5969q9099k5899M5568O5649M3825K4716J4583j0654l9655
74376a85363k7956K4390N4322K5028j1412J5236Q8938J24553P8729m196n9305p2263p1791q3692j08341j23577j00590
74359d37290l5266L3441N8639L8986J0188j1865l6771m5947P062J14934J91182J72768J03522O1267M3283m178p0785
74342A93170q5356l4645P244q578l8014k4461J6699L9431M0561L9828K6474j8427p2803r9244j00315r8586q0017
74325b97039j5043O9732J02312O2293J6810L2012Q3439R0045K2539n7571p4158k8031J1087m83k6850j5689J6344
74308h251J1219k9729m1086m008J2517l4702p6549l1391N6903P1568p869q3766q8597o0689m9806l7474K428L7855
74290c61427L3185J3803J2613j761o9088j40008j19309n690Q9317Q3464K3039O532N6353J10233J11332O0024j2003
74273a09391p3715r7444p0229k0307k681l2867n4925o760R1991J51116J11163L408r7725j49407j52371j21850p7925
74256g09919m6321l6734k7029Q341O1824J02894J12313Q8547M0736J197J9991J06147J90283J92227J18083M2914L971
74239B69465l0617q2120j16311j06068q3827r1472j16661j18788q8521m3497Q542O2079R1199P8183N1842N4787P8442
74222a83343P2656K2670k3415j8178K5277N9009O5936P1165Q9927R2907M4281l8012r1848q8114o4784o0529m9934
74205g4329O515P0950N7889l6591j06802p3046J3218M8918J8240j1061l916R24l0467o6512n3656J0495P1512P3899
74187h3820J0361p7981j41483j57324j24855m4841O6858J51189J39554L7192o4877q9462n1451p793K8729P7464
74171c32540J24775J34201J10342R3929R3860P7810L4920m688k5580n4046j07720j55511j52852r3849j2394M9425
74155b19918O7323N3216N1741R0905J34776J21952N6975J6688M4426Q4797O3869j76k0600L3691Q9271N7023o3152
74138F62807j85372k26437j73796p9056r042m439o1015j29198j40473o1940O4780J55146J63196J19351Q0455O3594
74122B38561M6695J5213j8906l7260l2288j0251O794o588m5551o7491m0723J4489N8830Q7111J11330J09040M2487
74105D71492o9439j49875j49448r2264k2280N2178J33058J87324J67354O7502o3172j60156j85627j44779p5162j5731
74089d9025J9085L3204K8111N190k0526l3637m0701n4757o5702n6838m1758m3881m3327N903R7527J61737J50088
74072E0693Q7124J8914m1867r2999j13351r5844p3015o9658o0847j7479L4942M8254K3244O494K7735P6261J26563
74055f4836J52223J27869N4854k1792n3517l8749j0279Q921P004l4432j12314j69968j45659n4278K4989M7028M2609
74038b40327N3177O9934O0725K3268j6699m1057m9724m6120k9361K040M3849P8726Q0786M3981L062M028N0186R8761
74020A89235J16810J17424J27540J39945J18920M7410m8473j22676j47108j26562q8109o3977p6705j21644j57201
74005i5171j32528m6681L2811M0568l529k0442J6631M6461J7586k7700j3725N4833R4924N2461m0298j16518j43013
73988b83330j27215q8776m1731J0023O8935J29869J73089J79021J44048P9262J0272k1119R664N9623M3756n7469
73972B87922j56060j62531r4152k6797J8327O8703J13289J08767O2497K2464j4451r2527j86418k03017j27675o8385
73956d50044r5880j28190n4578R1720J76125J40309N1721m496o524K3387N1508M2900j0050o7246q5927p5711p1946
73939d72922p5353o5908n4983o4512o9153k6654L8102N1340L300k7393J2583P6065R0538N6399K4483J3314k60k5815
73921e16829l9776k0045K7631P9156J13073J24120J22448J14197Q7609L7406l881M110M1813L6081m2057j26428
73905C8628j38845q9783m8586l5823m228P2727J48652J61513J06540K9002k8930n0284l3362R594M7911M9808J1175
73888B45709l8662n9226k7178M4563J06924J07693M3044k9566n0285k8115l0074r0242j52984j31974j8612R5919
73872a3066J15979M1857l8989n1435o218K6075j970o9005j16114j08637o0890r806J9510J9488j0537o1409j03216
73855d28383r7980l6059M6299R5060Q2956K4768m2242q3939q3385m7480n174J3191O248O859M5538J08182J42467
73838b53074J13156M1877j8023l8089l1402j9183n044J2349K5625L3073M7895P4350R0078P2814L0736j5747o4966
73821I6425j16306j39125j04316m1806j4452k3788N865J20363K53897K93656K03833N2630o6115j06792q2508l6430
73805B95031l930J2044K4452K3221j7351q3240j15977r1286n9722o7125p6387k9186M4794N7197o948o2981m5428
73788b02822J5348O0133Q2876J07143J27241J18934Q3672M5360J8580M671J691l028l0964q0975j16425j04321n4653
73771G2461n708J6261J1600k156m493O763M092l6939r1407j03680n9146m47L8620P0713J05507J11480O5715M293
73753B03529k1952j6250j7376l3325l8372k4850j6360l0290n3866n4917n805Q2840J42828J04018n274o2434O16R9770
73735B52530J09888L2820k1151P266P0386J06852J04036O2467j6192q5812p9777q985L3468j045n1577m7882r883M677
73717D62086n105l911M294j3743n7138r3470j10635j17961j07516o0979Q166N7126O0231L0564K649J0511O2908
73700A28077J16883J01065j070j11552j38595q0775j2668J7472K8339M7350O0401L6319k6648r4768j28354j14996
73684a73520q1105o2949n9151l2259K7581O9914M6917j3728l9551m302N1500Q1793P4895L7647j4489m6765k7269
73667a64841K7410O1697M8303J7919J2284L4938N8755N8194K6419j6805l0943M770N3499N4642J213n0748n9472m5578
73649I1656m5071n4092n1765m5975n5055o1813l1492K5434N0602J4305l4376k1424N8340J29184J21989N1239j3359
73632A28327l5752m3010o8368j02449j17490j09196q9754o3578l7150l0508m7644n6392l2652l178k654r723K0053
73615g01118P0054P4726J8538l9191n0782l1552n719L6501R3291J17541P6400Q365k3458q800J7036L2412M2522N2629
73597b20605O3626P9190Q8762O3092k056n6058m1178L9646J26804J62173J25396L6743n0331q3975o9987o8886j09576
73580H2780j38591r4669k457N8864N9225L7332L2301N0161Q8698J39191J65770J36835P7856M1304K6637r107n8478
73563F93652n5576J4593O8594L0261p0110j50846j86357k01003j91282j26850k3361M9109M5698m747m2768l8245J662
73546a87576N2312Q3341P4535L6848K000j7325l4959m8289k0642O1026J32842J06464k1690j55098k05693j80787
73530c22691j39135j00122m1759L3841Q9615J09143J13843J14480R2241M7827K5049N2589R3816R0158L3318l6774
73514B55439q5824j04940r4614o3579l2275p990K9839R0028J33986J18467O0595J6588K535j6410n6497q4773p4166
73497H6409m8278m5604o4919p1044m2112O474M0556M2951L2209L9491O1859N8036R346l8038k5879L5888Q1572P4512
73479B33429L6882j827l8359p0279q2258p4098o7355p0062o5787m6535k2296R322O2716J22087J42236J08827N7163
73462B33806J3660l5610r3083j14612o5480K3376R2584J18426J07523O4400P389j5113K3089P5549P4106J8094l3258
73445D94846m6835m4334m7831m7386l4071k5035l8780p1678j09506j39098j41869j00992k6454M5402Q6399R6183
73429a51039Q4789N6228J8979m826L414L7141O9111P6451N8324L0324M341k1178m6896n7546l8299m513P826j1795
73411A10836l4644l6140k7615k5275j1591M1289J19711J68828J45620N6527n2048j26837j41287j14364r1777r8041
73395a16808j15613j16386r2585m5584K5884J02101J36489J09134O3273M6828L7517k0101j09930j39565n8973O5905
73379b28414J29627J03817M4317O020r270k3906l8413l1812L078M1548N1630L1165O871n490k1161n2531p3040m3461
73361a09425K8213Q0650O2884j1618q3100j05965q3462n1585m0048n0121o4148o6856n1329j4302L5359O5742M5478
73344d13633j1906n0259l3135J4574M2353L1624J41k8797l6543o486N8044J19683J34979R4969K8153k3349k1812
73327a01400M4315J34094J74255J33156N4973j365k6772l7564k6940J0949M0190K3161k0282m9651p6192j31890
73311A43037j85233j67733q1630p22M2294Q5352J37893J43973Q3027K2764J4613P869o2235j55085j70969q6385K6535
73294b02635R8064J18404J09481R3074Q2561O7074J5535o9044j23209r7004l2595j4513n5312q9370p4004l3180O205
73277b00468N6993J24623J68135J46018P3482N144k1259o021K4462K9798k2940j22447k06933k16133j47105m7708
73261c62359L5163Q5607J06797J03073Q0050M8605J8251r543l4823m8206l5544J772L7014L8261On0583p9711p4246
73243a40416m4359q845J7172K5536J3506j6201m9633n9827k7696K6618N1611K4014j3434r98N9744J08334J02977
73226F8103O0342J5631j7672l6951l7872l0951l6222m2313q551O5739J13375P9673j1m7323m2152k8575l5355m3742
73208d827l3155j0285J4911M1595N6119L4017k2285p7302j05884j14608j08630o9330J2733J05444J60017J56275
73192C4805J07306L5149l7155q1623q0315m5846r148J5476L7311N7301M8661j1954j00041j51998j27411n1224J5974
73175c44732M0022L4179K8443L6432M9909M9352K0855k3144m4296j7009L8549Q1486R7173R0452M7329m4594j34828
73158E578j31643j6466J10745J40277P1757j3278o0926p7026p6345n8580l1358j2867j0040k2045n3734r5238j06642
73141d37831o1802Q820N9331R2710J35862J71709J59543J13118Q5923P3584Q036j23974k25802k00365o9098O1287
73125a48949J15505R3396K9277m4652j04809j39610j45145j11214l5489L9846M7002k2864q9657p7555j0464K8943
73109e76439J2940j1318p306K005j5158m3689m3417k341N6362J06048J32828J28908R5878N9568N8272R6905J24801
73092A74847Q6145o666p8718q2232n0015l8313m9161m7781l1658k9163l8601k5810J1696L2531J7748j958n855j8469
73074a81433n5626q3473p0313l7794j6444J2118P5194J39864J46041R9507P3632J11266J68867J69764Q2922n5985
73058E78107j73583k05800j44624m7041J8708L5030K9962K6268K4748K7531M1142N6299N6845M9446N2086N2769J7908
73041D95801m9645r9078r5502o3209m3774l9103k4161L699K1923K5455M3849J04143J85993K24673J67120L1248r5891
73024G93541j33063q0977j4951k906m2928q0406o8712p259O3792R5304O4980q048q5320j43317j77709j81401j42191
73007a51571o9163R0L5054M4240N7702Q5761J08757J03117O5191J1439l3893n1679l9711j6506p825k4535n4670p8349
72989a6551q6940q3835p0258m1361j824K4038J1223l7188q9119j09684q0467l333R2308J49954J27468N2141O877
72972a56551L9710J07353J30710Q7203K2344j2737m528K9033N4100L6595k4903q3506q9804n0815j6210j2256k2545
72955C3193k9332l4061l3732j6462J0746K5541K9273M5055O8438O2480J6648l2358n7161p2553q9454q5400n3912
72938b13051l3863m5477m3628R416O6065N7263N308n983L8855P0482N3169L4783N1833O1962J8096m9067p8691o9352
72920g1880o4220p4178p2868n4191l9534k8987M705O3202J03917R2742M7970J3089M907O618j26j4678k5745k7275
72902a36532k3392k1947k4527k2367l066L6804Q3345J08204Q5979J9022n5676r6159r4360p3376m6787n410M3857
72885b26388N6780N164o2211n8586L0105J12937R9775J3011m3642j7839L2580K4900l9874q3613m9658L8145J12630
72868e5784J28633Q5408J5831k8181o055O7258J23321J13759O5779L2263P212n5100j40878j64770q3856L2846R1103
72851B28789Q3672O5950N6941K8760k2916o4236p9546q6396r0375p8194o0875o5656p2076j9795R1151J68090J37906
72834B21194M3781k0246l0937l3845n0889n9424n3159n5234o1960l3472L7370R4457Q7241L7119K900J557k682l6824
72816H6947p6251p3510j8296M4145O0367K9952M028J6252L5802J2087m7490p9671m8510P504K9022J2261O009M1515
72798D2163Q9970R4210K8777p7875j71477k11872j89508j20353l6977K4996N0457N6010O4990P5519P1873O0517O2774
72781h5806O9784M5188j2565n2392m1383j4104j6526l8487m5352l9717l5877n938P5937J53267J33998K3243o6774
72764D6496n7062J6089P9473J10287J10531O4559k2396r1189q9395l4125K5441O9944R1916O0295l6256j37153j62065
72747D5390j05029k9343J8029M0599N4196O3944P4137P8305M5311m2635j42293j81045j36755n3798J3416L8482J7241
72730b01848l1089o0477l8467R312L1464K1493J5197K6649L8403N2706R1618J33541J09843m028j36325j89987j38922
72713b70917l4673N1935P6741M2366k986p971K6988N9673P1605Q2310R1607O4975M282k4477J6505O0517J4123j12940
72695B09663k16902k28013j70488r6875k5377L8457O9404M8475l980m9770p2512p4939n2968p89O1793R4181P7373
72678c93267L6475Q306l909k6058o5541r1008p2536k5236Q491J2522J0531K9127P0585J20869J57906J50602Q5519
72661A3378Q934M771R7758K03285K14590J29282M6801L9071O8429N3018k4368j09631j59378j83777k03549k05242
72645f628j64143q8428j3027L6748N0121J8105m4185p3843j5739Q7745J22554M9052l4738k4451M8653P7668M3614
72628F9078K6867O3953R0385M9770k3345o8804p8713o3341m625R2341J50382R9384j6579p9741m1378L2130N5535
72611C53299J4385n0233r9792j18934j05280o1868M537Q0336J36924J38370P4209k2666j06348j58928j88997k02342
72595c13328j91724j48133p1390J9374Q2928Q9555O6011P1364J11612J23813P6420L4061O6577J33479J32151M3006
72579C25776m9421q0156p6087q8298j12994j07663m6636N7426J55870J84397J20960K3712l3544n7134j04038j62783
72563e0613j51816n8259J7618R697j0306M4058J19981J00849m661o6380k3414L7305J9955n3335j00787r7276p4518
72546c41902m9753j4992K1305L2511J2802j3227k0269l459K4617M3258L8766K3809K9761O4761R3732P9883L3518m396
72528E0725j7564k4316l4737l0494J573M1888O2991O5381O7424O9285N1483J0878k4224k7551r367P53M3J6995N9918
72509C31084Q4351M1190m8224j01325p4268k2291k8623r1708j27028q1836k337L4104J6674l989L955K1169K1973
72492b7129J3413J6673L2314L9687K3289o442j5791K2968R5772J49773J46980J04764O4574L4823o229o2278j12689
72475E14472j51192j86770k01323j57169o5882j59l838l1888k0973J6771K2044j4516m2708l3259j2077o547m250
72458c79264J7680N4641Q3013Q6047O2704K8155O351K088j4703o8392j25034j18412l7029N1378P9043N0592J5767K93
72440b05082l267N799M4167J02413J25194O3026n4695j23091o4695P4074J60305J20644J8799l6337k5737j9197o1460
72423A20860j17843j34057r6615k1539O8828J38602J51533J17465R1195J00186J05190N8659k7528j00482j25725
72408C28729j01090l9521K8659N9417L7461N38r412k721j6105m6352n0998j1317M2266P0906O4197L2395j2601o1336
72390C13115j08477j52469j81096j64861q6499K3953J02976J06038L8720n4731j20244j25968q8428n7122n1542k8611
72374f35246N5483J64401K08355J56033P5449M6069O9564R5251R9592R5792P8338J0443j13843k26796k41809j50417
72358b13341l9458J032k7623m7899o405O7446J06562Q2818K3746k4374k7587K2828R6932J32671Q8817l306o5505
72341A67354n6689r918J9813J7878L136j7544n5011j00731j16063p7433j5984J4307O078M966L2665L8050l4130
72324a79256j43889j83342j12021q773L7364L3212L4582M5728L6786L0105P9221J59502J69482P5037k2126j4182
72308C7430P0073J18954R7128O9781P4615N5109m2983j67694k11845j46703n0018Q98J3349L2043M9766J9179n4945
72291c5863r5590n2590K1054L5893j5963o2045n9658m4397n4238o2518k6161L7235P1499O6115O9055J11553J59488
72274F2869J55736Q6709r022q0911r8800n9478J3794P4291P3141k140j06067j63988j36280n4285J5481L9557L6315
72257a53078L0477J7410j1376l1971j0214M6227Q9610Q9371N9589K3113j7804n5217n2741J0919Q9401J04173L7387
72240B65276m8430r3856j04955j07752q2041O594J22909J70052J00552j9255q2270n4745Q103M1885L4972J2559r683
72223A59915l7002o9265q2086m7093K7937R0448Q7258J7184o6657j03219o7281J8571R6740J09743M9193l0657o8971
72206H4758o2011m7828m3196l7479l7938o1268p5774k2230Q3008J37817R0413J6848L472J9492j0634o3773n4310
72189h0633J4293M9050J8391p117J5985L9952K7703K0812N2004P5052M6800Q200J3283L6449K4058j0414j7698K244
72171C28414K1850N2669J05270J14651O697j66772k57651k02547r0731k8345j4822O444M3424N9042M1694K1049K7076
72154F7412N9877Q5785N3620n5564j82069k26702j57657m7364J6199K0390Q920J3446L9582Q6808J38144J51657
72138G2484J05763L9706Q989J1334k145m8371q8645q7514n6054k4844n581M912P177L074J209M546M352l838r783k686
72118f5915J4610L3326N0671O5837P1994O0572L0400r870m4756o0736o1952p3488j13072j59212j66949j21688n8147
72101f08375j4887J0816M4829Q7746J10110R4673O2754N1029P0772R4706Q3028K5921l8365n7676k3432J9581L0033
72084D3263J7828J6280K6844K5397J2440J2172J6370k1718j10443j77260j48659n3738J093l8246j12261j30033p5701
72067f96372m801M1529P7236J24262J61567J48354Q5748K4909O891J6937J3789j3092l8473m2924l2067j6819k054
72050a45380L220p137j4538P263M3350M1296j7679q4955j06589q6767o1142m2457l1028m4156q2140r0793k0497Q8590
72032f51539J43043J15082O2806L1507N724k6536l6303j2854N791K747K0881Q0187J14928O1962l0708o2178k1992
72015a97452N241k7354p1053o9645l4146k46L0534O5928Q0562M6769j1239l6109o821M0113N9538M4773K1600J4539
71997d4468L0671O5587J06694J27080R3432N10j03504j47463j04918k1073L5553L7574Q893j2780r783P316J1490
71980H0811j3038m7847n8986m4014l6374m9953n0627j1240L2949K5843k6826o1890m3662j272K5199L5272M8339O5751
71962a31565P4861P1031N6926L3986R183k797J128M54k5647o4865p4429k5486N5427R9296O3302j4861n1315r795
71944F4834O3106J06642J15831J16433J05273O4138J4696K224K2458J6678m5422j19746j43580j04664l7970J4969
71928B55900K5259j4917p8911j19272j11794p1347j9740L4015P3137P0150K6716j5142k8158l7866p5125j16824
71912b03919j12857n6809R053N1353P0879P4209N9929M0793M3971P1311Q5122N5071J463l2493m0085n2381p9314
71895a4704q3551l4151L8216P4646O5865N4248N6548L8510p600j4948P0662J87009K09637J05300l4307j18629j49728
71878D43023j63673j48475p4128L4982J15509J39577J30404J10397P1782L777p5561j25812j21036q3061o9620j07949
71862H0136j46809j12171j3685N3862L5274j1228k915N1318P7885M9219N340j9645l0785l3091j5415J5407K8474
71845A1171J1167j4298k3985j1245K9831J02507J78696K05926J58109N6516o3476j74805k43267k33808j57241p7540
71829b45742m1301k2576K8614R8549J11475K5934r8787j52402q5142M1368J18091R8927L8401J7448M7667O8526L3010
71812H2060l2989o8757n4144k2618n498R341M9009J00821J12904N8303k1419n8904l8823o475r30j4433k8562m9895
71794H991p8567p4667n775Q4280J07548M1445l8230n1991p012L3918M1828L8455L6638J2582m4939r0113o0880L8913
71776g576J28723J36602P6092J8968P119K0941K8278K5401J7307q426o3072j32100j90800k28323k38447k07838
71760f17151j38032o1734j1137J5327L1055K7738j267k1497J2546Q8088J36050J12502M8138O046J3685M6432O0659
71743b52552L5725n326j7053J6350N9181O8539M5309J8638l664l6542p7958j00325q0464j6843P0225J33064J18698
71726b4998L6785k1758J0285P4724O1113l1039q9760n8541j1718k4749n7750l3078L6689P5265N6836K0226n675k1388
71708h531j6812K0369N7896M2166k0917n8097k1028M7045N6189l4468j72131k51255k06212p7790K5572M9123M9858
71691e19023J03201J80641J77173N6576q9958j49445j06362k8849K8838O9939J13355J45885J30410N3142m6245r9710
71675A9568p5896j9645j3358r0778j94824k28452j47777m231J03177J15938N8621k05j8720p475L330N83j0032j9397
71657e29573k0544q814J4844M4984P5646R4800Q2447L5163j0026l859N6432J20229J40235J09037L6416o7197j64058
71640F162j88668j15846p661M7139L0590J144J2249N8487R9688J07345P9816L1351k1951o6607q5052n7531R857O8250
71622H762P1339L7697K7312N1205N7493K4365L356L0287N2287J665j01471j80505j97466j55956n4146Q4376J67748
71605g1652J21707Q690l1841L6991J18895J35448J06431O0823k2289j33875j91207j44070n6732j7693k6957l8586
71589a45917n5437r9279j28877p8833L3707J17403J20374P6833M4612M9718Q7949J29575J26100O1672o993j1698
71573C20909L3109N3964L2116K4470N7150P0960J4087o7146q8843n1533m0465j05208j88483j95525j07921j286M6068
71556a93577L6702K9662M7916M8987K479m3300j9522N3993P7416L116r2171j01294j6854P5026J06626Q1893K5235
71539A22333o0834j60657k13813j68527n6610K5581J7809m8659j01180j02662o4619j0992M1315P5819P9912O0694
71523e65090M1778L9650N1209O2972O3373M9197K8977J5402O754j3230m6150o6297n6903m1256m7777n7813k7669
71506e62873M0098Q8687P7597K5247k7834o2634p6402o8313m6451k1427J5121P2328J17114R7786K3813l3972m6842
71489c88957o7936j26508j49171n8381R5367J82285J53410P6216K3954P979J7919M8379P0784M9870R577J6752P4036
71472C5575R5914L0194n6782o7914l522N4318N5347K1445j2261m1908p4860j02357j06637q3040n1460m4597o9543
71455d22088q1031k4593Q1016J42841J04688K5799O689N9641J03960Q2727L1112J5389M4970P0767N0108j0600p1670
71438B09725j01957j00655q2626n3254j1336K6517L0226k082k9409j5872K4677N6023P2950R3987J12785R7779M3049
71421C70527j6456m9829o0019n7989l7679M807N0673P8031Q5165P5631L7830l4776j11713j41454j04731l5994J4138
71404F6162K7254K2257K0417J6248j2577o9974j25673j42361j14843p2709m4953l3109k2411q214j826j2173k6314
71387e34799j1600N3597J43477J90405J48536N1655j5804j2839J6295Q256l4685n3251j3486M9874P6143M3345j8087
71370H7032o2144o8131n1255l9896m3590m5292k4598K0366P6763J26669J42730R6349k642q7697r3865l5834O478
71353A443j2644n4851o0413k2645K5302O2027P8770N7444l526n6401m9925n285O584l0776n4988k3930K1234L2591
71335h9989M0776R8732J72875J71366Q0847l231r528J2600k1691r9717j31371q3547k3695j8198m6104m4181M738
71318A0682O8290J20130J50822J37657N9712m7775j05143q3132m9597q4192j71012k20187j84432j05804m3879o390
71302e54250K7457N4291N3098K6141J251j005J8752N0658Q1519R4779Q4387O6642O2150O7572N8720J9460m2421
71285A69201j01848j28925j06535n1805j0382j0622l1511l4269j4816j130p919k2032k7349j5064K4622Q5012J19323
71268a66049P9606r323n8890k3017M2122N3919N948m1918n0081l1529j0747L523L012k2169n7863o7476l6155N179
71250c81908J5783o315k6715k1066m319n984k2222j0956N0981J19044J20081M3723l8160n8863l1621j1313j2626p086
71232b89542J7862M5121O8270R8078J22624J05341L9109l2671o6988o3431l9870R5M9964P9013O1369J1916l3329
71215A72931o0283p6295q1172o8772n0241m4441m3249j2706O2555J52069K03252J83149R8324j2357j02372j46109
71199A74283j46426j12841m6586L7325R0530P1023P679j0541O5725J76371K10075J28032N611n4177l0188O080k0408
71182E51567j05439j76747j77109j22278p4440p1430r4181r7892n9175R264P3779R9600O9158j345o6719r0332p8613
71165d12332o3919n2380j3183O4060J24487R7614q501r9336r6930k4234L4815L5382K305j9783o930M5861J22582
71148b70422J76988J66958J12010P8136Q6838Q0140O791r3594j36807j02395m9488l3913n2318o7001m9318K625N7496
71131h7274O3321k5q1155j03584n2173J9368O2450P2917N8890K3622p169M827M9246O4371K3515k4297l2920k6077
71113B7853l9644m7785j1816L2971J5244o1945j21254j20006r1030o8006l7895J0250M6294M0113J980m1493p5552
71096e41721q4383n3136o843m700o3045j17905r7209m248R5638J40380J00067j5855j40419j77322r9755M310L5813
71079a030333Q610J2221P2285J21565J09177O2998K2601k0932p7913j05653n5667M9748J35019J55336J28356R0301
71063c22281N4641J6943k4392o0932p7151n8333k314P6293J53107J98833J84370J05308O743m5205l4781j5127l2242
71046A23480n6445k6980N1605J05846Q8370L1402r597k5613m0976o2145p5331p7868p5758n7282m559O6537J09582
71029F4268R9853N9743K4634P921Q550K3720L5417J1818n0030j03159j03465o7737m3540l3902K376P4492J31530
71012A42489J27190P4937J8554j8470l0749j0393L9952R3833J26312J33318J08757L7666n7286j03535o5076j1669
70996F05830l7771j28153j75589j31228o0295k9814j7951K2387P2837Q1340M4327j511m2683q5875j08748p5676m339
70979g2912L6837J2411l6630m8801j3079L0839M1749J3094k5348l3139J880M6836N8198L3330J2154K5652N8931P0236
70961B12238L3786l9262j09749j37566j12400o2499k5811j2975o509J0050L6801O6113Q7450Q3969M4723j4921o1513
70944h075p8019p6704p4767p3913p0343o7607o6803n5344k0285K9711O6003O7024M2216K5004L5484N1578L1908k6864
70926b69796p5513p1501l2947o494K929L2245R4341J53002J71448J49471J01127L3447l2709n6902k5637J8667K5145
70909B10323o034l7044m5851l6701j5027J1891J8573j5856o6788p8568k8139M8357R8100J01477P6689N4071M9965
70892C39438N0795K3536m2125j08744j32523j24217j34190j72413j83229j20874j8071N1653O0703M4206M0501M8631
70876c76923M7790L1559J0046q165k3770l8874m5794k6327K9701R9956J35105J04596L3581k1023l0874j7074j0127
70859a06617r967K677L1598O0618P6084P4487N0485p07o3120j02067r9035p0128l6690M599O0119J04533J03980P0307
70841A51156M9201M4311J103j03520j99405k02519j28633o4157l4328K3155J34985K18502J83627N9053m6741q2860
70825B930q7688r5172q3657l5795J3490K7861K7566N2050Q8991Q8050L8274j2727k5024j5172j9917l8263l8543j1789
70807a24535J2533Q240j3762k5290j7060J732K7074N9098Q0907O6425J9168j9119j4927J7928M3286N1290N7450O3200
70789B93638N0063J8167J110K3793O0514N5354j6222j15860j74108j52652p7046p692K1619K8241M0268N0353L2996
70772A32536j918p532L8662R9581J21380R0829L0978m0771j20967j92126k16103j68247o8263L1307Q5962Q8901O5444
70755c0347M3817L5519M1052N8636P4653O0352L433o3173r3514q8740r0183j08143j02119n1674r22M274j4818j1134
70737c33031R177P965n038J5298N7644N0902k2390p7385l8916M6233O7715l639q8838j11345p8147l8884j2271J5639
70719e39311M6618O1997N6724N1592N9806O1681L3241j0197k6785p224P782j6456o1646q9044r3590r0151o5075R164
70701f10874J12566J80861J82726J50552J18156P4872J1605l1403j2493L7746M1519k9706j22134j65032j37089o4080
70685b62208J6234P1266P9337M2492r445m1697m4955l8073l8253l4998m737M8582Q5329P4386K8810k0286o5002
70668a13218j05998j17388p5150j3898K171k6122k6509L5168R8382R5814M2440q570m7255q5745r7801m8972L5180
70651d57471R3742J07345R5980O3840J0610k2994N269O3770Q3497O1114M6905L7565k2352j20033j59090j02205l4333
70634b48841l0682m8224j5702M5293P1174O7662Q0391R7237P2474K1678J709R657r517n7361p1285k9295J8279M2858
70616A7505Q1770J49291J76461J01492k3019p7555j6601Q4778J21830O4630k8527p8985o3985l2648m4352r5769
70600C36316j27979j05885n9068k9843j4104J5096M7470M0305j8833q9029j23427j13035p1833m354Q6084J67539
70584f4580J88586J29421L0473m3185o1420m4608k6850j9471j2328M221K7993M8333N4337M5384L6850M6747P1801
70567D11704Q6131O9548K7893j9819o1442r0038r6753q0853n7342l8831j6985K1451O5531Q5641O8554L1129m245
70550D01274l3647o2413p9883n8283J2212Q9742J02491K3894q3979j29324r0389k4997J8942N4498R7237J07444M1376
70533C86195o6435j26666r5599j2012N7812P1715J9842o6432j12456o1078M9492J13344P9072J574m5978o1469q0518
70516E0403r8951q2504l3259O629J5849J5668K3929K3389n526m1792l7310K6447J07357J37980R5012K4569j4321
70499B13569k3286n4748j24228j67725j15290J2867J19590J35643P8508M697n8244j09777j35175j08042l5862K9761
70483c37742M6234K5137N579k088j8044m5840n9269m4410k1209n931J5434M9126N9426J3682n5450p8168l3778L1417
70465d55894O9993P4171M8511q693p7803j11326q1231q979O5595J17397J28163Q5933J6037k5058j9101j7938o8769
70448b68992j33596j28337l0724R2246J62520J62758J29180J03624J02058J11881J09783Q4665M1060j6494q4403
70433D37229j42479j61540j39435j02302n8547J0177Q9952J13817M6692m3611n8396O967O7435O6743L1522Q009N068
70416A77301J1886K0175J3705j7834m1811j0331N6734P0846j0534j14936j41364q0595q003J4650j3206n8712q4019
70399b16048n8369J3996P9215Q2552L3752m017R796N4673Q6516Q7004P0569O2732P7322J02044J06113P2541J6934
70382F77325l5644p6364r6985p2871j063N7832K8681p7975j62602j55473r7601p3032r7598j18266r8425n2103q58
70365d53022N1398R1740R2553N4987K4011L2704N6462N2234K3356Q088J2456j997n1238q4194l5135Q9869K05380
70348A69652K30949J67879Q1863K0160l0607r6255j51150j40058o3085M403J198m2824n4798j9760J2744J0434o906
70331I3839j7552k9332m4680m3193k4250k3243n3772p3418m4460P351L6989M8619O7868P4579K8929m5977p4335k7731
70313a43769M0779P4091P0910N3549K8123K270j899J5874J8917j4058n0227m7645j5667J547j3989l8858m4666k7105
70295i1823n267n580l6227o9587o8666l9009k7450n5515q6496q2175n8236m8071m1846j0580K6903J9955k6419l5376
70277g41465M3060J52528J86548J13073J2409j4332M4742J09142J06957N6215K9537N3178P5256M1082l2456q1418
70261A54056p4663m1522k5677l4668m0274j8879J5484K5833N446j735L7970Q0708M9240m8899j05995m7621O9514
70244a682J36724J25900Q6833M7489j1885r4585j60972j72888j23918l1551O0517Q9785L8810k0752p003O0205R1393
70227A12420N9825K0842J837k8463o1730k9318O9722J20588M9827n2278o0431j073j376r0199j66074j55279r2690
70210c03850l0617L4038J05094J37729R4501M724p1053j04048j01076p9716o1912o2185o4706m0217N420L4431L5095
70193d68348L2103K8610p330p3529j05728n9884K0227O2302N7122M4405L8990K5475O458R78M104j585l97L8456R5221
70174b62350J04621M2540l4301n6778k0648K5632M4787L8337K5261J6537J0943O548J2141L8996P4227P5933J5858
70157A58284p7870j40886j33795o8569J5455P9277R9584Q7806Q7791J21913J46589J01821K475o8121o3500k3869o411
70140C17974j7217l6071n6425o5322l2076L8005Q0013N0418l435r353K6647M5577L5734L3007L5827K861n9636q9527
70122B97001o9016n7792r1351j13694o0276M3121J16773J25000Q8755L2917k5611n8082m5140j2667q317m7659j10048
70105C914j70337k02108j71094p0898M3972J03459R7306O9177M4769J0957l4542o1835n1329k0412P372K8513M0353
70088c32763K5247k4719q2979j03767n7627M3111J39297J59327R1018J2161R407O7636Q7775K3770n3458n7899n536
70071e9999J7720k3764p9023q7239m8182r374r090m0544o1209l6517K0837O1572N2359N191m5067o8708m4143L0820
70053d24360J12664J32500P1842r319m7612m7313m1692k1842L8728J11685J32923R1240L7701M119k5012m8627k6302
70036D1323M8617J11985J08873O5107L2372L737n7673j34804j68737j45351j06491p2942k1912M0016M6796l6484
70020b45568j33601j28810j0906J04460J06733P942q9557j13018p5824k7803R745M2475O2035M1486k3391r0858
70004e64460j07258n7298K7936J02832J35147J15050O1204J7861J9768M8313M3699k0480r0707q7896k816R0243
69988b68862J18205Q0463K5266j5484m1413n2803m2925k3997k8606o8376j08583j01362l7611M4017R2843Q4471L4657
69971c10100j3953k6785r554Q58j6270m1476n0635n4415p3380q4344l3413Q3839J88777J95315J04603k051n6707
69954a99691o2800n9375n9274m3266l10N0776Q0858P6830M5828O220j9901j7321O962K3397N639m2862r2142j10250
69936d10682p8837K178J04245J69119J48291N8377k1872k8732K1473N8409L7935k0350o5590o3574j4902N1410R4852
69919D1750Q8267L6732k8442p2504p3052k7411L9675Q3563P5721L3925L372R686M3099Q0608J01778Q7713L3994k9422
69901E29052n7248l8969r887l502j4106j7076l914J6871L3542L1588J130m0515n5634l3625q057m799j048L0788O3614
69882D18205M6891j3557n6888n0426k3952j0326Q89K6904M8740L8283J347l9059q0256j24590j44076j04299k1588
69865h7758M2820N1137J7878l3884j01961j70564j89358j30703m5565j2317l3100l0212M2143J29107J48363R7987
69849c05987M8851M6030O3593N8806L0015M562k709J169L560l570j9067k9624k3821j4021k5705n7074p1526m4053
69831c40571N712M2632N5808N0763K8520P2m672J9219K1472l9390j15148j13516k9825L3681P362m9086l9068K9088
69813d36947O1363J8975l3648l2108o12l822n0049q5208o8200j4995L2893N5501N9566N4248L7949P130l0699n4717
69795d83380m1022J9078J03290J64264J65217J15722O1487L1124P340l3239o7738m8392K1656P0049L4107o3613
69779E5950j41110j42695p7422J0769P9840J03584Q2488M6904K7002J5787j7799p8895j34894j56336j42189r8998
69763e68014k9228M3391P1409L7521j0460j0561M1304R9865J36696J60077J73265J53670Q5269j4915j12626j78567
69747G8096j93371j59084j12624r7275j07511r0990k1692N9176R8059R5365Q6017P9951O4025M8744O4420J06069
69731b625J22473P6348r235p7412r2994o4337k7218j3248k0339j3772K7831P3449P1401J5859n0362r8305j36006
69714b18492j59443j31145m1378M7304O3544J8286r697K6933R5785J35218J21509P8949M4439L0551J7006j7687n4801
69697D6881m7914R800O0517N3076J1609q090o974l1221q2736j06933q0657m9448n0440n3330j7490L6638O0738N1106
69679b04868L7133J9848k1558o9261p0329j2667M7788N6704K5290K083P411K4048L6431M7107N5553M7912J8730j1847
69661C5508j5861J0697M0801L9746n402p2121j13237r1805j8624N0234O7979M4668K2928J4586n416l9796m8627j2257
69643i5999K6040J9888r561j1940P792L225k6925l3461j883K3891J8757J1794J8758N112m3153p0598k6288N8966
69625a25585J20773J43938J43028J05954K6982l8076k9265K1393K7137k9970q8319j12443j24307j23638o9961K6636
69609a25723Q2682N6221J2143J6236K7380l2581j44501k07119j71574r1826l9501k4283j1244K3774P4584J17919
69593d37413J31464J06625N0409j9421o9999n4867M2904J59068J82170P0451r1548j80937j56527o8085J7202N9697
69577b58807N2432L0158N0539J19818J62259J17326M0699L7094J05246J32442N2828o9461j40904j46186j14817n2828
69561A17838K8372O7007J3353q3094j18265o2522J2263L7292K2891J4147K0132K1853K2344M7224R6213J24573Q9966
69544D71587Q144n6369n8767j7381K1372M1747N6197N9134K8025k4024m6264k7720l3292j17441k29750k62247j83978
69527c71027p5363k0608j3928N232O1488J22066J47147J28023P7992J2779m9365q3336p1857k8620M229o132n0102
69510b11382r0013j01782q5337m0721L2971J07805J34541J03240O4172N9268O5111M1549L568q251m065k6787o9332
69493b5445p9915n0923k9609k7730K806P6450J31768J25204R6543Q5654N1390n1059j62777j79743r3521Q690O9255
69476e2962J04140J27848J18366P0557J5145l1747p7598j01717o2008K6452Q5073P1490K6330o634m2156r7109j35347
69459C8123j22048q4656o5880n7051l1327l557J081K295K4521L2672j8417q9409r1612j6488M7083M0282R294K2926
69441c62168P1628Q9342M2045m0557j01145r9419m0559K1975K9849j8454o5617o4157k5093J3076L7326O0741Q8837
69424c62350J10735J18736J18894J20545J22306J10284P3561K5279k243L293J0724j6415o4350p9092l4756L2911
69408B88062O8432N2856J2120j4627j0274N397k239l6614n9742m5604k2613l1676o2569p6075p2992q3870r6418o2382
69390b50828J0205M1395j1319q5462r4732l0233N7301J27654J57411J22589L3803m2275n4265l6263n2959r7889
69374b05867j07798o5121k2039k1265m9255p5043q5365p0219j9062N1887J02682J13898J01767Q4550O3732M3608
69358a58910L7971M7545N5319N1106M1521L6141M2115O2053P3400L0037p5943j71723j75968j05934n3880n7513o2140
69341c84803k5788J2598R013l826L2552J07260J50940J21859L8256n7337j25907j39001r8135m2823j1561k716M368
69324d15051P691p032k8798k9615n661K0612L7695N6963Q6383J15677J31207J28678J08934P4203L0030j5583n1237
69307B45096n9203k9365J6227L3201N812k8443k3338K0770O3341P1748M6849J4986R670M3840Q4679P7544J3754n0258
69289E56910o5066n1407n9171r0663j07963r8704q6669q3531p4305n0948k3158L098K3688J9175k0656n9320m4740
69272c13430J9587P5842Q7296P0756N1643L4205K4600L4304M5927K3100k7986n4737l5633r981m516J2707O4643
69255I8327J06230R0314N0867N2838Q3993O8446j7097j06301j32104r9599n4652k4055q147j550M51J74o198j7346
69237H4591j8902j2450l9796j31628k29489k17884o6266J06143J55821Q0740R827L7281J24496J78871J74316J50150
69221C85821J21860N4840o3992j76879k10094j55583o8114J679L7075L1869j3274o2304n7283J3101Q7371R8542M4596
69204F9231k8113q2216j02197q0005k7128J8403L5221N0301Q7466J07006N2792n1115j14135r4483m0489m793J9525
69187a84729N1569P3147O8082O0555O5361M2418m1874j39296j70325j33664j00760j05130j03030n5684J1516N8835
69171f03009Q7855J07601Q7542R01j02652j26651m1097P6356J32995J22050J00914R3438O3916o153o4133m5628L4697
69154h1058R4071Q0765K4783j6475k4658j2849J4448N6998Q8666O9452n097q7166j18750q4616k4376K264l1815r4186
69136a49599j23162r1607l2732L936Q873J1538L4805O9429R1177Q8835P3941O7513P2215N7404j0202j11358j70591
69119a09585j30204j8075P8301R9755O2257K4064K3010M3061L4529k4549q5939p3934J9593J13289J28940P3453L435
69102B61401n0531q0709o3371J0681Q6334R4218M4758N681r159m8332j09900j11652j7721Q1851Q2207J823n6883
69085A20696m7206q953J6901L1439L6773J5503l1376o8401o7522m2223k7455m0705o7335p3719l8678J7217M4866
69068b30178K4568m120P595N2202P8983O3568L1337J0934k897k6818n1013m4501L336N7980O7018J7598m2230n5096
69050d1734k1675O171l810l2137m9654n2147l8634K941O1858R4345P9420N0307L5546Q612n5404j09614q8377j3274
69032a67260K3362j7061p2457o9767j0118N2973P8877O4249L3832K2791M5731P7001Q1909O1276L7085Q166l5418
69015B15171o2870k6234N7232J02914O2046j9151o8310p0827n3157k1736L5357J00748J21117N7192o6772j63376
68999A99344j44751r518J37156J79012J02128j3504r8824j42229j41643q3949N341N6854M1231J0290J5967L3124P760
68982A53789n5360j02858j05115p3034k2583L2872O5786M9528q992p0677r1682m5248N6467J51643J75199J32109
68966B41844Q6009O1373J2365q3520j65657j72633j26149p4897j3554O8317J11537N8948l0322m2090K8512P5003
68950C5086M3894r13K956K9972L5486K7189K3250R292j5552r986M4335J00146J10213Q6429N3337j947q3406j42042
68932C47739j38140j06445r8970j00428o6831j7374j3191n7985q9714o8637j2987N0521J10491J42931J21659O8522
68916G1161L8225M0238L0062p809k9964j4983j3348o9755j40988j46819p6145R234N8591O8750M7409m786o7596
68899b08523j00615q6227m5520j831M2598Q1449Q6434L9319l3374q0371p6572m1828j2812n015j272K3888O6137Q4511
68881b69624M6224k5885o9874m9703J4860Q2082J25429J32622J00952N2197K5777L3669M0849J2048l9641p2126o6110
68864G3746l8111j8711l3675q2705j19529q7238O82N6404L4388M585M8338J25240J30212N7813N229J0635J690o1201
68846A07792r8941l8841N7347P5228N216o3710p3298m1145K256M5589O9163M8511o357n7176q3746r1225q1062n1758
68828b76157j9570k618P857K9461N4412O3513N8009M7480K7799L784N615M1788O4409K9546l4018o7067o2507m8569
68810g6833k2301K6137M8199j2980j11128j28001l1275Q2842J27463J21859J13926Q6763M737r9218j47654j09894
68794a27358k7276L8333N5037L6003K1313L0528L2400j2339q4070j20453r6466m1771J7271P3624R7704N3647k4355
68777g8228m6083J2971P1731O0597J0667j5476j2728o71L1914Q4728J04109N5330p304j4568J2128M949l2677l6275
68759B05114O397L3913O707m2899o6989n6966l2663j5464j5748j8932M314M5015M0691m2040j38315j56761r8049
68742c42675l5249P228P4039J74150K36375J98236Q1861m4143j29595j50009j04083l5603j3218n3707r7839q8580
68726c22812l7770J1283M6015O9812O0629j098p6645r4298l7808K8934M0151M180j6750J5133P6310J16506J09661
68709h567O8217K4547P940K7197O1245P3337M7047J593l8832p4374j06868j08905n6786J3730L5265k78k9218j1853
68691g5563J1453q390m8257m8312J619N5880P5913O3290M2608L7761N2342N9519L4652L862J6183N5784M5770k9792
68673C46322q0998m3480J7757J2251l2768l0187J5476K6990m490j8469j6279o4946j51987j61861m6254Q5994J11858
68656c5071M5725j6469l6410m4916o0775o7035m7529j703N9548J07617J12292Q0011M0207j3069j08047k08569k16896
68639d11089j05906J9989N3167J4215p057J2150K5988J4626j697k1401n5134p0672k0688P2112J26801J10675P0252
68622a73669M2800M548o1058j03785o9515J0239N0103K4772j011L1106Q9265R6480L6365k7732l6872J241M5051P1600
68604B9928O9774K2280n9717j12734q7317k2014P963M373L6641J15365J55733R8522l54m6676k2680K2235N3010O9355
68586C33687P3199O4359N3168M2735J5389l5432q1354r3999q1911o9304o3985o7946q6749j01898p0101J6093R8764
68569e5285J19589Q3994L0197k6326p6901q7118l3488M9777J05623J16207R4343M3209l1233r4672j16883j07264
68553A3769q2074l2639L0587M9453l143n6900l2232L6444M9688n372m4345k1819J5129K2701K2361L8859N0015L4967
68535H5449J6623K2348M3964N7614M4066j7266j22025k01428j73744n5330M2584N3347K6820L0018M5134J9626l6804
68518a19004o8577n4298j5021L1693P3893Q1782L5098l3128o2520l3075K3158P0074R6886J05037R4270O4447J7755
68501C08470l6994p8458q8834q1369q4348q8395m8791L7908J04078R7740O0056O1627R0546P3457l42n2234l0022
68484B44095J7335K0402p364k831L9832N9737K4678k3802m1586m9966r1895j48518j51684p9018R819M8900M4227
68467h7639N1618J00067J64093J96707J64117O1693p4452j78880k09665j89178j69322j63208j41639r2449m2721
68452f10858j1226K2892P8639J26001J14176M2004k7022l0228K5255P2393O3666K5439J7478M9519P1159M9744J8110
68435I7141K0068M4545N2936M3595L9636L0872j3188p4312q8632l4022L2810M6656L632n6620j00669j10905p9936
68418a46393k5755Q442k889l4602l7533Q931P8702J24009J15568O7421J9423j2270n0911j08768j48604j31576p9720
68401c56525m1628j4092M0861J09486J28286Q1327K6260L830j2293m7629p2299n2275l722M0456P3076R1314Q0984
68384G5417N1941L8029L2944j4154j03907j54614j12580k8565L0974P7529J32864J38443L4056j15635j79112j25886
68368b22256m3908j242J7520L7893M8351M1797L3803K6142Q223n924o9l079m3553p1214j1159J05489J61529J17989
68350A96332O0898N6417N7581L024p7844j18749j08867p5363l3131l022j9047o3175n5031L2301J07421Q2233J719
68333D3697k9441q03J7805R922K5872P0154P7960K1438m5329p3764q1784r6839j00576o8600j8039K1680M9488P3006
68315a04153Q1301O8497N6242O0748N9140J9348n0319j06552j16186p7924j1166N7260J01283J04684O2498k1612
68299A83089j22862j85990j63229p4592J93J0269j1359k769M4445Q8502J01036Q8879O3713L0717P927J9490N7635
68282A35094P7602M5132k4913q3917r0771l7736M4285R9204Q2964J790r1101j40012j23368n3466M1237J30094J89664
68265B01782K04367J58325M6112r0272j62022j17321j7166K4880j6742n8116m0978j7496n2634j07547r9758m1183
68249a85769k1747o1988p7641j6010N5835M9526j7002n1764j5450M3094O3567L4880j7501n8975n2472K4327J46987
68232a58103K46370K59926J79427M8653p3495j43597j44067q3647O353Q5422J25254J21255Q1593J2636p1207j29320
68216C63453j15521l0321O9283J28537J41844J25253P6898R67n8708o1350l1948k9668o2860r0405r9843j17992
68200B07619j40805j26299p5208m3753m5439j6127P5275J53019J37809O7349L6689N7427N8168N041n7836q5610q1379
68183A25940n9668j8620L4258O7059N0555j5607r9209j46230j20170n2029j6529l0066k0233N7942J32729J16774
68167F896N0397M5497J08794J29274M8955n5251q8439n1883m280K0191J5645j6231n3525o4405n2961n0397n1167
68150f2890j7431M1338O5299M2582L3026O0271O1039q743r2905j21062j08193j00110q1812k0914M6574O1313L8831
68133a63787L6443M4217j350r8582j59472j22606k3799O2990J04508J12289J09541J10645J09281Q5615M5161L1407
68117B82501O3004Q0197Q869j28170k20447j97949j02615k1851N247l46k944J1280K4280O107l9474n8991p382Q6819
68099b11865J48438J40331Q4967J3745n5010r0577o1959O971M3541J2480m0226n0096n960O0047J16122J36837R9202
68082C46988J0584p4204r3597l4695O0563J30151J27950N2883m0745q4928o8706m7246o3909q9278o4710J3513Q7583
68065A68197J09245Q8262O8089P4173R1393Q0738J6965q0730j55735j61617j07320n2647n5273j15798j70180j44755
68049c46993l1725R4310J49647J26414Q6583P9835R8735J15800J23303J16811P6163k071p5624r8669q3687q6314
68033C42518j31281j84897k01178j64682q6532N441O2030L8168m7870j07458o9392L8023J24148J43517J28117J17687
68017F359J06823P7444M0276J2573j4472m9393o4264k6625M5346J01636J26266J39384J37966R0079J603o5363p0165
68000E95473m7052m6355n9205m4150l444J5560j2870o4189j01192j10991j03257r1805p7585m2292K5446Q8957Q1417
67983B466q262r9256j08296n0804o676n915n518K6721O6918Q4195Q1282O4748J8963n9965j31674j41891p5346L2599
67965c15711J24544J57520J29627P8079M1488K7935K9722M8537P7961Q1628L2507l5188o0767m1907l5476o9023
67949B71476j02713r3539m9378J440N2222J04284J42811J47046J02645L244j22825j91795j32483P117Q3492K1717
67933B44761r6595j45587j02386l5949K079J4061J3121L028q105j4200k0331k0376P173N1866N7546j459o5623o3419
67915a80395j1525J2989k0551p1969r4995p2386l025Q7984J38061J06481M1604L3081R8187J67802J81694J42998
67899E56035Q1519K2762n454K302p675r5085k23655k78287k04101o5675N2328J31669J73582J42458K1756j21461
67883A83018j94767j79386j22896o2229o247K9448K9043J0164L436L658j7089n4568p4517o8240o2871p0262o5421
67866g19726k9899J5173L8987M3736N7682R4531J35551J52599J39806J13735Q2158L0766l9464p7657k8305Q3908
67850I3581J62201J53389J09287R5964Q9418K3506q8324j57194j42289r5427o6753l8726Q808L1002k2531j13986
67834D1926j48229r2658j5316L781l9773q9431r8971o6240j0843N5499J27734J85766J91499J23942J6121o3548p8468
67817D2791n7400m6356m3452q059P0678J44747J57317J03599K9753j7305k6942j8708j3313j4942j9234l0338n8159
67800A94677r6084j16373r9969n9146j5127L2453Q7831J22481R6058J9924l8849l5324K234J9251J567l1193o6991
67783A7420r7512r7360n4229o925m483l2457l0937J1906L9518J4897k5411l2416j0755J3600M8327J06946J55265
67766A5394J42845P8083K1193L584M03j1999j7031O561M5239O9302O8466N0550K3504l710j8782k3613m1509q4844
67748C23636j21407r7620l822R8327J28548O6968k8885q6369q5714o1950n6274q2746j29252j62387j36412l5549
67732d70908Q2865J26159P0521m389j3373L1889N5056K3362k4615m6541m0569k0872N801K9634L9607M4091N7996
67715e4286O5784L4737k6003n8631k7081L6685P4716O5165K6649j3133l5281l7446l8170n5456p5097o5379k7548K173
67697b07602R653K3066O0624R8511J12884J13876J11042Q5871L1867j7744m1253o7355j15767j38783q5119N056M0634
67680A9461N404k6412j893N0945Q5745R2344O5674j3716j25109j84417j31868j8201M7738K9161l538K9514J19113
67663C9945J82250J60271Q2552K6740K5965L7968J4400k9029m4108k9308k5008l4324j3034M1507N6076j6831j11824
67646C64208j27842o4990j6650l4873p2856p0589l2568O506L7993O0645M7883j4484p9883q2378k1481L7494M7316
67629a6549K1360j1532m7064p9862q0691l7110Q507L146m5160p7215n9851j6554J9638M3776N7703M8824J4495j8867
67611b73006k7794k4033k8809l1868o980M1424P9415Q9700Q6652Q1869O3721K3394k0268l8647k6471o339n579l2042
67593e5661o4923o8546k6686L4096O6314M9383M595l6737o1689o8304n3874k7866j7986l6310m5950O897J16951
67576b86296K00683J78255O7872k6117k4187M8949J04348Q5770P000q5332j48195j48798q2964j881K1054k3543o3079
67559a76461m1979j97n630m1745l1924L4912Q0144N1890n447l0986l3642m8858n8892k1375M8331Q7493P1737L6576
67541h6053J5588Q699J5279M5771Q4117Q5322L6447j4328j6216K2842N5972N2314Q921o2513j27613j32457n7255
67524f5163M3171R0772O9629K3166k3363q4086j48714j56514p0486N9376J46778J60169J28606Q2097L3011L363J5583
67507C07395M7501M1369k2927r5050j13724p5146k5252m760j8425m1040l8653J543N1242O5747L4628j2306n2163
67490D9979q9959j22334j20187p2995j6089J7223L9186O8358Q0824M9311O296J0556O0183R4840Q5363O8661Q3599
67473B92815J16618J25486Q5082L536p6392r5135l5764L4721K7898n9576j46608j73613j52682j09795m6823J7992
67457a92240M1017J9638O301J9142M448o2779j09247o5204J8747L9903q778m6914l8415k1129j0892K7725R5564
67440b83113J27519Q3895J2400j8404j972K1428K3300R28l3886n4452l6360N944K9692K4889K7260N3325O7076L9445
67422H8914k165k1502l2057o0512q2087n1480J3139L7426q718o7766p3480l4815p832o631J4577Q5589J61447J67151
67404A19198Q9446o152n2796m6886k3053K22J7658Q212m0110q5242o6315O990N1706J9275l9385m5831P907O8002
67386a7154R2264P5045K6681k4562k7203M5311J41083J66764Q6697m2512j37506j60444j27539p9680n2909n2278
67370h7942m7677j5383J9935J5711j7939k2415K0394N0109J3045n0838n4845J8355J00064J32955J30262J20687Q8082
67353D12560J1023p0165q7605m5920k9528q6494j53016j37585n0312R019j3857o3850o5252k1264J4433K8585N5032
67336b94196J00003J16655P2181K929k5909K724M7217O4917N3887L4532J3216j8420n6219p5377n6588j0444L3859
67319D967N9592P2216P9880P6663N0928L202n0784r2226j10690j05757q1534m2065N753M7002O5567O0835M8945M0595
67301A33089K8586P784p109l087L883j0542l7747m5700k8116j0613m270R299L4274M0458R191l3163n3889n7220o0468
67282h5360n5316k7920O245K6151M4117P9192J08864R5959N4765L7431N2997N3876J5671k2159k1655p955k7030o9977
67264B57896q1730l6179L1151O7395N7479K9920J9408K9809L3821Q317l7337p5883r4538r6027p8098m0805j2292
67247a7693l2192r7506j53528j53357j01214k3918O7407J61013K18823K05629J33384M5972l0949r5695j37321j36448
67231a47593j02987p6906p6639p3397l4272K9902Q0310R9731J04334J12449J22045J18539Q8279K4950n8095j19020
67215I1630j15662n7795j0545k1695o1225o5432l0431j5334m5304o4314j7137O2617R4849O0842J8101J5783M2676
67198a18376N8991L7430k8255j11900j48897q8755L4620J28277J46641J26365J04134O0732k0188r2691r7807l8701
67182d8380L4072P9676P2286p878j34735k20360j98695j04898j8722M3281J14375J81250J84349J15354L7883k425
67166A26433k1677l8232l9267l0137m9234r8261j15719n9812L0379R2603J11540R4625L3498n7239j08808o9045K3092
67149a75261Q8488J06337J07047R6196N3722n305l7485l7060l4741l2425m070L2418J5261o3760j23595r4577r743
67132a18553M4122L1398j6505o0616q3796p6054l5368J5232M2375L9839L2738M2677O3386P1340M9219J2n2231p6637
67114h7422n7920m797O2742J24706J58397J42561P8756p6n5445p3451o2637l4260r01J3376j3212o5847q8311l4786
67096A473O8473J30326Q3986l2803j09420q2282K54M8822M1262K5969L6459N2465M8508L2714J8528l025l6196n5609
67078B69904l9198o516M290j4360l5830l3744j965M7084Q7112R4828P7138O4763O4981M5285j4823q1728j06485q4974
67060C35762m9972k4168j2806j9952l2903j1427O0728J28564J20980M4825k8206o2083q3287j04798r3335l8519N381
67043A34784j1655o4518r0554o9927l3792j4242j7157k9802l2757j7088n41n495j5898P663N8116P3552K5571k9197
67025a32937k4935K3980N5359M9474L4545K3466J577k8241l8454k0141L115J1085J2530L2877Q8006J58005J80443
67008D29754J05564k0134p3673l744Q6577O8152m1929j16542j00999o2295n7485n6190k4087O857K058r919R508M0640
66990A82113M3199K3608J5886K5557L4754L7244L2736J1456k6126o1789r4151j41739j86954j69693p8447L980J021
66973c47345n5117q1829o4483m3464j8374M5154J24805J47750R7616L9498K2386K5377K0233J9743L4521M0482K3296
66956C0249N433l034l0680q4356j10067o2759J8839N7552L7273J1769K7233P6551J23438J36700J03606L9723j3216
66939C64254k1385P043L3799L0617k235m4333o7628n4564k0853q314l8742q5907j06239q2161k3670M8075R7575Q3176
66921A08508N126o9674p0012l905N2929N0200J2489o409J3071M7540O1077L3488k4835p7973r4510p3316l1295K2127
66903d5374P7463J05552Q1278K8006L288K9976P0444P9872N4431J0706m9243j20994j66869j41652n1855L5982N6276
66886E7287L970o9132j07324r3987m8013P018N5078P4179M1665k5402n9558j2389P3230J04246N3241j5289m7597
66869h777p2633j32761j91005j70345o6903L7136P4606N7302L2255K2344K9242N5897R5698J18819R4668K3378o2285
66852f3364j17739j13019o1118k0952m2721j01578j15891m6195N4155J07454J00221P3933N5042L7110K0388K2506
66836b11768M3551N7191N0568M6104O7531J04300J26919J22925R9285N8621n354q5499j48307j54281r3491l33O9061
66819A47023P9623M3564N701m84J3340J87p2404j78289k45678k24004j34434m4467M32L729j4040m1172o1955n3063
66801g76391j6783P357o023k2999Q849Q3851J39320J33842R0800N6391M4457L8106K5171J4397K3425N6475Q8836
66784a0919Q1238K6385k8033k9800R242K9457R104r661M312J5671k2689r0564j20208q2004j0815M8841Q6411J08345
66766A4313J09502P9435K4308k9728n2558l0407K2106P0792R0158Q3078O9789O2262N2026J5439o8567j88041k79881
66749D4026k69179j49788q471N9221M8825L6751P7201J40819J60628J11939L2873k0172k6856j8997m4544j09405
66733F4871j61166j43770o2395K3563O6454O5419L7702j1161p1544j09985r6336m6673j3574k4089m2439j1149P3242
66716d63030J44744J40133P3190J5200P291K1774J5739j1154l2273l7591l0955n270M2732Q3254P5201J6831n1422
66699D394q9808q1890k9665L7917O3846J6747n6019p5662l4731j579j4433l1463j1921J3069k893l8950l8122L581
66681c67582L4167K1870j2181l4461l3200j2882J1007J0725l0195q9104j22238j07348m8443M6552J55696K18489
66665c59128J71848L0129j03053j28444m4416O3649J11612Q3960K8589J39P132J2046j6639o3619q8739p6526m3840
66648d15300q927K1158L8396L8228L4689M2841M7870K3301k0628m3808l4831k1446j5456L320L0568K1632l1640o1308
66630c51341j5703M9027L7224m9478j14903r9016l3490L4871R6632J32880R4962j6964j10234r5242O566J01670
66614c32539J41995J47182J33038Q7183J8143l0996l5690j7408p350j8365n7785j23798j75707j53769n4924M6853
66598d33937Q2725O1094L3278K3019K5619M5740Q8175J25037J17663O9686K3274K956o688k7272n7394p7542o3904
66581C1529n309P0152J00371N6830l990j552N8433Q5514K7413n9416q8098m7421O323L1357K9878J0885l0238q6433
66563A86228j21858r9719k6118M0878L7942l4631r7662o8580M7548J65096K14456K00470J61840J15763O4597J9763
66547H06013j3846n1081r3237j06768o9459j4254J2268J4278K4418L5293J1120l5460m1911J0606N8748M6235N887
66530E98850M114L1614R139r6386k12708k42526j72076p0888k557K6924L4360J7112k6767o2041m2650K4036P3518
66513a08932N7723j469m6294n0221l4026l0885n4014q9269j05255p9273k3509K4504M3463M3949L7933K0045n982
66496d01512j2298J5807N1535O2931N4180M1224J4528l1891n8302k0118N9520J12268J15760J05275R3017M3489m8398
66479A97015j18738j16018p3126m9947m1933k159O9178J20131J28338J27477J38302J25540N6550l2023p0464m6858
66463D11265j8919k9267m7612k1684L9934P1724L0810n9678j44482j78046j31603q494J23383J61211P4913m2784
66447B30671q0576l9791q943k7606m6523k5587M025N724L648L5336P8954Q1419M1104J5215M5647J09239J45923
66430E67879J18559M3893k6379n7840o7380r2888j32367j41250r8067l9342q231K313K5731O3457Q5313P6720N1780
66413C71901K3103j0094m0622m7771k5161K251L100k3560m6218l8214j1920n606l2799n9012m4123M002M2195N1052
66395A12504M9744N0163L1899k1516q7691j25447j14164o3589k451L5958L7133J9241M378j7170n9175q4388l4922
66378b69493P0339J31360R1700J1636k3828j5380j3917k3108q017K6168L4527K397m1616p4404r0645p9989m3628
66361c15898j9115l3675m8482j0959N1959O4832K2089l809K0626M6251L4918J6855K0472J8481j0670l0930r749K2012
66343a64792K3744J1515J6945K4018O364j2207j070N885m1597j08866j05214j7370O1795N8700R723m381L6290R0809
66325a09709J27309J48305J59442J48733J00225J4273q3124j45542j34545n8462K2863M5775k270p6149j14765q7841
66309d5482j4581N1012N7947j637p8887r9420k5267J01507J84885J64317P9873K8279M9374Q4259O2891N59l1403
66292E68226j1315Q547j5099o1019q8637r2111p9171l7766L1663Q1149O6749J8402k94O303k5595r9884j29914o7652
66274G2582R213P700l6907j6754P7510J42185J19860P2981O6493O7620K0003n2470q7619q4068q5382r4848p6909
66257A21190k8085J6783L9229M2315J4928m8103j00684q7168k8026K026j6295k8624o714R371q783k9996l1169m4984
66239b12789r2746j25928q6922J4133J27658K25145K85211K67593J62564L4195m3253o7209p7858q3891p4773o9313
66223A81817p9697n6798M3938J57052J60358M0579q1457j10793p9614n6567l9421K878M5168L8476m497k4829n330
66206A31263J5756J5726J6254K8454J6802m8573j26141j29248k6997J04110J51153Q1626l3347j11320j39085j44168
66190a97735j26846o8513R922N3601M3102J4265N51j787J264K5682P3857J11842J12278R2762Q2741P4982L9340l0975
66172C10333j10954j67580j74494j23850m5403P441J5899J9774N4877Q8245N6698l7575j12281r6629j1373N5804
66156b71068M1792l2605q7061o1289K8062J10215J33370J02401N2244J3478O783L2649M8756k611j12021j81631
66140a78536j30464L73R2887Q7600K7369k1437l5461k0080J5245M8430N3780M0047M4777P3378Q1140M0811n799K322
66122B16382O5026J22821J25874P3045n846p3577r3187m6320L8918R5087P2445q175p1685o7594k5189j3384m8472
66105C56169p1742l3363L3753N7890K3864j9865l6977l4513k1021O044J7439l9260j51892k18003j58323k0765Q0467
66088b30098J01682Q8737P8579M9753k0505j03455j46477j26143o3111n348M086l1740n8579l5680N509Q640j1775
66071d95925J7162J08569J76345J48140O2355M805o310j2990k7754k2916N21M903j3224r814K3584K2211o1930j72837
66053b55105k06536j35397k7722M6120P4560O8874K3809n3859j13861j03601l2600L5860N6791M3909L8586O1867
66037d78305J02570J33442J30513R1776M6774L5544O6048R9475Q8323K6116m7821r0020r1763p5389n8679l5328m58
66020e7182J6832k0687r0301j06927k5554Q3410J14496O5035K3924K5901N811p0547j21612o8041L1623N6807j830
66003a38842m4638k2369J0552J0419J0190L6880N0584J7242k4940k6831l232O532O113J6258K3440J1396P039L3965
65985b0242N1283N017q0163j27763j16806r7599j04257j14086r8373n7662q04N9595Q8281N9237J0709Q102M2769
65968d92762L5607l6620q9779m8830M5313R9886R4122P7060P4170O3312L2161J11j8891k9373k7472j736L4420M8220
65950a41081L3936K2294L5065N9226P5560Q3686Q4154O2351J3019l4370l8323P932O4213P7708K6716o2855j38330
65933B30901j61534j33757q0579k0762L6906P3110O2121Q796m0140m4097j6709k440j2193j2952J4501M2046L9651
65916a7131K6631M2222P8911Q8192N5976K9165M7125Q1899P8132K9628j8970l4284k4083j1633j3133l8650q2992
65899C17005j12521r1456k8083L1422O0116P3378Q8835R4532P0725J7322n3141j24189j65428j45218p3802o950J6425
65882c1028J6852L1868N6233N5426K2488r279m448M0818R0941Q6919j435j18465j52163n6780Q0443J34247P7885
65865C20522j7636q8492j17996r2251p54J05031J29929M9569m4971n3729K0581R7494J13235N5973n0373j50752
65849B75380j78834j23035n4014m1312o1177l7180M1844J04712J02467P1457O8832R0223Q7160M2180q139j9575J2059
65832C73048N0176N4550J9964j9337k7281o143Q708r431n3574r5875j10722q8365m3025o410L584L728J5528K4240
65814I3363J659l3131k1992M7827J11234J05540M6839p255l6806n8272p2240o5538n1011n2732n9716m6535l2158
65797a30924n6363r7206q5162j8762R817n3438j33451j25254l2674N8142J03391J24809J34050J14982P6907N2890
65781e8246M1178J3289j7517p860K6256J1467o3857j10997o7014R619K8750l827j8690J323J6679J6616K7030M0596
65763a15205J7849l3936n5006k6058j341j7131k4562L9126J50070K19673J99658J22695M7923O617K019K3030M1260
65746E96681K1933l5587p9061n3898K3098O6457J6895q5521j51198j50257j28863j16193p4121K6938J32208J62357
65730A71868J23587R1433R1206O6513j5576r5715j02221n4210l1053o0990r2690p5406k3357J2714J0076q628j0706
65713c155R910L2951M1154L9608M1007M1412K5943m909l2840m4964l9081o953N6391J16789J10198J5235j07533
65696B91163j79491j88225j74117j51179r1443Q320R2765J06051N6532O28j8474L247M5625P9355P8780M6273J7470
65679B3280J7968K1642j7607r2588j36690j05175l2925J1278N158j9559l2216l2101k9755l3675n6241j00259j33670
65662g43135j10105k8451N5405R2290R0289Q3714P8426N6127J5531k1571l8705l5729j7516P712K5283K8688L0733
65645d31014M2328M9763L3060l134l8124o2132o9683m1492L0253J04466J19808O7471K321k5456j7241L384K8333
65628b07089N1499M8969N367n3371q1391o4391l1129j3814j1702l41K9061N1107L7242M93j2866J5443M8276M6440
65610a42197K3042J2738J0654j2068m5057m5786j1714Q987p560k5190p784L1001O3827R0570J08421Q2141p331j07603
65592A9091j37501q0581K87M1269M0667L8431N4801O4175L0221l9410r0633q8422o3725o2702o7261j9456P7004
65575b83745J43330J31117P8427L1307k4609j04581j56116j19521k1354O0646J00195J22364J22344O2914m5893
65560I6825j34248j54041j20796o6890p117L8309M3567K3787L4334R4167J46081J23310K9753p1567j28509j34109
65544a87144j07050o3138o266O0916J19952J41253J18324Q4124P1539O9584M5834m08m2399p3178j05273j26005
65528F65j01788l6738J7543K6912J1277J475L8N273L2971Q1964J08812P4023j612n5477m8758N217O6312J02586
65510B90695J06529Q8559N4229m059p7991j23585j08784p3078q7579j48701j70165j04034j0678L0570K5236K4899
65494b87937L3443K3152J2223M3218R2061Q1997L063n7690l7607J3936J5843k6368m2150p745K7471K1925q065l1345
65476a30575m7358o3212o1268k5575J8348K8222N025o128J8931M6919L0347l2374r4703j06624n3133L4065R2651
65459c46442P7624P682n4376p6277p9768p4367j9774R5012J77706J21134l9131j38456p7748O4307J46984J30294
65443h5596P1747J7684k6466m3267j770P9059J23498Q2773n580o3693n8383k1769o85o260j4824n387J7033L7467
65425I5581N4814P2173P3055L6867j8793m3610j8030J5961Q617l5349p1480p2664m5948j0005J4734O867l2143o0395
65407b9748l4337L1674P0912L8070l8998q8915o9827r693K4289P35l4886j3362O1858J04542N3294m1647p6348j9724
65389g2111N9563Q5436N1608L426j8638m190L0285N4325M8800K4674L709j3709l7993n5037l8938m087j961m6828
65371F8334q4088o5389k5139l8024j13507j78263j66027q5162J3120R3887J42661J46545J12490Q6785J09929J54042
65355A72194J50721Q8036K9507J5797K915n6727j18818j00670o547P2977Q0049L6396k7256j04877j60940j32838
65339f0081l3103K8438j4331q4825p3174J3696Q8946J20366J33991J20633M7611m5866p1179k0096K1226N602j9308
65322A58546j4605j5712m9045o8039l3943P520k114l9593m6815k9052l2007m9350k8625L9976J05330J25915J07695
65305A36082P2677L6431J7560K5910L6779J2945m4608r8819j26404j31968j16853p3825j6089K6598M9500P7968
65289a16116J22414J58633J60981J24786M9042o5752j85269k43105k05766j15867m3256q643J6497M6384N3653J3258
65273b38126n2052q9140p1123k2978J1580J9697K5873M9872P2919N9134M484n2917p3306n0543k085N7530J16385
65256b34796J49707J30627O4383l796k9129j1430J0052P68m1124r4430j32742j31347q1937j4643J7406o24j7107
65239d20162K2204R4675J23152P2752j7537j00024j60277j78042j10715L5780J65996J88887J29072Q1988P5473N0699
65223E3921j8002o8196m8898o725j6100o6839q4415m1627J0508K0869m900l3754m7558m0208p766L6834O3548N9818
65205b39490M6415M1885L3103M442k4275k2607j381N01j5909K087P9158J54288J43121M6842m1740m7022Q144M7020
65187B14582L7505J5160J7357K9275R671m8759j07116j26720j08994p9745m7322L065P2844J29320J35723R1000K5411
65170B62257l4197p7489r7852r1692p1994n9903n7555m9040l1504j9949j4092Q328M8481O9604N1990L5357O4445
65153f4805J11316J03521K7631m7123o1090l3725j8091k6192l2612k3213k996K5741N6921O5859L7899K786J351K1896
65135A45074J3633l0890n3629j1675O0734J01889J01586R1459Q0147M6504q351m8132m9423k8895j2627p091j0260
65118C80053k3251l8774m4105m6318o5314q9758p7120k0640K2475O135l4760l6831n508k756m8889r7515j10380r6548
65100d29804o4487K011Q9428J31298Q6046K533l8888k6691j5538m1631q5429j09027q9081j8691Q0613J47090J21220
65083b59028J4707r0601j24913r0191l2242J7693N5954Q2574R0147P4933M4869J3059j2858l1580l6938j2453M7825
65066b49043J12234J28934Q5126K7759L726O08k1616n7101n6805m507N2746O3678L0703n567j3436J1556N0191O6750
65048B25936L6004k1857n5115m3800k4542l3952n3286l7197K0280P8211R7182P0232J5380l6495n4775l8525k7835
65031A15846n6177r5012q3484k0800J3249m0630j28328j33674j8996J23777J74701J11593J5367k9709j2021K5341
65015c8957M6214M9880N3443O2953O1761K5089m7993j18615j38844j02640n1103k3352k2803l7583o2126p8155m8494
64998d71325L2400J05679J11936P3112N9432Q1917P8231J4357o1011q8720p1355l8187J2143Q4523J38365J23367
64982A84864N1109j5786l9156l1114j2916R786K9502L1505J4417p138k3092l2946l4985l0419k9967l5106k5857N647
64964H348K4304q986p6028j17825j09025p6918m7343j5132K3687N1511N7541N6403O5325Q6683J16810J43911J39404
64947C22670Q9305L2499K0569L8789K6993j2724p375N4937O9546l8706j81498k13577j33643p2847r4221j15938n9769
64930b74990K5686M8479P667k7828l0513k9105l1080l945N8178J07685J07428Q1740P2682P0765K8503n9175j23438
64913B8739r2354J8457J09380R6488o252j11978j53020j30564q2795l4484R305M1838N4134N4057O3774Q8923J04861
64896E8509Q7867N0468K5493J7624j430l9474n6827k1777L0975M1716J5166J3777N4879P5752L1221l0572m0884j5666
64878B96817k2535o7446q7639n4338j2099j809n207J0586M3553P7519J08604J25073J01801M2428j1231l8114o5165
64861D40798j06696j23816q6023k9294j221J2943M9095Q2988O4368J4083N320M5798N8816K499o4416p2522l9814
64844B52906l4304p8380j35084j63306j48108r5934l3988j93o082k1501j4964R399L2961N4097P3249P3545M8915
64827a86772K9101M1454O8246P9739Q8043J19879J51382J28830N4781n296j5800j4844m1849p4753p8279p0877r0438
64810A82547j18305r6266j8018M6137L1134m6816j10830j00948k3855N6120O9714O784o4117n9531K6262J12604
64794a07384J27043Q2625L9326J5413k1055q0608j21705j10246p4592p0733j10282j51595j53074j09113m0304K2363
64778h63921M4108R734m8378p0539l1468L8450J02826J60634K17401K46878K20869J60525J12788P9810J9573p3883
64762C25407j39987j30021p9359o2227r5482j28236j17430p2214k0853K7547P2822J02771J03495P8304M4230K0452
64746g0781K4467N9094R1970P1811j0782r4056j05711m7699Q040R651j8154j9099J8896N5738N5030K3698o898k3700
64728B1515m4511q6978j31798j32297p3781j1072j5945q2131j18653o2339L4376P1138L7694K6126R6084J85342
64712b87230J90683R8254j3354p4916p7332l2991M6431J14942R5716k9826j63516j73492l6970J33000K05306J47739
64696A42444K6687p2891j08083q5032l8229m439k01j5974l0872l1287j8966r145j8258m2888n5485l7091q289p85j42
64677d08926M1829J21541J56700Q6200l3941q6685l1170O8172J38656J62486J40380O6245l0559q0673n9610k8741
64661B21904m0731n2062P32P3635N5208o8013j75233j67372q6615l7405m4797m7243K464Q4142J45935J51769R9819
64644A16137K5159k3277l4392n2237j15131j92918k19479j75489r6760n643J12746K49285L33935L01111J73964M9021
64628D46032o29J4945L6009K3341j2193l5877l1132j3085n014r570r922M538K4339L2369K0766n443l1644m1463l6025
64609C70342m5346r7376j66912j83027j11139n957N0208M6035L4723L6535R163o2579j06929n0007P2016J48453
64593f1797J31801P8482M9411L5675P614k1282k3917j2274j1762j1273J0453K8649j742p0861j17196j08214o9482
64576a67715k8535J9032P2516J04563J02964R4695R9630R4744N6272P414j3289j0269j9465n0364p4638o9242m3317
64559A74996k2644k6137n3045p7414o4518j1464L7303L4740j4368n9627n8663j1295M8639Q0561O7223L1330J1040
64542H6657J2547J0313K186K2982P5594R3316K3170q2435j19622o5919L130K6167J7719Q256q024l5543m5194k1478
64524C822P88r566k3702J474M4568L9856k9212j02839j17940p2325n076N5031R8429J10896P3011q474q5638j03752
64506a30649n2894K2473O5219M8116j8954r9243j39672j02082q817O4582P0613M4300M4738O7094O3027L4098L8792
64489A0741R5596J40484J10573K4936n0064p9811p3784n0802k8400k6512n0212q0253r7691r9134p7141j8487N8926
64472b91035J04601R8130P7269P3204O0624J6042j6947J4818P6245P6234m209q0570p2393J0234J00337J44846J23282
64455E10712M1863n9151j18514j03331l7598K6003M9344K5726k1068n0285m0830j8563k3992n3717o4474l7027R90
64438B6088K4503M2469O0070M7694j8141j04553j47381j21144o2963k9877m2430o3686l2167O6649J59330J44385Q591
64421d2563j43705j98706j45545n6493J5012P2350J24371J48305J21403O0603R787k002J9524M5249M6040J3535l2610
64404E4555n8969m4523K622M9218N9789K7822j1554j3232K5656N8868M6206k288n2946r6372j36985j50463r9110K587
64386c39119Q0939Q5246M6317K5848L4361L6243J8421P367J6286J8970o319l8666m3992k2398k576j723j1279j2343
64368a08417J2303O8975J34633J59961J18271M5095N16m918j5029n6785r9546r8793n1457R006M7786M2411j1721
64351A92291q5376j26051j10073o8113l7753j3815K3696N6253M7420Q123q439J5741L6076J4452k1466j7241L2690
64334f1585P8225P2468J3919o3574j20452j30990r3884l4063J3598L1489L0117K8380K5560L152l9895o7776m6382
64317c61693J340J1107l5853p2784k8297P1065J23744P9466j0k3174K1347O4577M9158q266m7044l5811m885n951
64299b01964m6054p5752n0956J0107N4303O6856Q1887J15783J29075P9219j4585r1125j18612j13621r2857m4350
64283c12646L5974J07320J18644P6983M8044P4241J18417J16617O7930K8957K1372j583p3568j49486j67145j40794
64267c0723j33351j49471j23496k5843P7874J05837N8918N749m681K0487N3489P9296Q9431O9852J3793n6391r4573
64250d3803p2883j9779J900l3106q0601q6047n5601l7143m5132m4632p895N0771R9039J12504P9021J5304k3533L040
64232a88576N6497N9558P330k2552J1122N1362L7118m324j4530l639k5160p9461j09172q1302k0394L5088O4810O0748
64214a65477L0690M914O089J9164J9183J2872J9433L0404K8791K7510M2054M5660R353k7940P07P7628J00027J5456
64196B96518j03055j51728j18087o8342m8835m6398l1435k46K8618L9339L4447K9449L0947K5787K397k5484l4335
64179a40443k2639n843J1784L3209M4771K9586R96j3544k0158m7774q4418p1363J8770J34658J99655J84222J08080
64162C59549L494r7201j62063j76363j50171r8945l3792K4484N1329N1061N4474O9384O4512J9722m0388q4511j13279
64145b58704j35677j41806j30549j30409j53036j54493q9327J5680Q8736J02125Q9120Q1920Q2551R3992J27476
64130e12401J65360J61354J00275K6525p852O74J9855K6197J6183p029l3222m0946j5184L1139O4063N6445P872n3855
64112E453q9270q0190n1531m3774n7241m7590P081O2101O2306K3701J2374M3421N5030M731n8958o5259k6369j5059
64094b59043n2406q3311o9756m3741m2515m8847l4389j2511J072L5972J11454J65421J17612m955q3936o0159N052
64077c58986L8096M6653O4699P2502L5852j7227k9279m915m335m5391p0017k7228N0319Q1881L5015l8205o3490k8189
64059b62245J3587J9872J6202M3818P6240M4848m7291j01187m6764N8008J02511O3755J5487J8002N8622R8031J19276
64042B90772J17569Q4693K5836l0716n6419m5597j6086J538j5015n0458n4871l97P4442J04068P2175K1729l858r30
64024E18475P117n373m8554r8509j07759o2463j1264n90m340K8221P2233M7976n2670j34126j16911k7244O3372
64007F7591J27089J66466J67461J21675O1040K0959k853j9629l811N6203J03855P6181J363l3312k258L8239M9622
63990I95881N5831P1829O0537j237p0980j00020j01554j12000j20800r3572m1407p589O513M2564J03409J24516N5604
63973H67525o4640j48779j57431j25700j01729q9311n8983L141P3942J18376J24111J04289P2541L0253j8385n6033
63957E73187o9937o6777n4434k4984K0450M7131K5515j3821j3100K1495K0912l3165o2690j2564M2379r342j44448
63940B45807k19045j57333m0185J9709J4042N352J8459K6834J6185O220J7237M6986P1175N2590k3244j05398j10650
63923a15259k7275N6709O5166K7133R727P484k7931p9926p6658m762O5042P5002L6148k0777p9255j04745n1354O3332
63905a82199J46659J32894N4057k0145o5861r4560j05065q8849n2139r70O2358J04672P4463j3874o4215k2863L1689
63888a03948m615j02488j34043n2659N0187P7733L8846N23n843M596O514k0259p5226j13451p7900J7909Q2916O0670
63870c50538R162K1808R8539J50531J18258K9506n6287j05867j06855o0432m042M764l7747n9258m222P9740J00072
63853a72868M8373J0749M4867J07729J30341J09522Q2637N3201K75n8791p7079m9639k2356k0578j9354k726l735
63836A60568n1851j15421j35647r9079m3602p165j342k2403n3437o0185j9480M2525O8281L5369j5983l4939k2720
63819c76511k3157n5341p8838m2721L8481Q3998L7471n8537j03949m9962O1698J62743K19552K19521J45752Q648
63803A88848j20976j60696j03029k2267J0583m718k0529n950K7951N2930N2719K6579k0752p9542j27431j35870r3762
63786e35912j7627O8166J47793J99059J84798R2097k8485r9738r6219n5390j3590K6868O1201O1691J7127m2395q0342
63769a10898q2631m2766L5373J03047R1794O446n9307l9259K6932P4312J05387J36254J16426J142j36248j74452
63753E1552j12600n9890n7863l0362O3299J40868J21301M4066p567k9603o1660q1597k9828P8778J49471J22445L7391
63736C38201k7988m2654l1663k9727m3115n0013l2056j400J3509N458r093k4421n2356q8049j03769r2267q2086q8104
63718d41593q0095k9272M1113Q2930Q1234N8963M3520N2504Q8984J24335J11506M6926o808J614L5220J6434o1578
63701A65937j22845j08539m1420K0544N3064O6255O6540M7787J2721j7150j8515P952K9706Q426n8123j27315j54638
63684a69613j37825j06082p4486k9565L7374R9152J07904M4210m9785r3167l4657R6715K13776K44156J79917O9251
63668C97275k3226n8822n4428o6634j21371j68351j41229n4789Q916J4319J0451L5831N4605L3320J8994O7637J31910
63651H4408J05130k5856j46141j49969n7914K8691M9665K9013J8049L1091M3471L6635K5271K8995L1706L52n3654
63634G8943o9336j1676P8931J36532J39710J05521M5844l0740r5359j19586j11366r9205r0973p4598m5155o045L9037
63617a29521P1065N6415q889p9154j09564r8271n5037K6027J23390J68335J25272N0824J3961K149k5164m1018m35
63600I0385N4798M8191J253n34L7659K5052m8879q5958m5510p821k2847k4660L1202O5223M963q0171q4139k7728m195
63581g3716k1944j9705K722j0105n1529n4307r682J6090n687k6504r299K3592N0302Q2444J13384J02294M2609j0761
63563A40198j6789j789l549q932R255K9098O063n1020p9798m8354m691j9680r4526j51129j20008j6634Q5900J39657
63545b06728J46635J18132O1550J1730J7228O9107R2603M3698l0175o2713n5251m4873l4364j5107j8323o8231j11565
63528h6647p6362J0707M9338R241l4278k2840Q794J1268K606K1674N0065L5885k7179q4551p4763J7506J41938K04874
63510A57276J42638n463j20685j21033l6939L8031M5928K89m9763o8512n7588m2651l3400r052L7259O1842K2045
63493c9778m7259o6660k5571P66l2560p1219m8362J4258M6857L6999L3165N8181P6383N2754M394k0578N486O7114
63475D4370J22211J37548J13395P3506L5821N897p770m77K096m2795j36504k18815k27836j63600p6726j3862Q273
63458c45268l884k8067l7657k6254j4582k0318l0758j8366K2540O3172O2430O929o0587o5723J9645J31690J76735
63441a68323J32959N7503L871j9394j2846K8069P6537Q2448M1136J987j3694m4426j07994j52569j32964p8684l5597
63424c41981N275O2718J02548Q9945O1992P4033J08486J11925Q9565P9936O4369k768q7307r9848l2097K7040K6830
63407C40661J2643K2376J8112l3969r4851j17830j17672j19834r8792k9212M5992O3068K4518j6677l5070m1184l1984
63390b09705R631O9591J03879R0864N2703K3474J7506K4566J7729k5352r0862j28742j01712k5017N4044J00051
63374a7352J02270O8624K6228N766M928j0691n1571p7707n4221m974K2473K0435J3040Q102j40J615K6835M6982J9513
63355A50155l9535n9405n570O9797Q5698J5956r5345j77661j83160j15765k5525L7750O8732R2104J11998J04612
63339C4836O2931J6722m767m529K824K0181N4568Q8854R1851N7894K1108K1330N7170Q0732M9102k0642o5652n3145
63321E11368j9396j6121m2414n9332n1854l6259j8278P655J7997k7168j13405j60377j10576J310R2813J18019Q2639
63304A76621Q373p7842j37086j40558r6293l2766L1513P9967Q1465K1637n5864p9484k9524L9416O4023L9799J6185
63287i0418M0757J13527J83926J91438J20923J7311o2738j04406j27250j41694j41459j30276j20368j01888m8356
63272d00971L5948J02992J11708P0816J8363j9733l5781k7530k568J5398M659l1742o7797p1853k3588O5052J39278
63255a17349J37750N7394l6357q0151p4797o1245o0114o1474n3833l0245K0594R4951J54079J57421J11434N4454J690
63238B14202n5425j00419r3520l5252J7670K2989J386j1416k2993n6904r4475q8274k3996O4925J35579J58916J20249
63221A53242L7477k7615k2580K4064K6487m8492j34857j53783j09904o6232n0632l3585J0098O4356J04597J28113
63205i9246J33765J03622L4678l0136l8517M001L1603p417r0612j43565j10298Q04J22272J70369J05763k5705j23276
63188C8105j23847n9205m626J4710L3060O6100P2083J4804o9059j04284o6330j915L6659M4780M5308M3218K2154
63171A715k1965o0606n1685J8537J09455J49275R9922K154n7263l1464M1803Q6909O9791J7442l2363p4872j20707
63154A46078j53731j35904o0176K4028N8279L8918J2340J0603J8172R047j1746k4658l2340m8727n9411k8092M8089
63137a89231J15942J17868N3855k3421o7063p3194o3933n4242m6401m4423n2697n6342k2261O0742J49571J78395
63121a6835J29288N3533J2473J2856J2946k3455r6540j79097k31860k19343j38705l4918L4029N0581M1002L0656
63105e63389K1525J4982K4679N1791P1925O6433M8684L8157K3994j7343p2809r1814m6985K2288M6679M020n7449
63088d14632p8989n8555l9197l8814k5036K6140P8480P6742K5758r252J9598R6217J69952J96346J48730L5719p7039
63071A32168j07231m6308K5001L8836J9219K2838M2600K7853k4029o1446n6698k8596J2337P4703J30525J19294M0187
63054C61253k1642o324L6108K8731j0941p291M2053N7993N929n3211o5326o3547r7148j35057j06912j5096N8867
63037H439N7454N098m1432n4502l5345N658M5172N2608K4090q258j9137k2193l9660o0634n6324k4063J0587K8269
63019a24173K8402J3809j2049l4846m0238l5502l9469n1017m8488k1056K0006O0809R1837R4935N2117k2963q5982
63002a53868j06408r3749p3707n9362n2134m7599l2855k754J6547o559n0988n3266L808N9377O5646O3424J12344
62985d12103J81695J82261R5394L25l3225j6986N699K2160L5534L6820K6114K5813M0286L3175k2025r2716j19758
62968a1537q0847K819R8809J71891J81900J11474q311j22208j91853k00684j46194n5722J4984L4861L0902L5741
62952a33975K9001k1607q3543q7301k6876K9980L8544K3481J5658P563p57K5784R4289J42971J14703L4967l3416
62935A69466p7968j20436j41811r6790j34O7577N5158n278n0873n2212j5625L4665O1439M0680o29q845K0556L2926m8
62916h8182l0385l378O0851R9348R4989Q5907R6476J02467O9443k718p9128j17878j02265o0197m4156p6549j23498
62899a18853j35947j02549m7303M601L6059L3762M494j7814q376K0304N1841J01330J75818K22711J76355N3427n3734
62882C96126q6191p0102n0713l1307k757J5336J1l8447p4533r7026r8350o3612K988O5033R1554Q6682O4244K2661
62864A31597l1981p0047p5900p3597q3412q0364l2699M1613R5771J12489J03685P1932J6153l7888n8430n2670m9365
62847g3113m3350k667O8747J20334J16842P7347M4412M1394O2097P5575M4648k8450p9537m3844N9810J44351J55067
62830G39663J14522O5529J7962l3390q1594j19033j43346j38653q6865j0811L3293K2546j1563m1218p2744r9578
62814A54720q2912j9117K3813j0065q0472j04130o4143j0680K5779O0558J00867J23224J12616Q3218N3330K9579
62798C96185J4169n27l4988q7846j13418p6674j7416p049m5591n9543r666N6364P6279M5867l664n1381p9411o4091
62780f2401j1806K8570K2409r995l7272o4700j01290j16449p9680j7332K3921M9842R4417J35926J11154K5200k5203
62763c4689K3102J04102J04735J2724p3075p2260j2064K5296O763k8097l3349j6070j8688n6919r7891j05138q3692
62746c55210n9980l2372K3042R7335J40291J26067R2206Q2042P7443L4259l1218m8350O202O3846M8860k7081q7497
62729A49885q4146l3694K1728N3074M8807J5594j9956l2576k2678k003L3634Q5404J14504P3901j1213m5887J8304
62712C62682J08038J14238K8709n5504o9829m2311l6704o7897j02627j12619r7781p1527m6042k6087m760K8620O9990
62695b1411J00079J06700R3955O6221K3262k1520m3427m2775n3013q7692j02900n0070M4579R5956O0981j2172m9321
62678A07432l4332p086p42r484r336J4862O2733J17308J46782J25767O4782O586j6807j3395p117M81K0143L4075L397
62659F06049o8814j17298r0314k1980J1410r647m2485o5153r7283j28426j02778j4830N0714L5530K213L0734P2959
62642E0601K2269r3664j20580j837J27469J29635M4870K9J8073K2459j6002m6002l6100j3857p12J3604K2869K643
62624A25767k8914j5718M8756R8412Q5632M2258J9902J8457J0367n199j4544k6770n6715q7072q5121n2100k7948
62607D9450m4536q7282j04557n6388L6890R9939P5043j5570j01416j45291j57556j42161q6438j2613K2382O583o06
62590f64127M1596Q6284O6503m627n3321m1192Q018O1908J09451J40183J35781R2207K9621k1552l6130r592L0497
62573b8492M6783L5033J9413J302m1181q7331o9606K3628J00423Q1740J6784O968N1347N6812j2027q3931r0455m6338
62555a9128j348K3201K6182P634j8711l3192m2006o3870q5140p4865m2706k7257k6576k153M3257O0111L6757J7711
62537b22099J7199r215p3544j11521p8032k0589k084p755R270L8994M0263J9783J5522K3354P643k5533k8837Q964
62519c98217L7358J0832m9119p3628k0072P4642J19784O9414j3019k9110J9568L4762k5544p7620m2277L0795M4676
62502b86775O664P719P8263J53019J72745J43606R3075L5398r898k3784k4009m8438r5368j23449j12941q3186m7385
62485a64744N273P5840J39286J64405J26281J7664j17018j88883j59571j02899j07562j44845j15502j1823O7590
62470e16508P0963N5328O6059N9159m9n1598l1147K1702K9357L373J7574P9230J14097Q0440K5071Q318K6222L3581
62452I1172J2734o995J0004N8474Q9507O0200j6477q6159j15179j12397q7806l0273N1507J03141P8192n18o8089
62435C1038r5271j06378j23069j21895o1744N4504J55837J54599L8489r6528j32859n2803N3295R7689P2117Q289
62419a24690p9490j73664k19962j73337o6080J5943K7309L713P830N8352J17785J37550J10107P4330O4036O4274
62403a55994M2769J1480J2316M2507N0575K1350L662K3951L8612K2531L9905J47151K67165K56657R3167q9388j63093
62386F65323j31441p3307l2467o263K481k1879o9717r4318n1535M7622J28041J14360J6834p0299p7511l6110j1546
62369B98268O06M9506J23097J47205R5104K2890k3657o6075j24171j55637j14040k1229O5516J20450J39129J03321
62353F60283J6232n5187m1336L1262O1035j907r8323j41131j12712o2234l7381m2283m7612k5996J5975L8217J1200
62336A68102m2357o8619m5628l268K1696K2831O780l0467q5991j29303j28889r1457n0630k2739L141L7873Q1148
62319c57777J31070J71713J56357N2809q1005j23038k9672R1297J05046J4417o6629p9329o8975o4689j7137R3264
62303g2278J74348J31478N808q3066r8182r7487j04450p1738J0776O9564N4098J6834L1068Q1594R5894M8286k4279
62286A68268q6200j27438j36847j04099m7778k55L5580P7927J16730J15052O7563J8281L332Q757N479m061m016p622
62268I8653m1453q9937r4451k4898P1273J15302Q3569K7018O373K7683M6028J6097o6969j58772j87567j07814M4129
62251b35736J60871J60086O8894j0763j8338J2361J9123o282k4789j5561j532j0113l1142k5583K7428R8238J28381
62234B95543R0162J7997l1124m1817m6219o9058r3246q9433n7383k1795o7J1916K9810O3646J01258J08244O3059m769
62216C26724l6104j0932L1187N1914O1152P7372P5891K3895m8249o3354O018R4931J16013M9399m7376r9701p7333
62199E31447j3465K7835J4162k3221l2614j0850k699l0121n5911l4785K6003P9962R4963O7575J380r2368j73226
62182C74067j86165j15154p008O9493P7867K4128o4233j48600j81852j32667j9140R5274J50806J34012P3479P423
62166A51730l8643n7916o2185o9727q1483p6129m0741M131K9059L6503N0290O7537N6021J0257k4267q605L2756M6227
62148B4815K7126K4577O5989J12309J07204M9262q953k6394j4995j1434k7317m4998n4238o6259q2136p2495j5940
62131a3877N3598P1221J6890n9988r9616r0912o2259l9416k8611k1093J025M6546R3490J08324R4754R0821J04119
62114B65016R2485L6165j6407j7993K296j1609n0403o0987l7113j5567N435O2144J35260J46775O8941l6981j16386
62097D51071j80190k33017k23915j29066j8823K8364L0027M6135O6675L8693k0602l0672L1018R4122R7196N9310
62081A06326K9476J8652P367j7623n4745q8923r5040o8256m5960o0725p8293l4455O5115J40619J45411J16747R7121
62064A82814O7269l076q8862j42480j56835j50882j23580o9529j6424J133q569j0730M600K6313O0176J16106J66151
62047a46405J64069J11139O0720M7848M9432K7905j3560l6536j3088M3781Q7262P6567K1749j9676r517J9258O125
62030D77073m9274q2334n3866o826r420o6786j18520j14342o6128k2115p564k960K2765O9113J02622R4379M5719
62013B11536k4463r9382j60252j79785j41211n9873K7902R2975J21838J10158O5090O707m6392q3989q9267m2119
61997b90527L8764Q3654M4468l0623m2517L3693J12055J01229J2478o1821n5915P127N1572K9623l2957o6399l3155
61980i9251L2064O8815O6398O8798J06255J49301J42627O9543k7592q5587p7514l4619n179O671L6441Q6484J00635
61963F04290M6877j3598J227P3202J01799L8969o0367j29358j62022j73806j54381r7633l2718R813K7642K0432k1069
61946G9299p3505p7980j6025N2669O4911K8090j3314l9904m6125j4256M8879Q8575O9431L0460J8892Q599m7209
61929A61487j13569j06213j7949O3591P1524L0256R6N245K9748M1962J4515m4621q2998o2806j8029o810k2771j4930
61911g2272J4894J2324k3649j8508O0142J35592J24936N5484J7463L2995L5603k7249j23412j79443j63622j07648
61895b26370n6618j6658L4951R4627J18902Q4980L5774K7689N3175O0959M1526L7510O6989R1595P5413K7677k9706
61878E22415r0071j35819j31525p5677k2412j5631k7389L088Q4933J59718J62998Q4237k7328j06069j25965j15385
61862A44118j09809j04251p4847k9371J986J4393K1813J2034l5992r0458q4940j0645O8716J09123J30565J48144
61846A10579J28055N1003l9189r3512j14372j15926q3773k2015J3685j1440m9062l7107O911K3068O109L43K1299
61829b05344M5534O1743P3347O3877J7055l6667m5791o695L4370M0896J4553j8402j7365M5284J26973J25312L146
61812C21826j33050j49455n1886L8192M9642J6246k0491o2357r6002p8888j7090J9724j302k6422l753L9989N5205
61795i9872M7657M9830N5450L7098M532m912J4582K6825M374l2185l2002L0011J11838J31587N5895n1592j00162
61778B48954p8762n3952p0122j00708j01067o0781N535P4040J09178R0514N0699M1331N7724N2433K5714K9451O3892
61761C84073N4658k4622q6113m8729L8229O9029L2533M205J2858K830o8694j65975k20772j98054j09398j027O8370
61744b56599P4413N4259N8171Q1999Q2376M6895M469k7804n7787p6618n7078p347K3640J8063K1425O9355J18931
61727A70763R8691Q912p4627r5684p4868n9806n4488k8661K0956N8248O0585M9174M7922M1864R284k5876k0092J6464
61709A48761K4438j5759n1371l9781j4106k3482m8874l7756J32J31n2943r1731n9496J2709N3295M0102Q630p058n536
61690a59695J246P057Q826N026m4l066j1310l0929m7058l5195J199K3280J366m6393p8079p9812o8360m8121j789
61671e61851O5735J11282J07723Q4635P8953O9677J1096p9325j23025p9439O380P1451J02911J13968R8248M6950
61655A25369k0269p9549j31610j70656j56121o5110M9321J10190J17328J33525J66330J34721j0448j85863k53314
61640b36156j79344o5929k0600m0430m5452N158O9943R3426P7189O1585O3772O8977O9851P0018M7295l3983j50436
61623a45116k07527j43495j3812P6052R7516J02608J17961J06928M7483j9066m8116m9455m8678l4750Q436N1067
61607a01964N1075K1744J3325L3444L9001J4266N124N0076J15009J32207Q5300K2519p968q242j3717m4768q2959
61590C23472r1001n6510j4294j1633m7093o6132l4847M998j2491q2485j26094q4686J8499J18478J72836J70889
61574A81906J17645L9307j9702l5361k5863j7198j0800n736k0035n5546p1754l9354L466o57m0905n6504l2781j5090
61556a04962k3979k3083R632L8563K7345j0508m6997p9057j00585q2289k1982K4058R204l0448j9305N8330J46528
61539b29535J93517J95723J70107J24219O4302P657k6271l1069j9066j2780k2637l5743m1541n7501r6120j14870
61523F8392n3222O9646J53506J40713Q3786N2149L2280k1983r2661j25914j22956j23455j17653n7943M2604J00532
61507B7821O6491k1096j01077j51164j66183j30467m5871M5061R0711O9818l744q9681j35841j17452o4408k0374
61491g47456J6990P3886J27457J14720K7362n6780o3933p048M6627N6679L2434K443j0338L771L8331P7008J02361
61474a65486R5329M7235r045j2819L9472N9059k0360j19665r5972N4028J70590J36171J1268p7842r6959q4253n1299
61457a20548P079N1305L5091j6916m3888m2682n4714p3158m2547M3349J14809J18852Q3937O5998P1449O3372J9319
61440B80107m2182q1804p3638k5747L1033P8844J25704J70951J78423J13970J027r2021j20528r8250o8104o1001
61424C16784p8310r1557o4968j209M5611L2203q952o623M9104R0101O6494J4155m394P712p021o8641j24542j18114
61406D7833o1811j7630j7782l1225j1360M4817R7188J07736P0368O727n0438p8494q8271j15861j68078j90777j30003
61389e87061j8778M6663K7545j0310P167O6916J05961J02460Q1762O0033L5448K2320M3100Q5789J08218Q7282L5704
61372C00219k4507p4740r3215p0544l0204m307N930J7826K8380K4697K0659L6971N1503K2891l3892n2851j1825L3471
61354A46462L3219P210p711k1625n5387q0887n5469N114M3102L9001K6277K9250L2946J8377j4016o1396j16855
61337c2388j42396r1316J9133R9678Q8804K9979J0434M7097P9456O1450P595n2009j06051j33821r6614L078Q9730
61320a18161R0369K4967k3367j9478r821m0969r1043j04691o6105r944K6525L9883N1989P6625R7285Q1753K4191
61303C0008l7163n9155m1962j9680j3424j8979l0612m3237l6520L693M8313N2061K1617R171K8499L1981p066m4979
61285a27434l6443l259R549M663J0456K3033K2722K0745L6581N2167M1864K5749L5232M4487J881p8859j27216j18978
61267a63060j04142j17738j26049r0021l1384J622K555P484M3451R7742J30023J09278M9657L866K532J3391q838
61250a79631m6493l8377K6212Q0166N8131k9796j11819j15068j7490J23588J99580J51211M0707j9462l466J6156
61234A34149j1775n5928p3030o7669n4569k6169Q608J2731j5692k5394N674K9640J2998k578K0519L8759L510l6203
61216a02419N175J12251J77711J41023M4586m6069j08525j42895j46473j26026r5344n4843p199J6719p934m8681
61200c88943m8214k127M6025P8049J09066J26374R2097K0184j8677L961L1328R874l5941n7797o1670q0781j06892
61183b84084j03131o5704k5293J448K1850L7710M2624M3107M9916N2891L5165Q227J194J6376K8124K8576L8235N8344
61165a4425M9739j0482p5119p1594J528O2328M4510k3923o8333o8361o7704r0045r7237n1066K4476P6428R1186R1252
61147a96842Q1573M4020j5608n4890m1847P354M4786L0736l7505j14869j32994o4329L7750Q9267O5622J4829j4257
61130b57204j9942k1398k5973l7524o1097p9464n6426J3081Q1955J04570R1340Q6188J04862J18400R0723K0160n0245
61113A02006o3942r408N6091O8390L6636J9985K5342r069j05033j85146j72223r6079l8702j2856K8756Q5272R4848
61096a75132L9451j1386P550O9969R4978M1978n4588j25057j25560p5981m1501n9040q8890o7127L562N6874N5984
61079d53916L6470M3739P0624P9376N5332J8451J459K2760N8128M6628l5129j12247q5150L0068J05650P0261k206
61062d9702j3785K3887M2655L7017M2363M1753l278n1882k1250P2563J14908N8618n130J2402O6735N4894l4618
61045C88150j17515j31214r3947n6811m7067o0691p6815p4139n0462k4854j3107j3305k0393l1107k4869K7127J11536
61028c09483J62885J36229O6424K0462R196j4742q0663j59232j98398j71748r1358K547O3988P4746N8461M9125N1134
61011c30427M3393J2910l1489o8111p1348k8823L2590N9260L3329P08P624L4510L2680M190p192O346M980k9544o4910
60992c59324o7803l6369K4004J05244J63345J39333M5048k1950Q711Q9585J21147P7607J8068q122j3268k9299n9263
60975A96694q4605r3489q7266p2377n5123l8863k2781l846K2210N7812R2138R9532O8371K6582J1586J6773K182l9872
60957I5658p4903r3380j32410j98991k26846j63919o1876j1303j1705J9470J12774J97632K05571J57466J13558Q6221
60941A3017M8925M027p631L4240Q9956R1571J1111j03558j67293j42223p6329m1601m6742m3527j4098l592m6274
60924d00021j00723r8087l3953L0487N5345O8554J09440J56782J49567P6459P754J3216O8159Q0332J0260p8358
60908A15213j05184o6501p618N5592J27872J70890J25881J0630p4168o5829j4991n134m3237p6107p9408p4450p3144
60891g9693o1319l7838k5430l1919l3310q619L0782N7563N7595L5016L190k0407k1518j647J9925K2333K950j7454
60873a09800j1450K6281O7524P8998O2746N1997O2620O9159M0206k2310r3154j51511j79545j57121q8983k2139k077
60856c78559j8120k3454k550J6974J7409J5423K6137M1685O0523J01069J61975J99240J74129J05076M3580J3684K902
60839E57123l056j1626m0115r9435j56790j54781q5275j2298K591k8347n1167m9529m8346m8943j6000N4758J05394
60822h5842Q8975M0198K7235N4934O9570N0092L1201K7161J956n0508o1111J7982J14751J11900L349r9710j19162
60805B22971q9149o8058n0884j4765J2772k694k8616m996N7881Q5942M5021j8949n1508m9275l2049m391K6496L2729
60787F8478J978l1552k7583J973P439l0843p6764q1449l2627L8382Q1958O5461L059m8804m4168K966M0369M8031
60769a3696N8301R5148J25692J03304M0162m012n055l995l6867p2685n7612N91L8533K6465O043K2803N9991O9963
60751D53074M4085J3437n252k4273m9810p0703q4896j00238j03912p3289l0824m0115j15146j75636j40204l4867
60735e38569M7066P4616J01623J58379J93413J54302O9788M232l2073p4036j24355j42286j11112o8446n2364m9095
60719c88917j5709O1542J47907J92008J70117J06852N4980M5844N8958N1603J5695j4009j2036J295q196l6931m9384
60702C81619l2721k0174m6329r2934j01394m3899L5022O4529K7543k7442n5732o7249q8299r9695n5329L9949J13284
60685f9251J03618L1163l5488o1468o6094p1347o4761k5332L4013P0522N7739J6192q211O888L9659N2443L0725j2032
60667B8978n5843q3185p2915j1369Q0085J46319J44796Q7181K6476N560K1997L8778K6856j853j0012J1738K5593K963
60649D12143k0136J0191O9220O6751k0886r5885o7271J5221K7082n7779j40553j41866r1930n5555m0220k0667M13
60632a51727R228K2991O1870R9149Q9285L7392l769o912k466k9058p9705j11069r3323m2427o403j7072n3140o2050
60614c39206k2699L1384O0309O5323P0249P8937P6949N7773K2424k6955o4773l9305O3261J67653J73235O7366o8952
60597C72973j63437k06913k04186j39712k4399P6176J05816P9128M1722j9o2701j18491j00293J2502J46201J94634
60581I001J25908J8044k0669K9807P8880L9714n6566j05013p3658m0643o9329j17187j13702o9787m4187m0728j4893
60564d65008L4238N5349L3440K1806O5589J40434J88684J82827J36022P6037K2916k3742p7786j34187j58320j31234
60548c2935q4280n3049k1802L6116Q5847O7913j536m4072l7125l6946o5116n9839J7655J06401J32267J07321Q2411
60531A99231N9215J8778j2937o803M04l8670q5140o1319J8272N5773J5894k5419k127N0941O7772M8373L5001L2655
60513C69894P225n2032j07386j09879m6552M3711R7985Q7645M9581L9319N6880N1017o21n5801o9075n3822n4950
60496B53139q0923r2729n5052K0409Q4317R6998O5929L0710R381j9022o2476p7394k3481O1938R8756O9285L1622
60479D11407K2990J2881k7911p5640j06885j44355j98279k10387j23007K1461J15818J15466P4701N7233O5054O7452
60463G7999N3483L1441N425k2959m4128m9868m7350n2174o6932p0981l8408K6549P9534Q1127M9280L8183O1442P5162
60445A86825N2551K7794K9921J8373n6639j56126j83524j09645l740O4894R2853R5165N9377j2975o9764o5936k9850
60428f0446k2763m8594n3374j1549L4339L5290M600j89M7719J08179J16121N0903m2966j02800j05611p2751k9975
60411a53867J4176N0067N4927J7262m0416q0717q7179p0546m9960m0761m9688o4565n6581j2240M1587O4316N0654
60394d13531L0775K1630O214k6909m9311k3209M4608J03811J14999Q4785M4983J4883p481k9020m8918n9065n0470
60377b41226k1858J2571K6783K950m7193q3373o6594M920Q9390J37046J33913J05299P9190O1996N3242N8165O5883
60360C71104L9166l8079j14722j16757l8695N1189J00441J16540J09177N4590m0326r7999o3820l400k5614j21051
60344A81744j59816o2865R5830J84308J52983N1585m3452q2435o1629k6531l3841q6899j30373j20249o7513m513
60328b13666M7916O6109L0787k4760k7958L6389R5664R4386O8829O3670M0292n0139j52256j66652j02733o8602
60312b62724j07068j40296r9567k1838K2466K7793L1953M6158N4111N0916M6999N1121O7200Q7816Q6056M2901j7717
60295c3720n7596q0675j09496j13722l7244R2137J64508J34455Q5937R9953J33910J03865K2867l1591m6959p7867
60279B48762j35879j66251j38171q5047m5904k7627l1386n6045o6694k0851N8437R3320N5984Q963J4472N3768P0581
60262a69568N2064K7081J5062J5060K2791K4202p706p5074j29871j21340n9753k060J8937K0003K5700L4981L7864
60245b71627L9821N3868Q0246J05401J15968J07687Q3329M5384p305p0191j18180j12258l6365P3330J50399J55895
60229C95402J08271N3860J7234j1572m8904r2522j27511j43127j33905r6541m4258j6163m2776r5860j03861l7119
60213d19352M9060Q4021O7981M7402K6867l0201j10486j33696o3774J9157J3811o9263j27829r9869j4451P6922
60197f83700J49300J76311J25185J6498o1560m4133L3447Q5674P8533M6370L1054M2651O3720N7949o543j04336
60181F420j44963o8664O1710J19255O1027l7226r3209r8377p3274j8480M7498O3946K414p2642p6694j3275M4868
60164b89666N9271N0761L6697R657j8734j3006L1854P6870R3361R0701P9191M6880j0326p0802j13524j30475j06791
60147a78081l1363N9993R9284O7318J7072p615k7418o5420q0604k3039P2962J14978O7041j2099m6622j8588L7677
60130D5476P9908Q8625P8145Q0058R9991J03319O7318K6434K5183M2074J5069n8857j10863j03931r0148j27312
60114B60489j85033j85487j12017k3894K8283N1672P0655Q3455Q1407Q0135R9748J25931J19256O4498j0004o8541
60098D80553j06424j39615j68060j69929j33720p9245l8209k3684k5719k6202p253M4385J21704J85700J87450J14161
60082B15893Q809o4426p5872n0468l4394m6102o3636n7672k7368L206J6940J9352K3589L2404L7681K8182l805n3147
60064i0834r8015j16666j08579q7315n6412j3556K1802J5691l0984o5554l8807L6379R9717J05858N8152o257m9541
60047d24921o2043o8789r4631j19744r7012k3413M3377O3513P1149J13979J71149J82900J40618R3131P5529Q4294
60031A49086J11271J42380J29155L2627r4072j37123o1304M3551Q3250O3242L5889J1843j7787k8092m010J282o6521
60014C94667j58079j67493q1171L513J9772Q113K1968L8966K3726J4305O5916J41685J43962N1701m7504p6360n2709
59997C44978k8567q031K1987K4348n2025j76768k45225j98249q8307m555K6588L5031L6795J9190j3455k4849R478
59980c21636O7844J04190R1707M0197j7211m8939m5837k3392k584P003K266k1964o1240q8041o8054P093J10011
59963b68587J94984K18893J61122M5666o0674r5130n2397J4415M3664J2846m9316q6174o1805k67L7182K4575j905
59946G7092l269J1472K1263L8061O9142P3894K4457k0300J5257R3010R5869L51q6352q9829o5073p6182p9916j5217
59928H3730O7560P0233n683p3865r4491r3393p4326j9565K6864j1173j08462j38741m8977N8685P4616L0646K7571
59911b28771P4316Q8914L4336l0545l9222N240N4998P5354O1923L0990R223J5270M1134O1295O0667M3377K0423M899
59893C83821J1847L9132N0624P219p5443j24908q7103R699Q5160R2129N0387M86m6078r8723j54378j96510k15723
59876b68362k06384j50712l8783R2008J70471J60998R6818L1702j3814m1637m8284m2974o3011j21194j54748q6424
59860f84330O0385J65919J53551P5493K9774L7040M5909L0038J8893L1508L2296k0732j08862j61336j26811k1241
59844d42506R3138J62415J71111J32311O6077r461p8405j27770j45090j17489m7667K8044O3194N7741O4661J13618
59828a6078J54007J17645K3793l3917j0771L4016K7131k4452o5725q0769r8171j29195j49818j41280j09394o2297
59812e65275m341M2008M2654k744m5054l5069K3183Q2812J07125R6043O6809L1360Q45n607K1168N5225N1115l288
59794d1031o4859q1247m6387O113M8117O8820N7101J3626k1834k157N6692Q3124M8402R622J9601M0628L672p7498
59776A20505j19993r2497n4082n7926p5522m9868J6355O5693N9238J2165l4504n1460l4663k913J6398J2506M553
59759b66015K1748O8095J10942J08720N4956m428r704M4247Q7809M6908o7464j63146j64918q5018J3366R3769J61074
59742E0941K15854K31167J83020Q3778k5024j03159j30591j10183o5325k9830k4524l7032l1739J1429P0063R9900
59726C88745Q3045M4900J7939J978k4100n8320o7785l4316R585J0846l9838r1250q7695l2333J7584J5210l1209q0793
59708D2193j07020j04210o2346K9312J44124K12342J79153O2035o4516j35496j37446r7950n3236k3205l704J7769
59692a02201L5597K7351q771l4532j0671N3501J09928J24786J01479N7489L098n4312j02353j24505j05293m8236K385
59675g5260j3654r6363j59368j23615k0718M9073N2033M9495Q4907J14103Q1074N173n2259o6174m8214m386N9733
59658a64420J17424J49384J72281J98495J94611J29266L8834j1838k0101l7917q2268j17881j31456j54370j92983
59643H7061k01161j56019j06551j02028j13104p6813L860N9970N1734J6528J0023L2144L4251j1599p1678q6791m2243
59626f72416J4197L1024J2770J972J6006L4500M5900O6208R8912J13577R0355N9565O5511J04924J31088J13647O8459
59609C96199K6729m374m0524q7945j22695j10389m9862J3571L3019J1187j1849j3418k753J3091L6988M8712J0320
59592A46007p1026j24791r6122j6055M0188M0043N003l6576o2466m2927K9756J00072R0390l676r7926j13833n6607
59575b70546J2324M6884M0375N578l9328p2294p5777m8552o672K7327M1422M5206N5878O8635N9545K9793J9506M8737
59557a1959P0152K5136o6961j26588j17713p9551m9684j6915K7028M9003L0173J4698N1011J13542J35312J00857
59541A47541N4606K5199m754m7531p8106p3762n1217l9831m1261m0937m2737o2571r1883r6673o2109j6410O846J4135
59523e01455L3885O1226N8272J9031n785K1488O1709M6747k7872j03657j38780j34000q7956M821R9245J14590L9193
59506d39298l8028m2016l279J2733J1403L5352O7944N5232P099o837L5527P8891P8237M9576J8597j5190l9595j8533
59488a52185M5304Q9960P5647M0407L2385L0902j0798p4968r2533l7430M3157R2557R6094O4648O477o6571j25545
59471E7508j34908p7814K3564J09002J19553N5106j7785l4239K676M1388N1226M3911L5658K3229K268j8134k8356
59454B53853k7941j8935p359j1300m4135q5104r1040m7907R750M2085M6608M2986L5119J2344k0324l7954k5613K197
59436B7330J8341J2333j885m600P886K3673L6124N3095P5415P7529L3769l5133p0096m3158L903J2439j9473m4471
59418A63021l5242j3184j0784l8882r2925j53683j72515j00914L7428J42270J44569R0111O9367Q9952Q2610K3654
59402B24853k7953l5291m7579j10382j72491j52737o5008j385l990k7515l1473l4814n5205n9995k0079L3223N1472
59385e36349L9223L7622O0058Q5908J01729J06168Q4600K4012m6615p2239l6654K1289O4566R6594J27661J36151
59369B93724R3882J5321m7234n6797k2918J8868M2604M3102K4845p869m8835q6031j08362j16358j16921j04066n9318
59352b42363J3936O7787M9240l1957r9984r5081m2206j2944k7504k8137L8847J43401K01833J73243R3085J2359n7076
59335A56479j19034j52275j32736p8658l0559O917N7243J05309R4630J4433o1463o3887j9639n237l5645n5426l0630
59318c50178P600J8454M586l826J4865O2252J15486J33145R8850N6464N9764Q9156P3338M99n9140o5309p0013j21927
59300F4066j76087j65872j09902o4908j5395Q6235J87358J62493K09j40874j20680J1563R9806P8594J5204j0641Q037
59283i0794L3474L2473j1036q6619j47580j42814p1006J5388O3061N9934L1662J7143M0004Q2291R6061O5126L9583
59266B6351P2814J36507J47817Q2373M521l3496o4960j37299k10285j93550p9595K5616L1540k0482j4560Q0464
59250a46224J59286J07968m8809j68211j51515m4417L9528N5854M9739O0024N8781M196q1965j24148p7192J8542
59234b88563P5719N2792j501j0032L2974N6507J6436m0305n1129l5015n1531q8639p3819J224N3719L4851L92R595
59216c06325K6996p832p0416r2390p5167p6021r8506q4538j8601M1343N6137N9157Q9223J28015J40394J31341J22953
59199c4237J07725O5749R681k4738k8127l0200n8446r7697j01363m7869K1797M6396K8377L5884R4792J26308N1221
59182A65253p6109j19205l9876N6689P2613L0367r47j6674n5029j13743j49148j33512p1222J7163R3666J16231Q6494
59165a36989N3646M3176K3100k6618o3037m7017j2081o621j1068J7063N1079K9228l8014p4753m6785J1811P3021
59148a60859J36988J76726J43472M9487k3372k4759J0854L2235L4045K6765R15m6133r1033j16566j23384r9438l2075
59131a06132L7034L8181j8254l3058M0715J20351J13950M9551Q907r514o4777j40627j41943l3102R9767J49282R7420
59114B07751P087n5316p0398o4833p1127p9458m6553K9349P7927M3735k8896n6126l4004k5624m3745l2627K3803
59097b19055O0567K9358l2154o4184n6129j8040N3799J33367J47021O3557m0338o9347l0933k967j1656j7831q134
59080h3099j6952n1884p1860n8698m6467n3249m0424K4806J10331J60018J61132J37448J03237N8253Q016m0046q3614
59063B16948j08378r0032l7509l340j8309m6132m1949k3248k9789m1586p378N6532P6410M0107K3842O7475J00976
59046A34640N2282l4114o1138j9905J7280K2415L7243O8844N4501l0045j03411q1669m90L5125o27k7103J9321R7064
59028A80213J20123O6687n799l3932o527M3943Q1524R0404P1323K8349l4840j06681j63633j83009j60887j14156
59012a26898o7766m3466n2053q2426j00818p7767k0591L4163O4703Q4467J10318J28844J13767O7689K5861J9631
58996G7658N0511R6037J23415J00998K1188p9856j43110j38109q5738l1049r193l2835q2258j01586m1503P3754
58980b01676J53879J42953Q1146L4524J322n7841j23771j27696n9220N466P000k3511k6807k366R179l519j2875M960
58962a98853M9421J02337J34886J29816J13148J30506J70653J56443M8440q4776j48691j39842j25282j35764j44044
58947E8398j29576r6459l8543M1794Q4202J9337j16808j90374j22859J8405J11961J14167O9992M0287N5220J04227
58931B3371J38908J13066M2470n388K197K5019J6784j4814m1287o0452p4812o4660k5281K004k0600p0770r6299p8806
58913a89350l4355K2677P9516J11771J05977P7670M2048o138n8949p9194n2485j8823j5028k3612j7488j0891j8340
58896h4994j1034K7933N2988K9367R243N2175J12331J01889L3123j3129l7079j08710k07029k13077j00487j45j0867
58879c67502o1964m5020K0833N4696O1188R5832J36171J06499J1438n7999m8915N770O0137R7396R9711N3976j789
58862B20458o427L6811O3447M9973M4576P2736Q2055K5870n2000p4218m2170l1743q1481j34960j12254j0962Q9778
58845A39489J20811R4495P0328O6486M2905j9775o8618m4715K4717N1700J5p6482j14174j10409r5383p7091m8537
58828d4238k3012k4624n1989p8030q2198o4170l1157Q458L9585M5753K5343n133k6431l1739k8273k8503l8445n0406
58810d89209m7540j8850K8183O9593Q2811O7965M8832M2286K9833j8373q4538r9938k9423O4571Q7467L4909k097
58793b33518L3758Q4326N9590l2525r0710m7320N1701J03439N8818l5156q9745o0804J5378O8774P2621N9769O1708
58776H0104O1389L0441j3159k8488k4084n4326j29491j78206j34560l0948L8207K9240j5324l5853j5553L3284R8835
58759b88492J63341J95617J75240J11357K7090n3698r5385o3437K1920P5932L6923n3379j02458q6417o1549o0870
58743e8265m8874j641L5839K0696j0645J480M0171L9120m985k2214K0825P0427O9628L3175L654j4993l2674k3751
58725A16973L6441J06913J15751N6866m449k8944m9932j02021j56314j65180j34105j02091p3767k2547M6991R3148
58709b66267J01351J05432J24054J19858N7575k9841p9196q3385q8750j09301r9146k9113N6714R6189Q8691P7960
58693D2825P5166M7586j6111p2269o9472m577P8527J24571R6599J95j06055j49757j15523n8705l1354j7769L0325
58676a45798J14817J82372J85715J22440K1149p5726j20534r5021m3450l1665o3331p9538n5650m3444q0853j13418
58660c21935o9043K1815N8520J6668j7281K2813Q9044R9750N9319L9555P0410J07654J01682M9799k2244q9101j26377
58643I1048j17026p5504m3926m5836n5783l0059L8277J07681J31699J05265O0260J8385l3670j06238j59586j33232
58627b48245l1312N9391O4696J0857j5900K0854P6456R4129O4990J7574j6699j8307J2732N2892P5632P8166P2005
58610C69911N4604J7203k4722m3034m0240m6185o5438o4581k5693K0082L1631P358j9378j5069L1367R7007J29282
58593D14105Q9215o69p6265j02512r4944p5181n0982m3984p9490j29644j25050n2790J3573J8616J395J9557N6283
58576b18767O7405O9721J01288J28827Q6162o502n0043j628P1420Q7615L7580m1523j17352j64492j64348j28439
58560b43076q8550n2497m124N0750Q2160Q4445Q1659Q0029O2487L4796K4913K9482J5563j5305k2171O316L9114O8017
58542B34008J12705J43876Q7043n8312j84515k10993j78169j50727j10749k7749L8190Q362q1836j24326q7635k9494
58526f20321J9406Q2075J48593J63136J14173N3456P383m9415j10345j11252k9740N9576P9033M5120K3846L2186
58510i3090L5817J8410M853K2624O9072J14229J25344R7221N6529J9354l9129j33053j98987j47768L010J14369Q1019
58493A49824m5288j24479q2625L7286J44200J79730J52086J18574J18722J17143M7478q2022j82378k00866j77585
58478A69800j53655j00771k70Q2202Q4826N5537P3467J07401O2510n3873j31106j21940r4556r7301q6795l5787n233
58461b45544l8212o7231j1872R1006J40093J11938O8314M8513L4658J3269p09k267j908N765K9492M5891L0591J4585
58443B66372M5536R6624Q8181J1506m7794m0808l1332q4896j46429j10947J3692J00259O3136m1712r8593o3715J3996
58426C3076O8026P3040M1774m564n4741j05446j46881j57855j25566o7367j8187M807R789K336k6182o9975r1134
58409f35050n6760J3191N9943N1054J3406m244J4995M9973P5023Q2371P5554N8144L3825O147k7396o9407j01719
58392c60950q4771p86J04594J51422J10051L7067Q218L3309O4728P5542Q4975J00445Q1793l624j17737j83433j70005
58375f9162j13261n5745m234M6009P8454O8895J9134l6174n2569r980N9937Q6973L1237n9741r5701n2373L624J4392
58357a40285P509L5646Q1495Q2299K9408k0509l2431k9941l3652k2065J7778M9111L4026r673l8709m6860n8444p6744
58339a72041p8870n5643k4421n227p983l4675o8717p3072k8468L5407P6385R5461J19489J40999J25237P6594M2081
58322A62536L5194J2687m6346r3648q6309n9574o7426q6088m8427L9681R3533O9194J9601N592J1946o792m4234n7733
58304a46613l6961n744K5846N9963P2873L4861k7910m5105P016P0642Q3594N0947J3291j6495m6085o3884n2297k4127
58286d6188l628J4930M6135O3838K6770m6797q6280o2187j8356P587L8141R5386J39270J19358N4343N544p013r735
58268C31118j4680j1027r121l3363o6689n8482k397M3404L3701r988m4934o3042p1073n3809J530O6083R3650P5651
58250B06532M4882L3183M6595P0608P7905M2199l1960r9658j15213p6507j7841K8207M5903K9781j2205n5880q1273
58233A35258r0512r0965p3886l1812J2899K3640o538m6215o1271m4604j2158J6472L3195M4791N8024O1140L5903p997
58215d4636l5523l5565l8603o4311q3649o6530l7905l9930n7235l4511L5132R3099R5573O3573L6495J7596q087l1074
58197b36091k3500K1116P1747Q3907M2689j1473j4606M4163R6342P5320M581l9140l4121k4819k9693j2554L4681
58180D8549N4819J3192l8668m1388k0568l8190q7348j05857p6038m0523k2924j008L1237L9242J2203m83M3744J10867
58162a19142J30007Q6388L5527K8365N5465P1250M5748k0116j05313j71086j71622j00052k1888k0154r1725j38810
58146e07158r1662J145M9290M7980N8802Q4935N6606m4599j33490j33761p1982r015N6460J46651K17265J97635
58130g4898J00942J8134K941K5442M1674M7902N1576M0483N704l5728n9803n9390m4657l6234n2433q3407r0771n7923
58112b60446k2413k3864l8323q659P1740J51987J91071J83823J29605L4086n6817q5639n9159m2643o5860q8507p4851
58095f4869m5999l2899k9482k2401k0035j9621R956P5926J30297J27531Q0856K8221k2349p5229j07370r0200l1871
58078a09538L7589J03769J59010J78912J43861O9698j0454p7836j20440j22279r0040o2739o0924n1783m77O9243
58062E5572J04864R3563O1729K7922k288j5201p896j2083n4180j05513j16635q7419n6245l2042J0890P4542J22364
58045F1944J23877P5989j0333j00556j28815n9155M7527Q7576M1859p116P213N9861R0565P6420K5366m7936j09270
58028B35016j13210n5276J8749P3414J10544J20955O9832l3730j07994r0349j9286K3217J6506j766j2206k9196n6326
58011A48894p9246r5308j06818r4592m1764K4023N6196N3341N5723P8731R1505O7848K3026q672p157K4350N7569
57994B47649N0269r089o9043o2699P321O3959M3972l6555j10257j23345o7608J9600P6311O6659K3749J4974N3199
57977A89066P3526J6769r1983j70875j66036q9318M723N4068K1963p3193j65381j97590j63761q6498J7477J21381
57961g05662J68965J25647M4301K4367Q9310J51470J25502L6048k7018k8636q753M911L7863J00828J34552P1961
57945C45656o3044j62867j43061j5339J39208K35059K22003J07484l5734j16733j15141j04212j52898k21978k04070
57930b85667o8939P9641J18464M4183l8330m9622j1728J5062K4167N1599R4278R6286L4722k6338j2509N2360P0926
57913A88555Q201n5505l4083N0936J10300J05405P2334M8087L4165L0218M1371L9526k2229j27416j80508j16905P556
57896B00008Q3670P8881M9385M0535L6967J7196j56O564J7037j733l9620n2807k6193L284n840m9840r3177j18666
57878A45495j40120j61906j51345p6044L8329J16523J11003N2721J0560J3931L3492L0130J172k4946k3784M270M1511
57861B0992P1507Q5670P4895K9798l5731p2243l7977L7895O8980J3677o2279o2124J5950P2090K8903p4673j30866
57844D4464q0782L3204J17042J09731K6560o6647j18097j27521j20824j05688p3466l3998j5218k2836k8839j0236
57828d73151K4966N9347Q6487R7809P9487M1724K1883L3624M1041J3765k0709k0170J095l227k8254j9511L7188Q6854
57810F0248Q5685N5292K5946k1194j04819j75200j61078p2951L542K4277L9394J04608J85016J89344Q2042p4190
57794B45962j83343j97069j32008l4587N4366J09078J13024O0194l1085j13780j39066r6107k0162M1082O3509N2878
57778b07114L1808K4448L7059M5824K0893k7514m7828r354N3965Q5535P3925M8383K2663j4790n8662q1454q0392
57761h2605q6128j05026r2635j5444R0485J56156J54724J10297N3119J864k5064k0978j0512k4863n7990p4182n5290
57744h4072j4667K7875N5628N0035J3222j2311R930M7158L1169l8215q0366m6922O754K120n2916q4150n5641l977
57726b29346K3491K2239J9481L8037P5788J05911J00903O6685M0481M2768N0353L4160R59k7255n3335r1065j25600
57709I4655j23228p5746q062N0737P9146O1604J0375k1669P971O7862Q0554K2144m2357l9263K4763P3407M8147k8515
57691B82525p6916m9518O177l604r6988j77435j47213k9370O7832Q4397N3163K7508K6797M9595P7642O2578k6906
57674A30264j34665j61149r6083l7714n2300q7039o5666j505M3162N2718M5795J3902n1686j01265p1953J8232Q3991
57657d72961P3869P332p2018j22473j00590p77J03695J24543O7625J8652J8578K2514m118k2252J2643P5878J08283
57640a61577Q6048K2821n9249j26338j36585q4588j6256L0434O8122J11639J25891P4574k920k5392J8585M7601n139
57623c2329j00664j40303q4112P255N0116L3901K0299N1115Q6567O0051k1490p3374l8040M3337Q8091P2764M3118
57606F6302L9552N1683N0001L0992J3800N623j2000n8582j22006j60918j48553j07226q2296q3993p8665m3149N21
57589f38914K2882L5267P1374J32201J78669J77800J33122O8186K813m6362o0478l2266J4834L3739n905p7757j09957
57572a00752n4990N2034J24494J16571O1852J4524j4937m3247o3935n3428j6784J1157J2558M373M585Q774J0478
57555G3327K0607M8975P8781P5740K2653n8084j14594j03622k9563N5234R7664Q8220N1913R056l4190o5787o9644
57538A46686n2400m0973m2610l2453K172K7836K631o1410j01019p1322M588O2598O2933K1320j5784j4124K9322R4051
57520B2042J47589J53444Q9484k5801j31989j67685j18905k6865M7438O6703M0760J6920L3654P0886O2566k0490
57504B59751j16125j31364n2626L7728N8056R958m1193l7089L0661J16551J47698Q6478j7960p2966n2414k3973m4975
57487A56196q1879p7450n1761o9805j33749j79244j71007j32322p9782l433P4385R7281O3492M7135Q8920J30815
57471c22208J13125P3955P8241R6444M6285o4655j31521r3801m872N7131P7200P6436O1074L6424K4809L2879L5800
57454A92746K0651Q342P823p782m7650p0487m6390j1676j3952l5836k6923J3124L9662L5259K1982J2011k40k788
57436H7876K2748N5258N2321J7415l656L20j1799n9417j02170r9814o4007k4666J1342L8458L1502j5081n7876n2918
57418a74164j2183J9940K4861J2547j2714n1976q7789r3380o3023j3285L7811P7148R6074J00183J03678R9756N9553
57401A23037k0246r3967j14648q1764k1294M7124R3495P0677k3915j09702j06051l6436R533J495j4640j7455m2312
57384c37069r3020j02912l0507O6069J04049Q2447O0623O5207P6245Q3138R2750Q8543M0666l3414o7070k3895N4225
57367A26075R9009R0032N5352J8931k2259p1799j10624j14214q5759n8509n8348p0205n4971l282M2693L6490j0660
57350a92048l5725K758P2594J01020N2626l6695r8952r4047l1293N0821J12638J29712J01641N2342J2107r098k6639
57333A63762n5120q4013q8786o4153l4715k5774k9291j2047L5563P1426M5655k5517o1766j7864M7183M3402k2808
57316a14863n4459m917N3346L8550j8777k7064K5433N4113l35r6974j54154j34909n7729L3898R2199R2394O2883
57299b11365O0752R9227J27267R8240K8417l3719o5138o7839l9412J8559P7045R8278P3808K2453l8953r9061j37124
57282A1435j32625q8344k4938M1359R8002J25940J16986R3123P8202N6150m393q0329r5745k0282P0385P6463Q1o0057
57264B61413m1778O304J0042j8417r187M7581Q2068N2838R341J1394L7998K7249k8331q3166j10800j13810q0302l193
57246E7244O0945L3472o7432j25939p9976k388J4157j5805k2655k675m221k7167k3707J1413L2533K7208L2537N4035
57228d8421M1541k4224q2961p3476j4655L5717O6448J06828J55580J69548J27514O6049L4306L3965K5865p354k7666
57211E84604J0262Q4412J11016M2608o4961j14261p8034j1874L1714M9908M5777l080r7867j79651j81730j06716
57195A22127j8411L2313M2415K5540j5606p1785j05238p1150L1594J38420J62903P5616o3070j58946j68464j17386
57179a59128n1339OJ3983k3722q6574j09148n3645M1865J05891J08145O8868J4510m1025q0331q4320n5406j7127
57162d08497J0372J8879O166j4007n610N2445J23755J43277R4906K9360k547j758N651J1526J8762J8576K111k1548
57144H1819l9583n1348n4437l8492j1434p48j631L7440J30598J91073J21974m2043j60650j61640j10207q2862n9791
57127b51962J004N6531L2907n0428r8223p0034j5021K4795O9535J39676K02250K10611J57347O5430l6740j14951
57111C22727j42176j29378j08859p9421j5357N9745P2339M512o0172m5026J5335L4448m534m9860o9477o6897l0775
57094b92826N2393J36040J37922M4992o0147r4844n4455J4923P2013R0225N7785l765n0256o3724o5741p1576o3610
57077b14651k5967K4913O2444P7151O7586L1990j3184l1510m256M4482P1136M7115k8707j24140j77268j40006l0927
57060c63799Q0494J45861J63182J35630O0555k5254n0247L127O0207M8530p985l7311k7036k3739m3920n0675k2683
57043D4937P632K001l3505o3590o5268l9828R60M6801Q9009J11611Q9938J6977o6103r4437n1689P622K8572K0002
57025E1642J9487K4717M378l9783o9779o5289l8385K472N9239J11528J19662P2545Q46o3592j07672j13097n8664
57008h9745L2451Q5799M8070n3434j45182j80792j60609j03774l2665K7096O0729P5449P8675N5792m166o7089p2471
56991d45866m235Q2022J18901R6612N4411J9463j5665n7875r0693j01526j04959j14321j09007o2650M762L9274K1577
56974f69775q398m349L7642R3377J41988J65212J44675Q5618K3754j3754l5163n2051m6004J418O3808R0703O6730
56957H5431K1452j4763m0046o9060j09540j45941j39671o7340K8951O4496J3341m8346l9789J8056M6479K9287J9823
56940c47180M0502N0330K0029k7447o6884r9730j13723p5317P676P0520P4775O1043Q1695J23244J36473J07684N7775
56923A01465J445m9505o9770n4097m6354q6050j37862j24171k8653P4969J06726O1333n552m6427n9211o5470o9247
56906d96431m9282N127O5208Q9875P4858M8524K4407m260k1328J0725Q6357J42597J41320J21287J26049J22251M9768
56889E37052p0433j43589j14943k4815N2535P8774N3846o774p7576j31311j55545j48706j05397k9151M6433P9276
56873a60324O2575K4825o689j6589R871O7711J07509P7815R4m2908q908N3654P6747N6509L7379M0654M3015J5956
56855D38896l6423p5527n7766J8732R0946P9183k4372j34104j56781q6235P89K6808k3531j03758j46212j13304k9716
56838c32375M1291O6463P5720J11356J61361J72965J26863O4149K9756J6615j3195o7318j09562j07595p2250l8298
56822A25946k0435o072J3804K8025K4974J1553J774m82L627J6442L3039L6195K2010J7880M7317Q1958O0204l8776
56804D58983j63742k43815k51909k05393j26136k4501Q1582J53710J54708Q6557j503n7155p8108j01768j36717
56789d55207j37174p1488J6078N8839O3880R3838J53646J66354R0592P47k699P3695J29860J02794L0046j7526j9776
56772B76499p944j0753k3351k4920j4698j9988n8653j01889j01472n8247k8642m5326o9289n3960k1260k2273m4070
56755d30236j9924O6436J47892J63859J31446R8537P0669K6493k2895l8814j2742J9416K4794P536j1268k4268l5264
56738A61667l9120k0936K2306O5850P1431K4809m1636p3107m4492J5853N5726M6487J978l7741l8436q36L5841L2037
56720B37681m839k8003j4307N230j416j0118K3162Q1214R2559L0578m2412n9392l9320n0850j06942j46234j19872
56703a53281n3126n227J367q581m828J5617L0834K0057p903j5034K2303P3470Q0959L0832k9789n1623l1100Q957
56685g6096N0564P3305N2400n040n0560n2536l4837k4286J139N9470R7490N3572k8271l6396M5627J03028N2017m2136
56667B38454o6720j8884J1547k0454p0107q2816n4359r182L0353M4853K6131o888k6438l0611l6170m2093k7205J8693
56649a21896Q2749J39570J54916J00737j030p1901n8905q216n695n3764o9234r221O5107P4972K1220l6392n4199
56632A48818k5424L5579Q9873Q2664k509j11892j74377j72501j36859r2853m7811j3980k969k77K0337N5117P0915
56615b78149N0696J5574r11J9078P3107J37011J65487J21339J7982q3058j28241j14836p2831k3134K9904P7093
56599F111J00421R5050P8533O7472N5644K9992K393L926M1986Q2808Q9633O1455J7522l7893j08220j74970k08736
56582B03127k05715j81064j30365l9208O4713J16245Q8893K6739k0261m9943o8778m7973K9589J10410J18724N3116
56566F8249j6746m4042m4873m4261l4536k730M0443P6995R8946R8135O7010K1020n169N123L6710O7438Q1436N9482
56548E28630o837q3176j10985p2215n389N1369R4968J21714J03375K9932n8847j18198j47597j65759j67215j39695
56532a45925r7251n6667o406N7702R2403N9080L51P7O5765J14457R1219M1345L3074N7728N1381j3100r9499j59517
56514H6217j73711j47378r7771m9006j9357q397m208K248J8441N4370J09591J63055J91152J90688J71102J32607
56498F19643P1358K635m2898n1138l7795k4601j5268k101J4003K0019M311l0602o6371p9847o2642l2216j6491k3586
56480B46413l3282k3575Q94J4295j776m3925r6031j38662j50493j19552o2680j7796j391J2137M7080P6677N4355o134
56462b43446l0765J1033M8574L254r1347j27365p2154o750K439m499L3059P9119N0303m2376q8949l0337O2126R1736
56444c56345O0383L5190L5328K2602r602j3063L0518O2322K6109m2556n9290q884L3375O724n4610p1974k3101M0936
56426b85938O4211L7970j0503m8326n2439k4379j114k5910r1266j30610q8487J2807R6379J11711P3735L1144K1708
56409c09307N6818J20361J69627J57329P3689l6047j07497j12499p7503n1357n8082p7755o9938j6044O0983J18124
56393a59098J28817R6667M2861q613l7412l4203q595J5805J9272L21k3525k6667M907N6154Q9927P9803L1783l1663
56375B36541r5973j48692j63453j16668k0957P8242J41433J56358J28273P3792K1038j2744m3591q9938j21455q4257
56359f2051J0937P7688O2140J6311J6925M9414L6893l2414p8230m0141M1502Q3146N6871K914k9004k1623J1027M0883
56341B43188M5030K1010j6592n3191p8569q0446n3681j5068J2254K8877M9865O7124N2947O852l4744m7040m2147
56324A05669l3231j1483J9553K6027o104l3825p858O2073J27410J61561J62060J19696L7698l5049m6905j4431L215
56307F36076l287J2115N8063P5091K4531m8272p6035n3085k3807k4531o5318j27737j50120o6817R0053J78203J02206
56290E37329n1929j16361n4378J3724m128n7284n5945o847J4752k1460p8272j17120j32783j30771j11495p8162l7229
56273d88359M989L4368L4933J7265J6162L9719M9914K2820l336J7417O0503N9015R4n8366o6532k9558K7700R2335
56255a68917J45257J56326J20748O9945L1324O957r44J4402K8837m049q0732j28877r7489k7377Q592k802l1981p7031
56237c7811j49233k07852j86240q9714k452J9648O412M065P016m462o646L5166R9848J25846R0127L5424J3623K6278
56219b20957L1564L71m3813m7363P557P3146R2658P6136Q2979J26513J41094O8296n9656j55410j71742j29900p3937
56202b02464l2623j4348n350K1998P3671J16000J16616Q6361N0152k184q9346j74477j85447j09633j9749J4459J082
56185c55282p777J2576M9110Q2369R7187Q1652M2993J1266O616J7351K7743M6612Q3465J14319J02595M6422k0653
56168D38564o9918r4982r6776p8877n6860m6727m0493j4163L5990Q4453J09299J16004J18543J09726O5458j9841
56152E59400j08468j40609r2320j0142L1943J6532n69K5233N4169J1619r9711j82111j51594l6122N4116M1725m5932
56135g2841j13630r8005k7000K4325K9216L1297O1056P3750J5348p8274j12938o2846R70K0698K0157L1330K1228
56118b36159m6861j23629j18176j8509R2588J39480J21059P6205L2289J281j0049l288J6187M7049P6006O8014P997
56101A21484n8226p0047l5523j7371l3072l2016O387J8140n2212j50059j65183o9619N3665J15541J08433Q5475Q9123
56084h5080J13253J17358P3347P253j7014K7250Q6710Q7221K3077m5265p2331o6448m9243k2152J2007L2658L1247
56067B53848L0566M8640O2825L7537k1491o4883n0655J6336R2148J27595R7475J1705r3334j74229j96937j50476
56051B6670o2550M968M409m3947o8749l1832K6305M4341K0461K485J1224J6352n741l1019k8763j4884k8967o9232
56033b28469q7321n3210N426M3647N4199N8714O1816M6835J4565o128L741K9142M7036N4484N5519M1731P611l1222
56015A18116n7553p5052q6566o7353M174R6848J46583J28666P7944L5826J3167Q882K0923K3496k2060j05228j52462
55998A08351j11560k2752L1486K5053l313k1393l5049n2425o2818o1422o0963o6247o2622m1011j3009R732L2635
55981d07327O2021Q3797P1053J3616n8837q4751j9952J06112J99359J90096J03697K0820j7733l4074n3847o9066
55965A04984o5069m4354j2019K8339N3537L2494k4702o4987o0265m3304n1673p0479o3765l2824k724K7522P4786
55948b14503J20494J16032M7839l4702o7442k9211M9823J15931J25438P3449O91l7921j8289L8803Q9519R6906N4280
55931E27137n969l8381l3554k6834m3390n8241l7939J942K1344K1452L5848O0299M7027j8055q3059r9521q2047o7941
55913A20118n2917o502O8716J30227J39321Q5760j8686j41807k31369k42348j71002n3912O0530J33166J46018J14739
55897H0052P8687N8404L1256l1651j13948j62198j42221o8466J9332R0662J36111J58870J56592J12017J6939r0329
55881C30109j40671j08963m7971j9402j6874L824M0896M7591J2093j8760o717L0306N0035K7470m2447j40025k07442
55864b06948j88965j05432m2727m1982n0156j1060M8927P5202P6583R6238J22691J05772N1130K3965M9140P2352
55848G4730M1785k4252p6458r6351r0021n8243q185L0039L2826J6487J5871L9202O3994O8655N0625K0443o283j5125
55830G9739k724K0233L8680M1359K2938r146l1722k5934O51K8841N8811R8758J24830R1253n418j05430j49589j37126
55812A39004j01575o0902k0229M026J354o404Q077L3067L3620O140j7025j7237r861p694M222L8184O7407M5249l7328
55793A02095j27368j55140j04949k9567J4289K8786N0865Q1488Q2833M8099K3354L9517O9623Q2265Q7832R0091M4267
55776D28380p0893j75920j64793m3418P8745J27600J19495Q2405J4212n9537p6533l1532o342n4416j19493j27192
55760g9232r7841r6399j17087j00964m2266N423K0291L3497N8231O9132O2753P1539R7901R5637M5362m682p943J4376
55742B7728J5522l434n226K0956M7945M8513J3473n2349j18658j29424n7535M1344P1515O577p6720r1975m3677q104
55724b93529l0246p2871p1078j1408N8882Q8924P2937M3779L3473M6703O4238O3599L9247Q414o363m901j1587l8323
55706b0110n3344j1307P8207J37249J00561J101n6911j9223N1114N0598l6541j19802j13119l1119M2383N5627K7469
55689H2833k739k3783m0810m6630l0938o443j343k3869m8264m0795N531O2113Q6342N4927j6491q3837j06262p0368
55671b50826Q125R3945J43418J25300M8366l5928p4104n8645k9194k6323n4064r0956j24067j54449j69865j35683
55655g84950l5228Q7431J53376J28910N9574J0093o580j4852j3812K4736R5132J41069J20887N9336J2625N948K7161
55638G0856N8393Q5104Q8457N8074Q246l7264o9503q9077r1146p5716n9558n5327n0941l2396j1950m605Q305N2592
55620a47456J03836J00911K6119o5266j09575r6954n3762K667O4055J09770J18891R6046O2028K6066j0507l0931
55604A95938j3018L2586O0247M1178P25j6375q091j4464n1210p5753m4724J5023L2379j2348n8718m7857L922M0009
55586G9449M1417L1560K1139p609o0793j11061j23026q0608P296J03446J49131J06526J328r7102j38080j14335m0044
55569b31366N7371J29494J38467J05282Q4621Q2216M6094m1226j16692j21380q5743p8482j01195r3166k8357M9944
55553b04118R4325J04495J02417R6905R0661R1460R5258P7925K2179n7921j29475j68100j69536j47468j22063r4771
55537c17827l5812P6712J98703K35864J45276q6q2198o4580j5296p539l7458n3215k7840K6371R0822J49210J72965
55520D54072J38385O3571n323n5030j19242k11971k77526k43171j12492K4227P6051L2259m0076o4041j9904M4239
55504c15972O8320M6176K1697K0917K0900J595j1312P873K8649M924m8004p4787o8489p2496r0463o6438J7492Q7384
55486d22034O7497j8468q3675q4975m6390M19M5627P6031O8482K3574j9114j5448L7457R1541Q6995J4226o2547o3709
55468c04511J7728J07970J38200J11255P3135N2416N0208O1369P6456Q0033O9910O2972O6750O5444M6709J6724k1297
55451G71471o6961q9115m4844L8625N8368l7813j68005k19670j92815j65595j53138r7122R374Q4824P4755K9210
55435a68451K5042O2934Q1218L9118m2974j02938q3153J4270J09444J14671L1578n3480p2854l4867K3803Q5463
55419B8824J31368J30859Q7196N2828O1939Q1936O7704L0728J2726J7543J5718J096l562N800J869l1684p3952r4518
55401E24418r0379q3640q9234r4846p7147l3932J3137N1336Q9697J22681J11123L7304m5203p1489o1349q6265j39571
55384G6641j24753n416J14904J24025N0756Q493L1236M9890J4599m2257p2230p2536o2775n0153l8297l4516l2817
55367f5206j8661J691O981Q96J1837M4812O8586O2722M3260K6388J454l6626n8512l5685J3287M2040L2503M878k2521
55348A24124n4741r6376j28625j24109p6321m918O3735J13399J38174J36650J11875P3627L4817M974j2478k1672
55332B82135l6335p1294j20788j51395j32350p2550j2332K2398M1558O4075Q8576R8733Q2747L9488k0511p1658q4060
55315e3563m8074J6667P4707Q7908L0142p9162j61743j45725n5999L536k2272p5249p7210l9392k6447m5587l8527
55298f55990K4224J01455J40835J31992Q8881K3202m4021p6467n3385P123O7786J03665J09387R0351N5653J4438
55282A29129k2267l8002k3891J640J1739J9907P1126J56726J83218Q0681q6803j83726j61511q8436l2129P948M2983
55265F8332N4514M3900N0240P7610O8243l623p1199o7471k6509k3471n4440n5572j7802K674j5165k8446j6459k0175
55247c4819o3396r5751o0545J9729P1919O3960K8499R106J9365M9091P7132P4661K4014n3148j02323q4488j3071
55230g0065O3472J09026J20397J05930O3530o313p6284j05408q3149m1499j1478J3583N1087Q2832P0837J9330j6113
55213B89715J097L6723L1164j9788o2010n6865k4654n737q903j9931l7065o1388o0160J2975J39917K15848J48240
55196E19178k8647j77059k01269j37130q1293o6549m6498J1975P3184Q7377O3792N2319O6494O6454K7004j4010m186
55179B11136M5969P1279L6538k2593n4608n4538m6353l0295J0902O0052O3481k243q7776j16571o2730K9037R0464
55162A41151Q3953K0239n7209j00415q3624k0041M1426M9565L337k8928K7237J53360K32025J73520K7942p2371o9294
55145E21873k3666o001j1553r333q777k5367k9406M537K8743k1561j14375j41945o6471K8563N9302M4185L9296L2372
55127C00416k5241j11846j42971q9542j9260K807k342J8841N9868O9755M1837K8490N8809Q8240N6895k8475j00092
55110B06189j04828m9767K0979O9303Q0974O3473L7193J7172l121l8489p7807q0986k6099N2288R4349Q3019N8827
55093D02669O0941P5666O1451J0572m0986o4750p3259q8751r9350p1753k605O5909Q6988N2688n952n0446o5656p0564
55075A82812r5869j36723j37135n1743P6665J41250R0718j0126o4663n5129l3292l2799m3080n3748o5785n7534L814
55058c42367J01418J66861J60789J16620Q2050N5781J2993l7460n9092l7450L502K6404P241m6819r2616q4654k8768
55041D433K0507L0555K8502M7408P0855O6936M7268M5744N6590M2675j090l8941m9798m9313n0734m3748k5213j6489
55023A86147l1145n0049m8646l3450l2442n4498p1631m7067J8206P4543P5628L8663K2264L6591K0947n6468j22142
55006g4549q2021M0551J22646R7014K2079j5813m546J7979L3474M5522M7795L1312M556j9894m0958n6827o3344p4526
54988C0450j05938j24341o7864N2200J26858P8505l3045r6632r9234j07580j28780r4569M043O8390K7716n2432o3546
54971e85799n900K8027k376l6638j4941L7626O1238N3244O4881J19931J77154J81717J28756O1849K4158K6180M9535
54954C68642O2335L7589j8719n7639l3090L4025O6294K1678n1977p9439n0373j3835J191J2380L1682L4521Q97m6097
54936C20065o8610o1826n0394m7530l8145k509N2849R0264P1208q11p2915r1648n5381n859K0933J4749k1088o3908
54918a0556o3339R577R9079J08058K7621l4125O892R2625J02782J4115q8635j38621j48438j48259j36125j07504
54902d14853p4925l5146L2815J14265J53725J31590R8129R6154R6029N2752j2193m2111l2455k7985m4821n3366l9260
54885a656k7640l5008m0627k2834Q692L1911L7761K7216Q561K144J7495K2110k6146j02501j18903l6205O6834Q3092
54867a05704J1688m8532l2061J9135K5391k9582r2428j09492p4258j4613M3259R1908J31817J52450J33020O8313
54851A70311j3233p0280q6748p7791n9459k8878K0321P7888J22590J39776J26735R0327M7024J4375q964m5012j03910
54834C15072j57063j61446j08936l3892K6975O0290N9946J7148n3577j03919r9651o6954n7322p1993o1783q839L5557
54817d70387K1614k3056k6611L3403J07357J40418J27748R8401P3385N2155K3259k0822o8563q9524o6973l0043k8900
54800a47139o9838r8968o6788P885N8235M5478l757l5639l0744j9042l4225o1748m8035L1516J30509J76428J46910
54783a8962P9277J6025k5825l6593j0434K6717K6767j7412n1472l3518o08k0382r1324j36536r9528q425O7814R6847
54765b37572R3878P4544L2207k9110o6625l7399L5216O9960K3958m8146o4395j9715K6930M9695P3588R5315O5163
54748A37492k2275q9055p4100j7699Q152M562J6305L6733J7272m6797j08440j35338j23598o3182L8409J09404P4810
54731b37345k7214o9909K01R9220J30615J00353O6390M1992R928j3215P177O3259J09113J13580P5115M012p2983
54714D00289j06507o3467K8235R7059Q8303L78j18849j96722j80777q3787K7556J00617J35192J48471J36904R3636
54698E06531L2632l0054r2706j43586j51956j11573o3276m3423l9089k6627k1370m6535p9140p4083k5862L4096Q3403
54681b92618J12324J04501O1737K8363L7836N0832N056q3207j32103j10126p2879p0523q1127o1423r787N2276J14330
54664c46538J57095J39339M8711n8424j06828p8850j5786L5842M9470J2380o1992j19069r9220j675J07320J58459
54648a79766J39061Q7635M6883L1441K8747J5849k2353p6750j10422q4020J302R1223J24020Q9640L1144p941j8302
54631A87391j2212p815k9555q6464j36701j15896k6173M5921L7134q328j0463L0636N5381N0895N6600P4461N8755
54614A63567M999l0952k4953k2306n3327q0398o6975l4907j0305K3413O6241N9377k8359j22868j32198p5110m0343
54597d05404m5629l0944J6368L0291j7978n9977k9355M2152P7382N7124K1582o3j1726j6779n265K5447O2862R1240
54579a98672R7058P3428L6189K1756M4540O4855K8933n5624j12154p9733J0667O9010N2169J0010J1998N2353O2481
54562A89264J0661n4414p3940n1988k8846j7700j2842l3274r6199j54858j31514k7955N9844O7763M6708P4340J33911
54545a01039J46532R5057M0640J9164n063o0604j05362q3590r689M9779O0804M9848N2084O5032O1117K7679j4548
54528B87841k9313l567K9838K0875l8188r8371j13057r2783p8174p6793o2888l1536r042l254J2794M8775O8849M6103
54510a21891J3040J9250O0919R4042J01507R9660Q6035L5315m3052r4388q9400o4639o4168p5475n6926n85O9480
54493c1276J37355J89446J86142R5225m1749j26320j07860l9836j2392n5088j25019j64622j44977p1396K1404Q4532
54477b06431R1486O2381L7212K8425J6883q777l0968k7893l988J3768L849k8480n1826l3086K7281Q5207R3313N4416
54459A22772J9326K5068N1290M8745l157q0150j40619j52397j04879j9769N1567O3873J8197m3241p9425p5750l7539
54442c36088J5554N0986M9673L6724N5709J02434J19502P6896K2026J5074M3252M4704O11m9209p9633j12055j54919
54425i8759j62448r2413J8945P9170L6009o8129j37500j09779q144Q4957J10164Q6190P0316P3033M6934l0607j05832
54408b07893j12234n7362m391J6758L2812O4374Q9072Q3879O6072O6193Q4165R6757R0968O6524K0589m2555r6128
54391B57600j14246j07771j07768j12147q2928r833N6170O0332J3324k8574l7298k8656j1172L2569R8966J39552
54375A8120J13546L9045l3973p7691q6010m9869K1230O8832L1546p1955j49195j35208n2606L7375J02001J37485
54359h7327J43740J29152J12403R1358L5291o3065j52147j71447j19712m4663J4347M1189K5238k5154o5398n8887
54343a95082l1073l0285m1419j196R2150J53177J24857N9472L6768N1265M2331N74k9318l6598n6751q9104p8669
54326b8901j0044M6212K7558k9997n0193k6725j0289j0801J0164M9767M5267k7958j02084j00997l4154L4580P3075
54309a45520Q8496P9601L7948j4693l9862l1752j5564k748J4871L5622N4192Q7329J43007J68708R2004p2829k13703
54292B65107k40523j72211q3497j3779L8473P3601Q6767Q3969P0806M4009J2564k083n822l3918q7789j12563p3889
54275a50778j5235O241J836J5497M0660L8378J6908K1973N2824N5817R492m4563p1864r1987j28715j52783j07698
54258e03997K0875J76714K68782K42383J31941L3328M906J3080j972l8787n5702m9500n0542n3025j8550M7184Q5229
54241B52347O4756K0389m620l583J3655L4396K8791k3418q4351r5255o8535p1518j06661r4511r009O0316L8832j8922
54223f6901j8526L3756O1068L9339N149k7484p2279j08330r2779l4828P742O929j3144k4893j5664L1281J15258
54206a74306J82609J70326Q6233k392n2552o7073m9008k312K8680l202o3032o1115J7239Q2925P0821K4290J1935
54189B00066K5844J7729j1705j9702Q725M6727O4764M9911O725l3120k9647O826Q067o3646j50495j68132j14868
54172a55931o1320m7946m8637l2427o760J1793K5683L6681K8812j0341o9606j24675j50893j23434l2459Q8249J70351
54155e02860J70445J13717O4601N7696O8020M9844k810m3262k5295L7998Q6190Q4412N9688N1815N6887M9892M0167
54138D17145N7783Q9719P9840N390q9107j54144j90622k14404k05565j40377n0649K798J2014K7863P8181J26703
54122a47432J31307J02733P8160O6145M8455J5977k7068q0015j37979j77284j75283j38558r1357m8023j7983j8744
54106f16949n1430p9139o7307l1888n623K5635R3240J62941J60819R4941O4674J10152J38540O7821l1528l5153M4216
54089D3962P9066K4445k6708n913K4374j8368j03241j36262r2611k6533K1693O0667R8069J12649Q5232K5011m1384
54072A24148q9035j06910j05777j04092r3698m0818N7939J45014J61031J18445P8771O5859M4715j0155o7371q0440
54056I7626n1420k8826n0382j03783j42675j32655p8861j1106M9481R7739J23524J08947N8963J2006l238n970l0297
54039i0927o4600n9884k824N2569M4612k3478q9995j05299p8485n2713m7753m0706n654M3405O9463O7900P5503
54022c08866J13582J51031J46473J02083M5768j7119r2536j52966j55786j08934o8420n8272m2030M030L9873K4482
54006c77607r634J415N5639Q5861N5265J796k2482j1998J1177L9129P1624R1715P9611M1062k267m2831q4092j13337
53988a29954j05229n7405o86L4685M5378L8451R190m3521q9450q0333J907J21698K18711K52586K20220J45896O5769
53971F47913J2815m50Q857O161l2783j00247j58476j67332j20664n8955l7257p2389j24527j35889q5903p230M5962
53954c80394M2826m3k9517N63Q2956J57768J72574J38301J08444J04569Q7956J8077q2282j45226j33377p2968j2666
53937E7561K3941L6337K4752n893l3082l4538j6667k571O441K9293N9566N5402k023o5923p4328l1175J05j6647m7176
53918c6625m2025k197L2970M1685L5248K5994O344l4056q2820j04236o5472L1758J42984K09283J97825J16383K80
53901D73323j00656j35948r0331j3693J5280k8288r1974j16706r8443n8792M423R1402J52648J29059M0103k1657Q19
53884A50569O6140R4783N4722l0508j20557j75586j63414q5601J2486P9698R9511Q2563M1326q001m0548m7817n3027
53867d3261p5184r3233p7055m0474k4085l0197j8470K5456N9294M4217L987o424K5561N7037M5110o381n6137o7932
53849b78171m2960j5626j3735k2788m272M6443Q5071P8805N5985O0821P5188L5412o6987j51369j42864o4641J883
53832c63805K2272K6486L4036K1456j8983l8782P420Q6081J12479N3009l4377p1610m8105k1281m3257j03863j42480
53815e23304j04207J2514J47588K13465J56523Q524j22347j35421l0293R1261J27930P6141J4904R468N4151J00414
53799I7311J06092N2614m8557j46293j75621j22094m5263j4982l8125o9605p7067o3847m0028o613L1638O6098R7961
53782c96381J29603J48625J48551J56532J99929K44883K14753Q6129p2210j75231j99857j68654j03197l3543j2493
53767A67439n9183j05905o5141M7095J13813O2361m2394q2410k6828N2820Q3812O0770J8474j5545k5584k143L8272
53750B19723M7517n814q5697j16256o6713J4215N7448M3366j291m9924r0059j06074q4918m0958n882J2031L2942
53733b26344O4258Q4386Q1783Q0620J01231J14848P1576k8920j22138j43209r3308l4116k1724n2347p5270n6446
53717b55120j7651k594j6337k1937M601M3468O2145N1398J8699k8573p5625r7373q3329n0313j7216J2331K9989J6845
53699d26592j8727k9787P252M6364L0549k2731m1941M075P8532J35060J53940J25105N1692k2774m5620k7777l3138
53682c6518p7809r7378m5913K5864L7624j4123o5601p4135m9123j5640M418j1055n7925q2361l1147P2198J43460
53665c75164J36344Q7490N4107M4559L1186M888j0165J0279N6180Q2716M8501l6177j07568j11501n9769l300L6618
53648a10776P3712R9657P4021p750p8546o9001Q272P5963P9028K5238m7086j05414j28356j07819n6291N285O8920
53631b00943J30989J66747J44072P1035P99k8477l5598n6722q4115p4849j3045O5199J10173J00698M9105j2900n1614
53614B80554n7089n4481o7544p2650k4601O3360J09550O3399k1047n3488k4188j810k6614o2515o2597l1425k094R441
53596c5839L811j6455l7073l3879p642P289p468k0462N050N1539O4238J9194n1100r4650q4615l5775Q222J5224L099
53577b47292J8548O6497R3556O6748L1538M8871J03593J30236J12452R4553R6087P8272J0762q0751j54634j97008
53561B72028k05400j73246j17509q2728q6655r3696p0029l0304K988M8159J23760J86970J74396J01025O1019J12712
53545B23490K04244K37886J79807P7620j3033q2765j44086j82938j64814q9160j1001J1302k0789n4380m9711j5719
53529A05953J2931Q279m0044j16911j79482j89567j53614j05011m9036L3123J19099J37933N8237n7195j19710j04751
53513f39766m3512L2216R1634R1430K2544n0692n7859j5146O666o901k696M1446P7261O2357J6613j9854l4087k3473
53495d51819J8159O9184P9699L5987r124o61N2740J01811J14267Q6626L2976j1742j1676J9080K1464k2711n1019q338
53477F4903O3520P8544K4440k9531l1916k578J3680L011j4404q356L3008P7047O4650j6544r9035j14961q5630q0553
53459f0705j07276j08056o0970j1131J2964M4668J10303J71870J76499J21088L4434o4686j56634k05867j96474
53444b99973j55393j09520n3126J0362L8720J3904k967N4533J49680J77965J07439J6011k0881j5854j9802m2839
53428a51741o1811o6861o0138l2505K1852Q1133J14488J15201R5364O2679K5740P060K1188M6076M3534P073l3665
53411B34667n5200o2346o4269n2374j4349M3781J00111J32351J25769P8415Q259n3348q5261q9973p9661n8243k5970
53394H2359N975J8460K382l2386o4128p1549m6030j277L3230L8498K3202O467r064l1533n3688n7368m7213n1521
53376b55184p4924p7404k7353M3968P6507O0690M1704M2141K6305l5028j01382j03127k8453O6709J27327J41492
53360g6012J16818N7669j7818p1822q4599p8187p7977o9463k5396L5542N8225K5443j3928r161K8665N1355L8721Q671
53342a03254k0256l9235l1072J5225O9116Q1544N4835M3793O5575O0001j7766j10355j28055p8529n0825p5717q4301
53325c49276k5989M9030O7806L3978l239k9312n0879l9751L5308J34687J75088J32510O1508J0094k5873n5131o0004
53308F0555l8210k5053m1345n6310l2846K0330O7665Q8829P8112L4455j9011l6472m483L0159K1768r304j0458K6227
53290A54608O1317O4514L2502l1360j05671j31555o2923N9869J39962J37463J00884P1084J5959r8733k21887k59876
53274g3843j89291p6142J1588O3246R2323R1376N0140m924k5202L293M0495M1981J5069N912L3087N9495M5195Q056
53256A91854L489M9288R9558R8581L8057m4092r7476q5263p892P8676R4691J7990p8589j01053l9678K8611M1092
53239B87844J6723Q965K3044J5027l3771p7632o0131J0293O4265N0538j2250p2054j07868j33074j47951j24435m6991
53222c39458N5785J34981J63347J45212J00966N4293K2275M665j0506k4970k5886j0169K068j0710m8315r4570j29065
53205a0057j25399o3302L7557J17545J36392J16513J02206R4468O0184p900q0422j34140j63306j51040q1037R573
53189a42165M3108L31l6921J0565J02326J23944M2137m8803n4309J286K5986m333k3169J6307P1243Q0734O0772P1026
53171C40065J05264Q3524k7803j43991j53082m9095O9349J16035Q8835L4637p388j9968p666m64k7929p5282r2549
53154B32492o0552j7507k220k940J0544L2550L5873K1410J2342O832k1021o9096r5645p5897l9961l1699m9623n3352
53136a67470j8534L7942Q4586J06934J09855J03660R3038O9567J4407p5806j61496j81784j23654n2517m1415p4585
53120b77272o2261L3347J26777J04012k9516j43190j30056k3033N7695M4954j9449n6652l9686K743M2630P8314
53104b90643J06851J08530Q0935O1566Q0089J02544O9605j0841o3468n2570l1310n1188p9968o3688k1822r632k0648
53087h5658j0139M366l7671j17040j31693m6484M4443N2794J5527J9065O9720J10732J19437J10962P6206p209j11526
53070G5832j67444j37066m2515O2189J14375P0163m1247j16324q2945J4114Q0627R2278Q6293P1361K8802j7536k3851
53053F7106j3668n0745j19703j29595n6978R472K904l2269l2172j1391q687p960J5294K8019k762l2082K933P6754
53035b95530J08415Q1376N4308O1956P8991Q3278Q5210Q2129M5626k4359q2542r9028r6766j04963j10871q6996m0665
53018b60431l915J5556M4488J00096J52928J49393P3797k5137q4542r4805r1758q8867o1402j0186J1067k8861p5032
53001b77611n0696L5561R9125Q5981K2358l5396n2620k0453M2141Q4464O6290J2204j4829L131K6856L4487N1417
52984A12410Q5876R0804K9221o0027j02993p4581j0731M0710N1848K1080j7735r680O1662J37646J38794N1911o0405
52967D85810j29671j36589j04267o6428m6190m6226n3255n8210o4740o9582n1463N61O1232R5549R9950Q9905N7969
52950F4355j6024j09764j55008j11732k0790M1274M4392K0266Q639J6290K9343L9832M4946L2568j1541p6865j20991
52933b80810j03916l0964M8336Q8060Q4086O1200L7542J6931N509J0933K2423J3936k0746n0613l8651J7711Q7341
52916c1692J36600J46244J07205K2917p8242j48400j51275q8634L595Q0664J13076R8330N7623J8670l331j1134j8368
52899B53848m1351q8312j42412j60473j10155j4033O2403P7009M9132K1704P758l520o346J9974O8615R5340O4416
52882A53597j0876q2174j10791r6200p0330o3969o9720m4862L3597J25425J62645J25121N4539m742m5648p4293q3020
52865a01701o5759l2826O995N3901R0263P6014m623j14116k01565k49017k57414k17196j26905j8645P1465J42036
52849i49093K02364K29539J92665J10221M1056K0451L9541P9932J25637J42617R5685J437p1835p6263l3022L776
52833A54708J0603Q809K9203P1687R6723O3025k0058r4284j17075r8536n9994j054N5244L8323p7315j90957j77175
52816c08123n6387K8572P574m4696m8397k1660JM2139J16135J51497R3975J0272P28N0119N9813J142n7849o8267
52798d3412n3275l9744j5940K3368M9328L7787k948m9591p6361n9626r398K2074J1269J5541Q6132J55178J06613
52781A56995l8986j18563m2392Q0273R2149j1882j10917j28935r3279m9095o19N6341J05072J29286J29212J07753
52765B62413O8023K8003J1290J7573K2811J3422L303J2013L8276N9162M8631k383p6473j38818j58431j22609l9997
52748D6209N6860J17561J06853M1000k4879n4100n8277o4220p1364n6368o532O3842J20362J25639O7188j9601p2665
52731C17508o3819k7860j8314m5304p2521o7553l7996j7421k6425n2579o8667o7026o4124o5253m4074K0198R8743
52714c02487J38477J26981R8177P3622L8252j6002o2164p3321n4741k4111Q921K7525J0038k7331k6476M0605J24324
52697A00289J54501J18328N0235k3400q6813j10546p8785k9056j5152l5493m2787k0460l038j8119n1239p4922p4846
52680b41303m2121K1292Q0996R1881N3754J2329m403j3287k6549j8348K9808Q2256Q5325L6364j4303k5352m239J4986
52662A19086J5206R890J8291L4469L1157o70l1269k9530r886j4261m9437p3359n2222n546J9211p22m7262q4007q5895
52643b36756n5791j4999K6432P6053J20961J10364J8126r2602j24683p0596k1843l9583p8854p3671l5091j1902l366
52626e07801K2544N6700O6248O6911J03010J55452J43080L5598r5022j63767j64015j38753j05872n5669N260N2521
52610e23575P5394P6092M7387j5126q0788r6905m4475L7496R1606R3999O2338K5826j029j7670k1020m92M3111P9872
52592a67959P2300K4878o371K1837P3566O3495l6416j47995j69875r3878o856J9802M354M307K8267L5422P193k3926
52574b97855k2440P771M1227O1173N6145J6918l7585n7751k1562K3348J7693j9963j2222O2760J28731J10207L2468
52557H9063j7159j724L7219N1913M0179J9064r604m5162o8207o1748l7608j9281r413L896J8014J9358J2930J8971
52539D0701L4340K6651j6750n8606n5274j4097K0716K8032K1694O480l5515r8768j30616q5182J5800J03920J35792
52522f0682J19102P7819K4982k6569n7127o0285n4443n9506p0202o3829l0309J4004M2841M7096M3130N0811O5648
52505B481O4577M2524K3893K3166J5274k5108o8197n4403K1771R4402J08311Q0792N6246L5060j0942p2902j03837
52488B33108q3523m4196k1965j5706q745l054r646k3066k8700k6034k4032j8636M470M3082P2105P1391M9097K9358
52470A95308K3394K0586M161l1081p2992r6740q0080k7096K3051K7209j3313m8545l6632O850L3043K2686N55p400M5
52451e6991K0343N7727R3772Q0548k150j01538j41664j10928o3265l5127m463N5408J21289J48205J28969R6478P8486
52434C65099P4335O8131M2323j5219r3511j50221j45613q8306k6692Q084K6449M1061L5387k257l6531j8887L7746
52417A21378O0531J1474n3856n6704l363K3401j8390o9722n1980K7967R3441R8523O6395L0254j3268p0491j09651
52400H5939r2289l1243J7768K2051K754m712J635n753m3970r4202j14092p6240j497N1196M4251J0454K0496R3059
52382a14395J61197J49176O5028j2540k9796m306K5390N2531Q1001Q7082M4536k5227o8818o5653m1127j3817K7314
52365C17576P6848Q6912K4035p0849j17488q4768j7685J5626j9220j03856j72891j51001k5992J14789J60238R3564
52349A25838o60m8770n8700o4028n3998k720O7633J03762Q8357N1695K5943K0219K9836L8076K0257k2327m8697l6060
52331B35656l0268q3132j51598j33272j6598P9815N9699k0948l8329K5983P2333L3091l7531m4005K9872J11478
52315I2246J25188O2850j8857n4677l0125Q683R347k6749n3289m3128j8072r080j4153j3511o534r053k2156k7525
52297d8595j5745k961j3234n1556r6740j16310q9751k4705M6325Q7300P9269K6748m4538r4163q8059k9214L9013
52280d36916P6229Q8427J10472J46102J50520Q7243j4638q2336p5002j9629K9385M8716N5155O8181P9959O6727K3219
52263D01814k3943m4107m1231n0813q8189j12633o8228L5306J09231P6494l4190j11069p9978J7614P6575M2253m2171
52246F2735r1781o3040J8166Q9762J03336N5582j0991m1196j7017K3373K9755L797k580L6315P0855L5508n4440
52229B48139j09843q2522l0597l6188q8805j02658m3595J9717J5502k5580j1040Q5411J86281K06237J45105O6489
52213D42053J6412m573o988P776K9038L2889J4839L455J8853L3389K346p0760j28741j26732p9161k9589L218K8681
52195A86405N0447N7385M6661L1308J8351k054l5596o5567o8931m3487p412K3173M3816N2091M4439K6666J2586K751
52177C73032k1642o7352j02793q9197l6969o19p444k2831q864J3214k625n0089p6552o1753l9480l2061j5192K8430
52159b20787O6483O3086L1845M670k1663o3628r9563q9624l4381L2827J00275J71835K11132J54018k193j66441
52143A37891k36719j88891p2481M5202J12266J06026M6550j6682m8696m8803k7169Q135L3206J4970m2527q7558p9156
52126c44436l2471J1658L2841K5639j7293q1860j18304r0543k6162J8174L1354N2926J06521J60286J63423J08359
52110A12M9095N1616J13407J43642O1221q6383j56460q5913K5017M7045j5304n9792m1584p367O994K1806M6219M5130
52092A58501K479m0933m4367k0149o814k4715p0793j18319j16151l9677M7529M5505m4611r9728l1344R6027J55016
52075a52544J14264M5525R007J23p209k6183o0126r1351p6478O32Q3327J00053N7718K3318K1120J2004k2341m5666
52057a4807l9298m2477q2508j17761r8117m3146q180O37K2665O7801J00180R8439Q4166P7212O1332J4985m9443r7396
52039f5716j06531p5633j7442M1359O9587O0242L8431K5104R549j8936l0655J2850Q9220J22078P3606o677m9380
52022A71056m6987l4225j9231J1673L4289k022q5777j23129m8722P4985J18382L8276p0782q9429r435O5532M6586
52005C1040l6628p4087r661R0156J18021N2780l0547o6746o6903o8390p0794n7347m1878m4864m2812N690Q6564
51988b26406J32263J07265N0722J7132R516l536k9151l9330j1571M1179Q1397P8345L2960k0339m0637j6011K8585
51971A92383N6576M6156k117o5088j02206q2796k0631L3186M3326K2768K756q725j7312r925L2215Q8970J04934N3778
51953C68248k2838n9566l8128L920K6256K6656K7363L7727M1576J8900k6268o4245o9107m6465k3502j3471n970M556
51935A85642M145j1686j8441k88J2134j8629o9506p8584l7735j0052l6194p5601p2215l0025J7037O1663R5313P1048
51917a1974k9884j24886j12788j9854L0059l000k4315L4563J05590R7039L4002M399K1244K7095M086n049K5072P2569
51899A23968J11161J27036J03375M1800j4893l6090n7954j19148j66481j14101Q361O8363J3617n4257l3401L9039
51883D0395O5209L1501m992k4654n1318p4133m9564J7776O7486O9671O1355P8226R8909Q4863M0470J873j4160k1218
51865D17695l1381l7582l1162k0080j7706j9471p068J8110K3807r441m4375k1720N4957J04868O2864l9438j14577
51848B88300j24477j12017j32348j82801k09306j67497p0994J6984M3184J8110P95K7533P3722R4268P8225M6418
51832c11901J7816K572R198K9962L4129N218k9750m1593n2711j02888j67798j68463p7783L1846P5542N1262J3556
51815f81786j3174m4888p6370o5901L476Q4618J13541P9080K5427l468r16J6731L7321N5038N8697L5473j1745n8920
51797d47766p6392m9193J3293Q1530J24277J33471J29002J27925J13190N3001m4504j18761j15852m8593J7141K8069
51781h0162j4979o7808p8713k5261O2805J21337J12168O5131M3280O7777R5624P3907l32p8762j08190p5862j8951
51764I3009R995n065l0228k8419o839K124m656J301K7656M3303K7593N833J0468K9242K3979p937k3095R905O2390
51745B40559O9901J767r9409j52273j16174l4646J0692j0333m9805n0389j7393l19j7625l1988k615O5209J32989
51728f1852J68800J58302R6318l439r4271j22581q2468k7254j0076k4487k4156O625L1593J8041j5504k8049j2865
51711b7323K041r73j4952l6151p0484j02965r5883m1892N524j2373q1915j24400q2781J9952J10409J33199Q7637
51694c33330J8535j8215M133O2660J07656J09585P7245L2896j0490m1010m1167j0221K1661K5458J1161R655K4198
51677E0410K9499J6697L298q071l9434q5435r3821l7748K4142J4493m9745p1556n966Q1050J07216P4337L8395K3576
51659G1337J5122R353J5075J5499j7209o3829o1149J7573J15045J42889O6897o9065j86043k27679j91954j19462
51643d67600m8666J3633P1392J08202J04961P8344O5167O9355O3466M7312N7781J01213J22610P7989K458l6718l0760
51626D00139k6776m8893p1612p1663o0399n1907l4960L289M7474O5003L5740l4385j13071j50818j12578j5304P6283
51609a64438J01996N1923l4613j00409j05185n4225J559J5577O13Q011M4620M8843k1669j10055j16572k7452O1433
51592d00043O3467N210j6719L9865J16960J34643Q5549L3554K9247M9521L2099m0559j12654j17553n3854J7230M3926
51575i0111L4219L1727N7694Q6524P2348m048j08185j71209j47846n9503K9186P6252Q9407Q8678P2348L7321N939J82
51557A00923L978j2953m0567l7855j75K4438K281l9483n6956m7190l0423l980M2610Q2653P2085J5484l1363l6045
51539G462k8683m8171q1414q2813l4892L5575R0416J08243Q9535N3976K7532J6524J652k6557l8137L327P9688J21998
51521B95261R0438K6856J373J8336J1139n9303j34460j22354k2197N8231K6785q2825j54278j23012l3261L0244L0477
51504a42550n094k3834M696N6866O7799L887p8690q8860k1802K5960j2007p7414p0535J1588Q0613P9520L6290j042
51486a54609k1967l3304l0141q356K3874N8937Q8915R2186N5966J2895J2820N1764P3497N0918J6144m202k4967m6828
51468B13542k8411L7481P5144K0049p4902r9922l6295K7874K4199k2785n5317n1872k1180J8090L2302k303m8474
51451G220l1639N6456J24158Q8320j9665r7620r4796m7120r961k587j4689k6393j4488L1479Q6994J03608N4247l5520
51433A58004j03316r8683k5587N9928J02837R9260Q1187O1150K5503j6032k0802K3026O3710N2483R837j6405k9729
51416D26371o7782j23545j43170j02752l4519K8871Q3614J15860Q8613n89q7082j00373l8655M0580Q2973P0297J7443
51399B56155l4208l8403R842N7351M7304j3692o3770n7800j1824K5322K8439J6837K4622N6974Q1886O7739J9706
51382D72480l0818o0917o2628k8969L3944Q4705P5159J0689n0699p0147o5180o3227n8488l9636k4001l1333n0647
51365D0287o4289p8475r6921r1281l7559L9358R7518J32914J57803J46181O2176o0046j27033r5061k3002M935k6377
51348a8872o7892p6955n6519l6662l5433l7275j1460M2134P8831N9018j381n3567p2050n7670p055P1993J27154
51331a53661J03174K0327m4970o4514q1129j13725j14002n5984m15j0653n4758n7831j5582J6227K2972M4542R0265
51314d69717J14353R3236O6582P3438R3792Q6484N2668K7901L0243M4211M5213J9523k9830p9347r6050o8840k3220
51297a9360P111J4337R360n649l2696n1114k7080L7835R3152R6696O8822O1313Q0546P5871R521r3863j79436k13010
51279f7644j83220q9860L4326J16089J01856J9078n6353q3227p0375k7589M3800J13111J31296R5200N4942M3251
51263A74681M2052L1444K0416R965k0629o5526q5408p7949r2756j34942j23930j4982R9486R9521R455l9163O94M2515
51245a25056J8810k0895p401L3754K8676l0353p8581o9072k2969P659j271k7179l0525k708K0493M563l4261m7036
51227c83352j2492M6561R9315J27086J13295N4175j5151m1960j3247L6715P7188J04526J15086J00032P7114Q0648
51211E65539R9989P2267l3297j56796k05654j51715m9562K0989J3451n9158j34554j53306j13603o0282k3710k402
51195c71804j322l2189o1875k3716Q1972J53661J08980l43n5100k4719R811j6871o9215p1972j3885M0077K8532l1615
51177c51593n7750L704J02929J35818P2784j98R218Q8187J50820J47638R6763K9996l6797q3718q5948m4250J0335
51160A87938M6650N2794L5120J6295J8811L1143J3612l8860p3509n5145k7534m7095q7906q0234k2865K0095K7615
51143A6925M3949Q3202R6986O6390M5691O5113N6904n3897k23984l24108k82774j46875p165R0690J54903J99472
51127a18578K07142J46075K7774p0759q0374l1399k1346q0035j26596r2020k4309j6275p2479j14791r5414l7108
51111f00492K8121R4088J49579J68225J42649R1052K8391l0457m7292M023P5820Q0673L066p9596j06981j03781
51095a02912j04705p9456N630R9294J15049M9326j8965l7647k3385K604M6265Q9310P6062o803q6517q7255k4788
51078h8893K5268K7209P042o419j0868m183K5339P3403J14749J28729J07020M3440m9303j17581j06732l2667K6029
51061A61582K0056k4916o6339r9865j29254j28400p6992k131N8458J05389J42938J27206J7184j30959j92039j11730
51045c29812L4078J37832J69087J61059J38602J03643O5404M0363K7248J0426j3625l1530l2787k3914k6114n9690
51029C70270j17167j51782j17256k8379M3367M9718J7185O03J2064K4660K5061K3430J8701o606n0693q2851q2308
51012e1983o3074m3383q969O7025J69210K29585J89055O3321o6806j29207j09940l4600O4110J41069J38006L7604
50996E91023r0446j45850j06168l8653q60J8317M1018M1440j2703r8227j62864j88635j85918j47574n8701N8517
50980d86284J54302K00982J98045J41980L8574n9735q1539j5400P3684J16552J00971N9566K9525K7502L4043L918
50964E36686p4884j38648j09962l181Q3067Q7160M3103J478m4929j16939j82377j89269j38683p7241l5315j2227m202
50947c76363n940K224L0058N1358L8224Q920J462Q546j5495p9796j30386j11419k5703P4225J32423J24725P5141
50930a97796M3376O9807J24355J34315P2815m903k9033J127K3847j368l9156j9776O8907J48799J30511J9994q3640
50913D62181j06095p8340p3987j02496j11869p7660l2579p723K870P980l399l0818m6516l2282k288K6881N6377P8654
50895g1109O8008K3242j2486m496K6355L7355J9453r210l7919n6298l6833L2586J10682J36698R6497K4024n0875
50878B95674j19297j68321j82342j69571j49506j14161m2113M5623Q9528O8196L1726L4274O3581O5968K0388m1526
50862b71879p9027q1305o5588n2353m3918k3125K3164Q1234J23592J43064J53488J53777J19922M9943q438o792L4630
50845B50389L7720m3475j61985k22944j84363r7994m4751m3451m3209k556N4938Q0311O7040M7517L9083L4145L8748
50828a94837P4414J29791J51810J08901L4103j8989l9200n0815o3443n9464k5271K7021O8305P4375M7715K1740K5664
50811C11820L9700J1465p0543j50448j72335j42123r4332l3121M7385J09187R6257J2325p7363j25293j35038j10248
50795d82705k8432J04987K20759K46278J81770Q5537L473n3564p9547o4916k2969R101R658o646j7843k4353l3777
50778D6811l2983k746M0915M7997o468p9829j00845n0095J7486L6354L573k0642K1033J22832K18196K38626J71694
50761F71909O0571m8300j38015j95258j85720r6042J4713N7856J6526m1143o0276n8193o3284n3050J334P1559J05878
50744F1065R7135O9169K6285k8805n4932j6259M9412P1072M3005J7397Q636j9100o7359q7412o4600m2245l9372k1846
50726A246J4990J6068l6752p6099n5214k9950o2337j05516p2877K2101Q8478R3295Q0597O8032K2139n2819q8953
50709a73571m6638L3465R7396J39637J70630J76479J45599R5017M0002k6799r9896j42050j31395r5854p1633n8512
50693E1877m5987m8604p3292p9626k5561N8081R1648M9153j0668l0671k8210m9845q5384p6327o297O4008P2715L4693
50675a38297J0628J7802J5828j8148m5671k0722M4230R4634R6709N7711J680m5084n7231l0577O453K5221K8699K5556
50657F9421n136p7719j40383j11139J2920J31698J53158R2788L6141L2132N4874N4213J4855l1672m0767m073L5633
50640B76944L3456j16k0320k4142o0226j47038k25925k28139j56982p0725j2149R811l107l3780l8748R717P5689
50623f15780R6637O7371M5280O7693J05096J09286P3015K3516j7071m5447o7914q9905j01678p2684J5033J21521
50607b86031J68659J24418M1786r176k2896m0046o8599p0414k8256J8663K6814M931r643j0138k0086l9831l2070
50590b51915K4693R4998J23116R9831P0703P9578J20390J46684J18171L8489m3805p4613m5338r80J2109l730j5463
50573D92918j1780o047L839L3039N9108K4036q3270j86231k04010j49438r9953r1214q9947o2002j1805M8238J11958
50556b22561J49076J16040K6706l4499j0395N2684O9704K8075j8824m8035q8494j40616j42546n3388P4037J49906
50540i3130J53129J34583J26876J04386M5850r339m331N4650R8353P5588O328n3058p3604o9223o8668r3059j47757
50523A87574k09713k27788j66502n6584K5846M4277L9230N9944Q7958O9406Q879k1831K0009Q8006J09160P3581K9675
50506A61127J4006K2515L5440L1329j4263j00886j75712j79403j25183q3729p6835m5600M0645J03970N3423p3675
50490d12831j46025j06935k9826O462J6655M4112O7965M2530j1656l0330m052J3946j309j2277R657L7095L9384L3530
50472d43905M3170M4367Q30o8073j04284q8983n7796l7102j0629L7148Q4330J02871R8519R2240Q0469M1798k5470
50455b10500r4150j30767j13238l9717N9551J30960J42119J11035P1908K8057l1345q4826r6431p8172q1839j14640
50439e31995j16050m9257L1195N0107J8581J5477P3712J37298J36896O8745j2508n1907l6442k60O260l2559p9241
50422c71948q9113o2434k8437N916N3948J04151J21442R9526P2992O6814O8738O2248N0668L4869M513k8992k6858
50405A38043K3730P9870R3068O4306K4797j1574m7808p8209r3213r2929p2059j3667P3519J34450J19894M5722k8945
50388C58995o5722o0301j7867L9689N8932J340r4251j41714j07238m0637k792l081j8511l1582k8219N868N8273Q3450
50370e368N1890o693l2149l08N3578P2612L0260m8824j11034j18838p7501k0282K1576K9157k506n0471o6888k7402
50352c09191K9551M3658J0418j4965R357P1438J40012J95789K15502J69960O6408l9381j02780j37781j77876k13679
50336d3560k03220j32816l9885K0870K0541k2643n4173l4345J0689J6125k7660m4750L0167J54621K18965J68303
50320C7229M8495n2434p3434j3189O0813N4910m5225j26526p1241P7321J50088O9330n3795q2067l2712j7293n5536
50303a25266n2910M1517J50021J70582R9934R905n1491q2324p6778j4676Q8708J63212J42709L6106p4791j08961
50287C15497n4819L0402Q1286P7928M1631o024n9395j05885j15042p1603o640K8179J5260j9193m5937n6660m4233
50270D752O561Q6146J42207J26935N2895k6350q2492j24226j45455j09686r909R1123J18404O8632N813j6654K172
50253A90868L8364P1143P5395K6310o2133j27004j15314m5215J4191J8763j5761m9716o3308n7919l8595j5170q513
50236a63614l1042n8927m6187J7317P5010N7758k6695q6455m9600M3466Q6715M1460k1203k3529J8944L6639J1728
50219a18215q446P095L3146L8648K9340K0998J0208l199m24J7689P750n9196j38122j53658r6239l0808p517o399
50201d57349J4840N3986P2624N4968L2688M7617R7981J30301R5702J3724m2724l6869j1412j5623k5371J0576O7229
50184A02888O1391j9130p8353l8466N4755R8475O1535l219m3483n0894l7332j8624j7712m4516p3094o7811k8181
50167a41771J5854M2442M7134K9561J401o028K4970O7834Q4101P2552N4544K9420j3681n4246n9473l9447l5227n3216
50149F6724n9326m0309k0918j2913J804K3356J9069k1790o1840o7967n1210l1514k990L6378N7128L6788j56j4944
50131a44630o869j436m333r82Q394N424j4303k7850r170M1340R2977J12093R8128Q3441Q4922P3055J7174n5270q8641
50112B63464q0675q0054r8697q8251k5711L6867M5090J6975L089J0233P999j8287o0097j04188j24209q4629R670
50095c71411R7035J28648J22864J14134Q9508K7569l7913n8760n2070o9927j02793q5533m078O8180N8856k2074
50079i7765j02156j14803m5733N4956J07379P9116K0754m295k544j8807m8970n0777k9536l6325p3009p3633n084
50062d41232P7293J06147Q1452M1097J076l6433n3604l6420l46L2978O3715R6402J17786J13398Q5792M1256j7578
50045B72779p2573r2108o9868l6807j9621j2393j590R711J7084K6153L5237L4091K9817M1251N7253L9460j6841o3615
50027A77420o2894l2226o329Q957K0351K2036J3582R461Q051j1335l9748l5360J761P196m9948j00684p0794O0R853
50008a30590n6985j08906p2804K7002J21094J65294J44770O3652m1115j10557j14755p6859l7909j9107k3377m5742
49992c16894o6294n1056K0229J26305K09718K17476J48620O1416J6890J5430J2922l878j645K8995M1396L934m6463
49975D17101o7254q1448j27664j76395j65903r8705l0699K0990Q2985J43887J50638J01680O7746Q9826J17968Q6439
49959E31192J333p9667j14781r7548m6170q6M899k2066m1072m4531o0350q1995n7902J9505P5910N2902q178l4418
49941c023k7794l8384o5117n8883j3087K0300J0555j4849k3783j6967L919N4922J27015J62092J10341k651r4402
49924A30204j05940m6345L4668R5848J22151J13090P4149K2624j4780k6902l4892o4336j01453j01708m9970J3027
49908E9435L9391K6402J154k2262m0467l5282Q392O2745P5035L4945q828j5312o653l0137q0243r2652k4894P8514
49890B9283J23859P0444k4694p5899o5781m7445n7711o7667l5961K2670N5802M3832J7548J0894K7344N3466P7060
49873A57044Q6784P8071O5160O4735O2432K0936o7443j57883j95549j64235q6194P87N3996M6517O047O576Q1482
49856E9263J60039J36656J841j41951k01969j82481j30903n4477N5309J50535J53264N9574m1781p6624o6732p5697
49840a96134j12110j29023r9538m7361k694L4473P4648J07058J06928O8787K0909J438J8210L7069K0933k2540n0845
49823a69792m4632k8116k3221j9415j1647k7980p6380r6493k6685R2637J49970J04767L4953K0979M4274M2507J7557
49806a6717K9977J04179J88115K06830J27890j9195j62177k30759k07168j33212n9747n671K2548N423n8033j15097
49790c22814j04402l4035K8611M8874O1277R7306J22349Q4753L220m4537k2094J9998J8487j7707l4120k1898k8304
49773a45036o9592q9916m2602L0529N3694K5208J0461L8109O9192P3954P1495P3023N0343n291m9714n2378m6494
49756e015o6925q4688n7275m352K5743L1989M0607L8194l537n3709m8690R237N0116M0175K1923L5710O0602N6444
49738H6549J8823k7780n4874l8746J5086N0817J3254p0934j12287p1535k601L2851L8712M6546N6857N5729N3029
49721H9496O8117R9831J30214J34224Q1681l0027j39819j71508j29547q7788p0812k3457P0803J28245Q2897o414
49705B26136m3034k9257l3932p0204r6260j06405j27319j39924r7731k0906J4733r659l2793j3426K1776M5785P2054
49688d40366J04086J13454R8870J05200J47544J69352J15205N955q9323j20995p9458O114O7037M4208l0262m8809
49672A67812L7363J45103J61795P9591j7803o4286n6561k1969L791j2492o1493p9075k3971M9033M9808k0898o6168
49655B69580k1860O2775R4398M5914k7727n8552k7111L0823O1382M1371k529k5701j4261N023j667m0748q5462r8248
49637B07400o7673k6309j5100k7292j8270J7734K5251k4268o5627k0337Q1264J29180Q2122J5936Q012L8984M2731
49620C83738J505n2439r3188j12841r8996m4454K8087Q1793R9703Q2760L1121m4190j05827j20808j01255q4278p5932
49603b25501m7971R344O5283Q8039P6392M1263j2705o5883p2227o399Q5166J15928N2436m5366q9051n2432J4426
49586f9258M7957K8972j5918m8019m4496p652M1561Q2150J08415J21960J12456O4226j1776p2247q5125o7723o3716
49569A21767q9960j23390j33241j07556n5813q753r348p2613j49891j62386q2775L7241J28510J68227J70869J45978
49553b23134R2904K3002l8338o8482n6382r293L7499M0599J656j9375K4161R4646J09500M7566k5787m9324m1264
49536e9846n7780j04091j24642p8507O329O7013P8562P2910Q4883J00141P7853J7320l0288k7895J461J9994L7046
49519H0463Q1381J28074J12106K4434o0535q1098o5791p4272r6684o8223K7464J23987J50291J04128L5169j2243
49503D08651k2864m939J5204P377l3227p7285r3725q2901o7459o0337n4587l8463r761J9141K2908j8409q8083j29120
49485c07879r3410M425R8750J41786J46341J54079J75641J76671J21871K3439o1251q4529n9897m7822q2062j22921
49469A83232j04650k4339M6213M7401K445k2268o438J0149l062k4801k3208o590l698j1756j237K8659L7398L716
49451A27166l1079j4807L2855L1879n2679j52907j74331j07938k9847R99K063J6573M5126N5804L9495K4163M0571
49434a46894R2150J50442J66929J06914m809q5358o8176L0186J37362K01570K10457J57854M8922o2822j06804q5930
49418G41993q2726j43710k07078j89898j05818l8521k4433k5637r276J1692K4577M3752O9157O7116K4575j3546K740
49401A44959O0944J05749J12026J03456R9930P7372l668j36695k49478k59058j56611k9088K3699p558m2780j6648
49385a73449M9295Q9104P3869K7472j2060j6574K6885R8883J44597J21595M9062j7104n2581p7514j06326j24170
49369A00984j20947j11267j03878q2384l6617J4475N4132R4511J41587J57333J00382k756p0098n6064J707L8503
49353A19603L5130J5337n303l8467r4280j52593j70698j21644l0486L3428J9558m4044p3897k3050O9115J28482
49337c33809J23435P5048J9538j0042J0420O6777R5903M8830l8788q3598o2245l2598l8697n0691k5350K5585O7378
49320a42904R9563J32187J38318Q8191J2389k7320k3383k3869m9836o8296n7477m4513n5749p3382o7509l6771N729
49303a94632N3072Q6770P3266J0710m7616n0877j2116J8227J9289N854j2883l7125m6847j3881M9254Q9539P6884
49286F6888M0682K8274M8715P5446Q8052Q8355P9609N2352K605m4931m9570J009O8269R7944P4224K5287k0115n7870
49268F65225q6922r0567n7739o393L1891L9802J6492l0343p9797j03674r5452p7519o4536m3305j0531l22l6613q1244
49250a11547p5798k1880K9189N6957Q2876R9904O2692k3001o5689J716J15525J45887N2764p6624j41815j27827q0260
49233g6931l1956J2778M8174O0141M8543L2365K6464K5847J8193K790r098o404J3806M2495N5740K7557l6807q7450
49215A66247p5164j3008L4179L0668R892J5678L6957L4472N608k2884n1123j01744j59665j69779j10215k5169L3716
49198c61334O1643P8329Q8596Q8234P7624N0370K789k8858J0722J05473J49750P2783n7843j17970q2091k7749o043
49181A04425Q792L8179N2442L3732J6031K1953J5790l3005q4622q1483l5266m942m269J3334P8738J62393K13095
49164E15317K06096J44654M5500o2836j48435j96560k12739k05483j81303j53361j30572r4776j6858Q9978J57689
49149b43689J31310M1845j5636J4697Q3887R3227J3364p2947o6322K2828Q0030L0792o0050p1820J2891Q7986O4630
49132A47023k3061p7000n5141M951N0650N5769J2805o6235j35548j41009p7121K200M1001L3688J3692Q442J7518
49115a87376K3872J4817n492k1269k3852j8313m907L0796Q9056J30399J11828M7851O06J356J6164L959k6938m4872
49097A37685m5905m4982l9740k2760j5659m7132r8311j10721n7816K2902P8362R0813P0419L1434k184L017N0423
49080a55Q9334O6142m283n2144m1820j2677j4047l1341j1148N6400J21754J42847J26299Q8243J7647q6235j71636
49063B83180j80543j28447q9875j01503j24190j10751o6262k0427K0494O5184J09088J41130J55935J41109Q2829N521
49047A82472l0037K059N8096R1033J07802J19203Q6137j4251j08669j03949k8115p44n7485j01321n6906J9534L9004
49030B03863J2948J4408N3854P2227L9436q182l0873l5396m9011p2995p7743l9567J7901K8078m6809j47763j61775
49013b27399n0123J01224J80672J63002R4825J2141p6658j49405j68993j27479n7365L690L8057M4381L1889J5531
48997a72010J911j2483k1046m374L8646P8856R1799Q2647O3394L3934K80k2977m4366q5550j18956p3543N6411J66135
48979E8708J61801P7721Q195k6325o1811q2978l9610M3576Q0414N4739L9316O3645O0824j4699j02895j25399r0042
48962A05180n2968l1126r267P588M373q209j1575q678j029L3991J04162J65546J64047R9512K0431k9320l6725j4146
48944E01787Q134N85l6682p8746j13239j43630j53169j10372k4163N2741R3051J18153J34046J06993L7747m692K3400
48927D11944O7298N4336Q80k6678j7825j2325j8355j1229L862j554k2042l2663m4931p9034r6588m3655M2662N9686
48909B33789j3800q0777o5788j3490l433l1962l6429N096N3845O8002L9077j3605n4969n5713k3808J924M279J0142
48891B2380M5142R3299J21404J16655P9032M795r3289j69138j76851j13933j7285O8261J05487P4708n493p9218r5219
48874a9263m4586M4219J26883J56769J11259K3972l5448l3418j615J8120K2271J7753j0785o3864r1703n0579K1973
48857A91958M2959r708p7660j10505j20681j33905j33209q7032q384M7310M0033j2918m8756j2159Q8282J74057
48841a70318J68209Q0446l17p561L4742O2104N6266M5652L8415O875n2788r1123o4909L35L9218K2344k6698p5386
48823F5506j03755q7772j0962R2594J49852J29103P4282L3642m837o6526j19175j11333o0368l3148m4439m5371j8594
48806a61301q279l1943l9022n18K9034o94m2246j8128N5972R4753O8937K7374J87l8298r5955j25070q9984k1600
48788c96781K5602L2522R838k6235m8125k4025M1607J03709J33554J48130J63742J60501J21615O8662K1073m1859
48772D93530j31634j94743j65803o4230J8165K5719j2918m5191n1959l5023K235L9147M1946Q942j8938j4422J433
48755a03744N329J5999N3579Q5070O4210J3104M225N2781Q5379M6466j1368N417R6545J58213J12185m787j00584
48738E78019j35098j32331j14134p5050k3519J730j7418l9907j0868O4752J21976J08373L3912n4293j23251j65654
48722A7239j75533j38347n5675L0811O1241J7472m6862n8497j1255K3514j0784p7691r3647l7869K7180M7589M2941
48705d38173N7116Q5395R1305P2069O0004O5564O4984M9654M3764N5901N2436P844m8177o9187n7401n1277n9940
48688a8119n5086k8650j1025j6656j5525J3178L6566J6826k3201l0811k902J9336K8322N9450J10483J17483M7608
48671B47277l7957o3846m1582l2237m0817k0227L2754O2503M2247N656k5362p2070j28020j30025n2951K5903K4149
48654b04605k5569k5214M5365J09727J07781N4501j3366p6602j07549p3814L884N0475K2541m3973r0137r3530n5628
48637d15713J4602P6781P5763K1516q41N1637J04239O6767l3639r4156p7214k8862K0382P8138J14799O8041m5611
48620c371j11976o3983K4016M6905J4423R747M2881L7694l8068j14394j16999o2769j9339j0394n287J7249L7252
48603c16413K4886k3290q1734j11769q2361K049Q9836J20291Q6276M3397M3226P3047Q2220N4475K2299J0814M317
48586D1566j5299k7690j896N0838Q4101P2327L1375j7357p1506j22167j31002o5687M4272J16969J01209L4936m848
48569A20141m766k7709j04713j59559r7715M8423J36487Q9754j4222o4667n9223o5457r6784j09085r1757p4193n0200
48552f25245J5553R6610J08280L2006m0617l0174K9390N9458M7096K9239J6581O74K730M4984R1389Q3172K7471q282
48534a9685J0446N0744P2114O8092M1504r457o3739q1315n7272l5711m5618n4301j3758O7635J29427J26508P0947
48517B56561J0784j7238j4864j2509l3382o5056o8893j9363O6195J33527J28757M4299o3169j14220q1574j6248J1237
48500A44844j7675o8489j01510r5325m1691M6099J24604J52525J30912Q5976K2871o4545j43242j51699p8150J1770
48484d2725M9744L8437K8440M7142P6452Q5234O1339J9351j1306j5437j2279k7914m6167j9382N8316J21953J05519
48467E16717J5821q8755j66893k07936k00675j37935n1039M490J2232J4228N0241J00252J09714O1871K222j2654
48451B1901K3114O3634O5492K8515k0481o6420j10069j42634j43490j09487o5615l4172p489L6022R7500J49453
48435b14226J57405J07375K1321n2113p3128m0885J6997P6181J20732J29961R4439M5405L0746N1080N5073J2951
48419E39314m2447o9728p5909q6817r2790o6256j4741K4939L7649M1363N2117O4460O3082L5946j3453n3060m3798
48402B99871O721M1365K9403Q263J3826J4919k4536o0006k6865L4849J5607r3765j64738j01638L1318J05870Q6612
48385B17076L0027k0900o5554r4713q4348m2534j1040j1432k3377k0422Q40L0885O2113Q6059R0140O5713J9680k1080
48367B07133k6936k899M049l3331o4068j3642R8023J56369R7321r275o5480p4741r9961j40276j37169q5142m6922
48350b36947m9719m3316J3509Q6012J15935R6511O2669L8521K4546J6193J1394R503J0926O717k3890p9501j08879
48333d9816n8832M5999J14029R1536K0380k4199j8098P981J7374k673l8469o2706o6900p8295j12030j15516k0061
48316c50296J40439K30812J72073M0797l4532k3440J7097N1975Q6459J02068O3273o422k9717K1048Q0851P5662M539
48299F42686q2595j44380j55910r7546J8273J23648J40637N8285n4958j22085j28564j15559j13727j05516o3199l748
48283b04258K5828J4438j43N058K575l1762o7772o4063l4875k7082m5611m7321j794Q0438J69802K28478K15217
48266B17153J28533L4335k329k763l1614p9909p2520o88M4974J0704l7017k2925J6937N967l8804m0347k398j3204
48248A14085j00379j72427j41061l7441L9270M7487K8796K9603M5214M4625J7655j8799m6826o2510o7057n9210m3895
48231c82870l4657l2868j6695K6277O4678N4786O724j8711R871N5145O8848M9560J7569k6535p8286r8369n6446J2185
48213c79794M3188K6720Q273J4029K5593K9225L7651M9500L4043j8790o7281o5283k1169J4044O705k7514m5684k3018
48195c59562K0411L9876J9701l668J0300M5967M7914l725o4400p9147m0488J7710O1674P7081O1369J7668l7656o6814
48177b35789k7110Q0620J81221J79812O6922o3852j28647j42723j55681j46487o2376O0797J14669P0208K6092O7163
48161a15161J45751J55426O9353m8974j31657j47460q8882K0376J14700J31581P0159j7769q2283j00418p1865k1419
48145a18542J2368J9175K9024O0185Q4967P6212N0877K7632j7597r6062j42568q5905L1236Q6718M0859j6486n363
48128C6730L4197J9007m9020r4527p8868l8158j8086j8525j0815J9957O0765Q4023P1488L4793J1266K8291P0067
48111A62585Q7797M7729l1684r4096j01014p0177m7039m0904j6565L8213P1884L3631m2825p0524k1252M3010N6873
48094E642J9960l5061q8164j15427p7987K2488J09470J06184K8624m2484o7263p1607p5141n7652j2142K4698K7018
48077b98844K4755N6906J07093J25357R8499N9817L5770K1556J2777K2980N1223N8503L970j01352j94152k11970
48061a27112j42218k8696N9762P7185L5241r092j0856J9497L8166K4867q78j7124k8510m9056p5698r3115r0563n9550
48043d77750R922J07812J85791J88194J10027Q845n0325n3280l5253l3232n1240o8398o7557m8336j5677L2386R4444
48026a63627J46153J49498R5570K8543N752L0583M4125l323q5421j25810r0473l0827j9844o1437r0102n8536N846
48009b23330M6096M9214M4731M6057L1876j1603o2650q9250p8645l4029L2037Q9302J02935P4525M7921N3552O6794
47992A85533M4475j4680p1330r4093q2614n2719k2601p201p234r891r826j0513O021P4208J77502K21969J31987m2597
47974D16396j69609j80287j20321n8929j0248L7446P1127O7297K5206l8511j01879j30610r5218j6102M2523M7533
47958b14186L4541M6707O9420N9504J5261j8441n406M4208Q2683O2200j6870q9712r0275l7497j4161m6143o3201
47941a81368j6765K7062k0651j29289j77315j07012J9794J12119J28772P3198j6602o4135j1692R6110J46060R6626
47925b5088K5526R140J8258j6917q8160j21103q4238k5831k95k121J1710N6144R3263P5981J2252l2645j5806K0562
47907h9368L847o3300j04917p9812k3495L2690J06609J85436J77674K6844j70587k50559j70504l5975N0820Q4717
47891c19880R4460P6766L3195O946L0478P2669P9794M5041O383m204J4551L9599L7513n802n6877o4430k9072o929
47873E0201k7479n2655m6595l8819p0781j15215j07419m0614K5202M6176L8762L7379M7289M9460K7817j1976l7593
47856b26860j7247L1308M5782K070m3095l7100j9152n2150r6605n0894Q1048J68286J34458O3146N9839R0914M7803
47839A81551p9236j85578j91496j17567k8420K8066K5620k9388q0380o8119p075L2874K6630K1974N4915R3916R5082
47822b26631O3864K8946j992k1196M933Q7355J62819J49903N6389k1092j8898J5974j277p4331j23367r5699l4419
47805d8719j5214m2369m4659K6785J28626J68938J05820j0164q3969o1465K1383P1021L2028m9669q1148l7450J7786
47788I7561L6035N1571J04284J45187R1130m3993j47669j46500q3604m2074m8163p7366j05053j09309n8534N4478
47772b82019J75749K25163J74997P8552J8516L0972P7138R0195N1713O288j1360l4095j07785k00140k23953j54087
47756h4156o2306j8453j1043Q429N1213R3730J13306R1171K1000n3760n5606L2425J25611J33618O1965k5018r8998
47739C23128j65799k04258j81684j18760p1269m8004p531N9631J04740R1022M2906R251J3700N0961R7282J17016
47723A12332R1859M8639K6895K1351m437m9071o5386k9206K9136P2451R0230P1472m874j24457k23240k50984k21056
47706d08346j73989j24121o8808j7259K4347P1383J29629J66128J47623R3867N5709M7161L5175j582l6774l2260
47690i2117J0153M9363N1249K2639l293q588o673j4822k5814k1593m232P543P182L638n8p086r017L553J3304p156
47670c1825m5488n2645r709M0650M7422P495m7859r0859r9071n3146L1184Q9740O8911o031n1676j7671O2118J11391
47652d7069R2392M2915L2935P9044J12541N7833o2461j41047j14959l6605Q197P166M373J4185J2677o30M933L1410
47634I7830L7844M709k8400j7585J8643J9523l7738j03713j12065n8501p595j3151m7572l7422L3104R1727O9090
47617i1272j2550p2586p0801l5516o760P004J4172J7207J5671J2093P367R99o291j9135m3250n9549k4407P2949
47599b94655J68958J82860J13694M1836K8147M6790L0634m4400j34334j67649j05279J7972J07271Q8282j5339j03125
47583c8337j02214l2533L2774M5143J0125l6431o5876p9643r6826j11175p8257K3781J34867J63616J01335L5334
47567i4317L3572O7533P6923N9715N2366N8167N0818L0717K3914K8992J2005l9066r0253j02094p0900k4551L962j496
47549G6007k6770l8663k6592k3318n9511j08008j08748m9440J6121M1075M2693O6138J16407J52805J38912P5428
47533B84536j1107r2639j50171j72125j50884q6603N22O8558Q2174M9069J6211K1744N8502Q9027Q4397M1535k1725
47516A11021p2848p6763k4989M4364P2643L7028k5239n5306l1746J3059L1474R272k3513k5402J4105O2222P3654
47499A33036L7581p907j6754R376K0436j8831q1128j10381r0324n1000j3400L1036P4124O9280n726r0622r5387q807
47481b15398Q3552R4705K0251p5809j27055j06505l2722M5117Q1957O9766L1404j0770m0130l1255K9472J04404
47465g9016J29626R5401N9655N9916N9336J6037m1337o1651n8244p9588j12984r4614j8007M2802M0764K1197M3687
47448B2980R0671R8861M7300k7779q0652q2751k7739N0277Q4474M3785j8976k6571K6220P5011P3523L2227k6701
47431C54160r8357j64645j83868j40564p3674k6887J661K9810L9202j510p0640r9812n8508N684L2448K3010J8658
47414d13832L0148L4300L3066O0036J09128J08304R801j24075j79621j24643k9223M2401R7004J52693J78559J39085
47398A23131N8393q988m7203p3982q5494n5117J6675R0475J26821J10176M3674m6708j09971j09076o4216k9886l0953
47381i2249m5647m2573o288O0950J28027J38833O9414k7044p5364o9746o3036p6219p8839n7380l5664j7669K0588
47364b69906O3706N3720j4180o1239l0753L9945R5768J40241J76291J45888K0275j01691r4688J2217O2492j4393
47348B23693j16524j24034n0239J2654K9837L6455M9286L7370j7214p8774r9498p9386o1612p0658p7134m1725J8915
47331d08588M4060J1765k7662k0695K3161O4563R7360J32358J45189R8664R938n7091o7316l8634M266M8698O6578
47314A26614K8563l7842n9315j3157L3935J7487l3863m1329J5519P8879R3953P0571N4443O1453N9695J4790o1027
47297D09369j18454j26096r5061m5488J8494Q0134R3227L6733l5390m6852R784P8398J20378J36640J20811N7633
47281F94260k7365q1395r9218j21268j44866j11699j2556O9930O9368K2465m961j9163o0505j12464j23720r2693
47265a55850n8983k8289K5475R0192J11978O7540q469p2242j05841j03449o3831k214N9184J10208J39917J23683
47249A29009N8135j1611m3753n9589j00030j41737j24676n8876k7236o3602r8320o0790K0145O2967M0488n911l2151
47232e17538k7118L178M7324Q5543J00701R4386Q0823P0355O5838O3091M7435N272n1443q8300q5824n7843k5193O431
47214a82882K9271J9319l5237j04525j40466j25961q4787m7678k2831L752N0088J17307J79943K04024J82572J45777
47198A87686J28121J32292J31380R9341L5536l1488o4106n5042m7381r0848j70773k11582j71126j00364p3498q2225
47182c84077n0911M4413J26156J08282L725r2884j09151n0766L1784R3754J10881P9628K4872q305P163N0928P4813
47165F0305N1530j800m5145n3480l4805j4745k528K3112P9836J33872J15925Q141j07780j29127n3411J9749J1915
47148F1564n3333j08312j30838j37137j21751o0705L3790J10595J36770J20319P2035j2213j10694j53260q0105Q0415
47132c52860K20831K54658J99678J48916J56800J71945J06119l9202j58825j73746j30276j26010j69430j77742
47118f9144j07445j7078K1455J6357K2464N3479P2311N0106k775n5565p8133n1030J7603Q5272J04668O4120n200
47101A21465n4403m8852K370L8637l430j11085j87689j50694k0573J12872J89025K04525J66958Q0903j5229n5263
47085B69537j6338M9445P7982N9737K2074k3045q0390j41487j88497k15664k15546j59150l2976J07737J70633J26049
47069a89899L8857j4311k0747k719M0163J10152J61535J36142N0055j0707K399M1459L2346l4180j08803j48864
47053H2878j45066j08615o7444n8445q9106j18255j04077n6442j0105L3944R4983J52716J56141R7298K5563k3259
47037a37291o1879r7047r3975l1587M9120R6108J13990J33914J44086J09753N0231K9690O0912P9428M2194o06J9354
47020E06395P5728P3376j5976j05600j07015m6456k3466p5081j33917j25956o3146j3897j2257k9747k3613J6796
47004a03832O7961R4781P8152L5662O819K661j3815p2722j38826j42840o5393M2467J17294J28825P7788n415n9131
46987E0436l8025K4946M8007M156n0771o5843n4005l9249p675M4182O6763K2200m5862o5534l0886J1832M0803N9656
46969b4869N0886J156m4635l1237J4415J8568j5018p521N4622P9989J3298p2274q5069m5327l1630n0172l9063K7225
46951a86656J13602J85810K25493J98605Q6347n0322j11541q1914m8817p3250j05337o9344J9405Q0414Q1504O3806
46935C27805N7507L1275n0419j54592j99613j43472l1184N0413N4379M797m4584o7535p6750r0681j05782j04754
46919e43190q1506m9352k5646j2741M304M0103Q8549J22788J19950Q6967N9337P0518J18215J59806J47866P7041r977
46902C73032p1669j11520j52391j77886j40557m1244M1945L9936j7961m2825P40O4967R4920Q3746M6868p259n9497
46885g6655p5765m9297j6312l951P558M3954Q8519J05767Q6266L7299l8310j15129j33325o9814N942J2410k7185
46868b18028k4465K7563M0843j8747o6807l2625K9607L1947j2058k7704o347L835R077O9116J79187K44692K01667
46851D30753R2801n767o9763j04851j01408o3200l8756o7393j14842j10556l9131M3367P7758N5131O893k9630l3791
46834g2385q680K9438O9757J04399J10674O7100p90k7246J2632N8845M0802k7163o8585m9807j4408j3425m5975p9572
46816H5611r2415p8689l8723J7536P1436J09880J28393J21351Q6743L8709n779m9515r8201j25292r2506j4359L8421
46799A02601K3302j8461j9963K3629O1311O3170M9399M3281L2132j1482r0001j73119k17351j90872r6826J9316R9787
46782c00147J22561J11308R3112O3115O423n8673q7517o4213k6934k0955l8418k6943M2115J35145J94958K01206
46766C46143J76615J44839J05830N3353n749n9868j02876j22913r8368k9290L5881L7240k4773q1884p8852l7837
46750B57491j7609l0644l9391k4070n205O960L2688O8641O5123J524n6517l5241L7261O7574L3076M612K2900L1798
46732D20971k8027j23659j78539j68607j18057m0975N2790J23499J36088J12164R2345O6752N262o1378o8784k6838
46716A95007j7873o7633r7985m7254L2846N6419K4535P57K935o240l5003m1898r539J8466l202o4230j21684j48725
46698c30301j38166q6550p305N5670O4520L9647M3856R9769J48643J20733L4840j2409L2488J06516J08104K4098
46682C04153o2953q4606n4878k0861N206L3399N0297K9854k0581o3804q4149j04087j39982j68012j54753j07057
46666f42814o3661l5136J9034J29146K46770K77962J95078P8479K0769K0897J2323k9988o7776p6528p9204q8688
46650h3337p7210l4406m097j8998l7651J933Q9104J51323J46042R6847M5325J0701l420k825q861l8161p1313p0970
46632I0026l3905M669K0477J9981N233m1538j17703j74713j61793q2810R573O6420P4316M7146O918k7482m6017m7797
46614c88999l5272r523K9442Q0026J32679J63225J44276P6893L266k9734j7220P286J4967J966k5574n8303p4521
46597A4880n3738q646K1209J8568Q897K1036N1623Q2390J06277J15961R2947L9326R10J7683N4947K5817j02603
46580E07484k54292l17596k59099j45255o0861k9931j8986O041M6726Q7252J16576J25535J00880M3632j2967k7372
46564i2233L727M0776N0670M3899N0786P5215R0251P4528L6352L84j7416j7356p206N332J1535J990k1182l4406j3044
46545B82602K9136M2926R781j5551K8767J09519J19397J8522r9797j23877n9241L664K1295K5414L4061J4208n0281
46528C90545j18004j43795j21907n4733N9943J75784J98520J01260j1252k7625J7118j170j05752j85091j57264p0935
46512e4358q812J9599L2747M018q3029j56815j29007k5277M1562K9027J4247O8270J54789J91440J57732R7664N2233
46495D06030L4101M5093P3637Q3826M5252k2956o2024l2078N0074J26857J42020P6545l7680j37886j74483j40080
46479D76248o0890K5527Q1868Q4178M2891M64q549R208K0096k98n3385j22594j76079j79556j27670n5283k652K0024
46461b6452K0735K49l5231n4572l2865M058M357l8386p4310o4053k1169K1307M7302M3377q530q7983j19625n0428
46443d72219P0506J39933J26571R7697J08892J22831P4822k1508q8044q4790m4216m728L2980O5940O0766N904m6371
46426A44966m1147k204K141l5611n0821q353M2424L9824q083m5509l9348K835N3758P3244K5485p0231j30234r1264
46408a38128J1589R1018J11780J02119P9656K8161n0067j16731j46800j48898j25518o3292J8854O3083M4434Q039
46392b30701L663K1028K4257J3774J2749K1636L0071M9407Q7002J08433P7582K3036R614M3500N8545P443q0105
46375B80934j45753j65630j43391q0889R083Q4276J02649O5038R058l1868n0795o0503p7104r9005r5852l9101M6505
46358c92348R1670O5469K0537K1493N3803N2492P923j8069Q390L7141J1067m4801n9168j7183K2781J3720k0541k4010
46340a69634J9434P0933Q4967O1409M6243P6901J30771J47262J07188O1011N4687N7916J1251p2248j12339p5606
46324E00146k4715k4963n1262l5892J9379L3537n0812j91262k81530k47394j08449L9791J06965Q2416K7655j733k568
46307b10691J2740N6507J31955J87311J56756M5891o5288j10043r2219n2337j3154K5288O1946Q5193P8424L2151
46291C30430l7481q6183p7325k1083L6873O0180M0164j3295o9586q1058l0739K8526K6702l0955o9918m8435n42L4429
46273i296O3771R2565Q2041Q615p5745r9453o4302k9228j8473l292K9306M8105L3426J6513L6656Q2907J01858N4991
46255C50965m1257j23817j28223m0365Q5893J67662J57914P7069j2691o1113o5419o0223p2204q8426p8188l8773K442
46238C1246L1043O0965R5436J02808N5983k3311q5433j06800j01780r0943p8763n7727j9139L6143R0411J21820
46222F1959J26332J10059O3882j8651r4434r4709k2759K4694k0463r8921j05924l6030K6295L9086M2639O5843P5865
46205A44763M6891J0840J607n94k9559p5801j06394j13020j06755q9670o3328m4526m1413k9143K1892J02197J67795
46188b04218J79804J26890K6600p6400j29643j14785o5487l0458k6933l9480m9107m8301l8192k3953n184L3455
46172d85392J04535J82759K10011J54280N1263k7669m0984m982K7741J0433n8052j24347j27389o2469J6930O1592
46156a11740O4646L6902j4128o3802p0843k9415R916K792l1465m4368k1653K1011P5192J29887J48733J04786K5415
46139B31866l7019o3787o3490l5937O807J3045m4703r5591m3364Q4459J46731O9840o2882j36787j39255j15060o6053
46122c51180K4027J12817J33500Q5226J9497m2917j07438j34877o5925P0560J56625J27649N1990K7247N1663N1643
46106B10107j099o1062q3090p0711m8072k6074q575k995q317q002J0645L5067L4567q055p1939j11019r9879o2315
46088c80818l9510l4852j6148K5101N2218L8820J1301N625J0939k959k3766j2396K8141N1914M0443K3425K0147J2060
46070a90315q121j1071J7616M7584N8574P7281J16170J23499N5491l8761p8174p1649r4696j51837j60090r1836l6323
46053d36658o2706j03659n8920L8734O1416k6329j16196j08909l5153J4661J6012R371J5381J6983J3814L3262P5674
46036f53222R5636O3944J7455J3623N0178O7071L0751j8693k5504J339K761l7271n3398K0743J54825K40329K08611
46019A79178J02159J6100q059p510l0018p1857r0747n9403P946P0728R0659N4703j4793p6751j10618j33439j64980
46002b46702j88073j70670j22000q9242q8218p6360k0069M5535O4270M4556M9453J06451J72925J97106J72437J20052
45986b8549N6035m103l9283m3600l1359p402L9641R7356J16491O7897j1932o3569p2410o2227m2328k128N1344R0199
45968A10073R9490Q5097N4470K0324J2253M3266O9534L0718o4726j42221j60647j59026j80224j96938j53630m8726
45952e80913O7134J51826J91006J77151J15094M0494p487k8431m1357l4113K0907J01120J37952J04670N2966L3240
45936E01259J9683m2896j43936k08499j88276j09660k7639L0259O0219N4872R164n5743r8721r5711o3283l9995m4083
45919d42986n2868l0623K2141N9608M2560q871l1809J0106Q8844J44686J42714R5533M6484L5302O3436Q5129M9674
45902C19060l5112r6170o8888K9870J16064J19576M0569o3519j28689j27192q0712l7597k9722n0032p1917p7276
45886b41687n7989j0005N1497Q5964O8367L1478L2713P4539R4231M8389k6528o6375o6315p5752j14690j38457j00054
45869d10674j6594N2501P6917P3595N7367J3005o1546j14335q6650K001O1034L6826k3574m1423l873M4387P7499
45852b63537J03640J15845Q5988J7937m0226n5141m3611l3098k1101O818M7904R0250J25315J38789J17222P6290
45836D69284N0074L8672N434n5353r4037p9032m8970n0198o3946m6954j0011L085j0137j9516k7134n6465q5045n9313
45818a39562J5495O5083M4339p953l2370j9181M682J5451o74m0662o7981m3726J1091L1433M440m094N0791J19483
45800F085J24806N9809k4494q9428j19122r7928l4706J4594N324k9530k1924L7939J03032J47674J80852J86851
45784D49834J23854R12j00898j14011n4679J0981L4582L636o4015j17131j00580k0818M7520N1174K3610K4201M4318
45767B42490K9173k2122m3860k983M7377M7380K0963L7436J02283J40781R5950l020q8287j28700j26665p6627J9385
45750B90954J08119J17666M5738l3795p0158r0553j27484j46687j01219j7916L4824M1689L5329J5417m3923j05343
45734d7342q1820K7921J03018N6601m0063o0879L10M3704K1389j2206m667K8024N8906R6569J37230J32180N4107
45717E12982m2896q1189n6854l4226n4380r1921j04504q7982o5650m4233n585N6013J06608J04034N8410L5269P7272
45700B81168J42767J55052R9649L0404j4917n0101q1490p5347k0169K7168O667o3597j16550j19946q5762k3248O0347
45683A52095J26563J30886P8975J2426n0413j08762j32551r2698l3938l5054q1815o5221N8474J87222K05458J26127
45667D77774L7333k7143q1739j03983n5122L1852P6196O1059M2290M4118K7678k2381o0198n7129m8500o5414q0650
45650A96041o4175l8348l1343k3895M582J7594l0514j15298j69782j72325j49476j06956k4174Q2130J53485J64703
45634c07751J48930J28341P5265k2510j04589r8178j3589O7502Q8946O2780K1699k0999n2027m4320O185N6810O4856
45617E7351M2937L5030M9248N5450M9243O8470J22370J47232P9701m2950j04983m0047R7891J98418J97142J05264
45601A117767k3751j26913j55259j04281k2653L0393L6817J5801k1064q1378j54599j94183j62513q2974k1363j2605
45585C7242k6959j8184J6343M4991N4525N7475M9162K816p2051j09029o4152J1801L2897k825j3883L9737R4892P6592
45567B11390q18o6942r3088j05134j17795j09875o6835o857M4348P4943P7192M6566K213j9088q122k712l9671r9057
45549b79342j21613q0124r278M2916O9802R2530J10255R8974N9003K3740N886k4501p6477r2462k2883P5266Q8129
45532d0179J245o5325j1482J09573J58985P5834p2906j77822j76338p8395M6106J10626Q1678N950n2362q1651j00986
45515b67449r7570m0801M9398J04759R0963M7162K9760M8068O8930O1507K6885k336P490M7490O5796L1451k1899
45498B49604m8479o0865r6531j31668r7742R783J06100J22916Q3155M3520J7511p391k3384j9359j2101j8126j9583
45481I7360L850L2908L6870K2773J8137K2219J3200r217k4742k4642r841K7901Q4547J17411Q6485J8549j6445J531
45463D98854J6275k5532j07658j74493j93392j64075r7233j7973K6665K792o4343j06275q3688k5934J2559J9346
45447d84105K6133M9780O1529L1897j4453j9179L6670J06967J33946J05023M8312n460m0961n5271n5278n1733m7701
45430a73884m0813l5953l5359j5547N2355J45415J89347J46285P2508M9132P5659P8758J8854o0932r9826r1493p1947
45413B02559o4308n9293l7994L277M7961P3435P2223N5242K8255k2300j02210j77553j96241j44294o0403R085N1043
45396c21516P6236Q7711P2311K0410n1052r9694r3086m5938m327J4393L7783P5412P7710N301q3631q1052L0208
45379b82821J43016J54741P8131o867o2339j01970j21203q3483J4731J10554J33648Q3480K6866J9192M3081L7568
45363A86325j7428p0838o9062k9382j0081k2390k3251K30j514n7012j07645p7945J5043Q0762P5218M4572M0009M5342
45345I53K2602r233P750Q0444J38735J16810L1033n0743r8952j40131j83294j78153q2648N7041J43021J35053P9151
45328F9439K9148q199l7656m0452q716K5466L5032M1874P4742J08841R4206K9556l7774p7041r5891j03041r4683
45311D851p8379o6926m5406J0694P8258R7112N4491J0017R428J9574j0159n8851o0049p7O3313Q2242P3048P4792
45293B57973Q8547Q3605M7144J870k5263l4590m5228o2305o7031m5817j7347j3326l5795n5798n9026o7354r8942
45276a48683j29082j17439o2803j794M2486P8385J06592R7497L3539m3332n9496J0410J11543J65548J44698P9172
45260C07241P450n4676r8567j09909r2298q3279j15610j66101j71653j01710Q404J02681J57178J74375J52271Q8863
45244D660Q381m4279m0912P156O0067P6799M4217o435k1879J7461P2012Q9734O7532M4405M3459N0417M7673L7486
45226E57954K4073J557k7381m5075m5803m7467o0102o4083m1854j4148j6537m7063o4739m3269o031J33m4637j13255
45208i7727j55195j38650p5700p950L2094M0781K8368L441j8511j1453L3414Q6629J11804J12014J16772J23789Q9931
45191B73851k509r9072j22592n8581L4685R6092J13855J05248P6149K4670l0313n5722m5080l1062m4406p5547r3934
45174F5732r3440r3220r5967p6200k3222K9298M0763J7313K074J6309L6156L2812J4300J4092M7872R2579J07565
45157A34816P4857K0344r119L634K3307Q63o7237j30130j32883o6898K6623R1272R6095N6390J6083Q44n976k8360
45139A04525n0133k9846L6471R6258R5632L4238m3360r0938q6726m0028J1579K8301O898j8935k5742k8894n2393
45122e3093r2433j28615j50307j50641j14933m3057L0168O5465O3533N7815P3092J12053J66848K14076K11169J35447
45106C96587K6194m5083m9955k3112r273k0667m7571p5593q2280m6987J9982P6913Q7833M5352l7429j27783j70202
45089h3074j27509l8555P022k5554p2878o2163n431L2681K9042J4487J0196N930J703K1180O7878J05043J00655O7739
45071D8392L9096K1955K621j6027j2959J0186J3852l1677r5472j13196o9883k4245k9996o2034n9097k0105j808j8609
45053d19006p775P6299J85356K39747K28229J90987J32565K2717j17307j99056j66723p0508q328j8323n5563n9546
45037d6235j9179K6474L6482J2006q560K080K8505L8840K6791O579j9595n7896r3289r8064o9992k9221K1215R0204
45019a52855J50008J44907P0967K82q528J5434J0391k6005n2366o4344r3806j32414j22700m4032M4600P6663N5513
45002a28285K8991J6611Q0k7908m2800j9601L6275R3859J21000J04711N7759N030m0861q3476j17500j16070o1518
44985a73703K0735Q2428J06132J16272J32373J35408R5881J9677n3252q9535q6420o0642l1180j4143j8451l8128
44969A43452n5609n7675m4655k5011q740n189j5884k7142k2866j0405j9316o2581j10326j18326p6626j3064M7145
44952d82818J02939J54206J81253J66363J22913P9439L7598k6706j09121j50305r6496J8979R3036O8577L117q363
44936A54611M2603P5783L9052k6728o0342o9472j02680j59349j81234j31725l9215M5745R8341J12634Q5785L6093
44920h0098J0546L9785R3276J06741N4926k2398o8934o8984m8948l4896k3335N026N3852J04854J40681J58650J53704
44903E74448J05186M389j09407j68864j46292q3493m0392k7263n148N2236J15271J24703N7519l9418q9375o3670
44887B60430j0879J885l4358p2385p7780o2747m7483k7189P05J0177j6086m3478k3278L1051M9468j841p0708q4065
44869b18561l4668K6890O7488R8246J26410J23372O7061q028l9933j5497J4587L843l6872o9533q2056q2246o1104
44852a20601l463O9797J09764R6036N3944J0424l2380o9613p8510n2693k0294l985P049J9164L657n4308j04281q3797
44834b54090j3500J9320j9761o3685l9837K9291O0565K1207l7085n1226j9393R507j915m2174o7334m4180J8960P5615
44816d19715P8014K2085m1614n2208J261P3300J17545J28140J14783O8606r651o8250m7059L4827Q7194O0552M01
44799A48211l2709m3059o1279p6185o0477l0143j9329j8900K353L4047M1715L3291M3681O1575M0863j4306m7075
44782B274l9377l3581m6292l7435L224J4118m4729j18937j36332j04007p0209l8058J2734N5195M4902K645q889J4238
44764e28516J3881k5531m0967J4099R5826J27939R5055M1999O834r015j7340k3140k8970l8443m8812m8412k6632
44747d40145J3806N5084P6861P2394N1058K7370J4510K5131O3234J11885J43046J42406J09545L8723o7549j60223
44731B77136j63803o5388M7289P2947J892r5624j58417j69111j22647j8800J09127K01367K20696J73501Q8489K194
44715D00848m6337m4698k5992k3785j9807K0170P1495P0298P969n6147q5897j06139j28125j06754j5188R3183J47738
44698A52832J43095J10409N1041l7999j04890q5284J116O1318M4102q957l8247m0962m8849p1046q9522q9757p0549
44681a22149l4541J2218N4974P4853N9761J4661l2358m3322o742M2534N7080K9390n300j5220j582J6061K1099L658
44663A25075l4141o9164p1813l7166J2672N8012R1673R7299N0081m1764j21361j36776r7631n3804k9422p839K1789
44646b44280L8289K1964j0852k7734k1934j3786j6206j9939j5838j2025j6166j2392K5568R7609J67721J97621J81714
44629C19334J42374R8515N0742k726m6263n1963p467O1193R9255O6489k1686j01715j21011q9450o2754p3504r1693
44612A67670o4907Q906O6081M2879n1610j39544j50699q5908m952L3821J3498m5547j06472j33484j11450n8998j0182
44595f30898K3123N5720Q9467R4156N2621P762K4825J01766J53229J06202j0454r8892j02804n4683j4478L034J8923
44578a81381L2856J4509m2109q7880o9076K474N9232O0873L8072L7703N2261L8326q005l9335k8664j0911k9067p2704
44560b32826j02495j07039r2732m1652N9541J54316J50835M4706n3793n2200J7076O7077P9563R0377R3848N2153
44544A26755j2972l2615o006j0633o5455p6549J9096J31843J28208J6494o8413m8385J8269M6235L3745L4785P3224
44527C07626J16881J10382K0869j21534k24174k07844r2796K1017O5001N9647N6656O6064O1176K4811l1220p4532
44511A58030p1847k2796K3913J8116k6053m7933k5669J379L157k430j585j8140n8754p5789l3443K8850N2218M5686
44493e3090N8463Q6028P0612l098p0205o2210J3713Q7973R8724L9541m5118j03168j18868j11282r1059m3947K8712
44476b18279Q2967P7149K7274j2019j0038K0575N0908N5883K4229k3814m5370k7102n187m260R829O8734J21786Q2715
44458B75980m9078j73314k01927j40375n1692J3149L8576L8707M2002N6866N5853K1310j2245m804K1606K1708J5019
44441c2659N6916J26177J33552O2343P009K8680N7740M057j03624j62783j34382o2595O664N3271N2520q320q6635
44424b069j15732q0965k3809J9083L7296K2070k7163p6138q3522n4164k3105O269N9195J26543J57521J26368O4154
44407A31832J3272j2596j5986l372K988k1637o5148q5277o6535l6502j4943J3849O0216R8876J03944Q1802M5480r460
44389B20803p4041j06792q7602o3374q7533j27741r3273L7275J69660K02846J46019Q9801Q3619Q6441M0106m7191
44373C89023j11559j09424o0189j5910n311j4245j3797J840J0163p609l6527m0235m580M1786N6594K5776k9203p4330
44355B263q3881n2187j971K8742K8101L0285O9295J19669J17391M4789l9653p1685n2533k8563k3650k0586O64L1425
44337I7915M1809R012n7600j14266j16172o0022J5229O9478Q6758O4331Q363n3094q7101r7747j14313j23999o6933
44320d98352O8221J92475K11923J38453M8976k9789j19205j91839j73257o1373L7635L8352j4258j4118O4501J46972
44304a54683J61662J15576O5532M6394M0383Q621n4382j06188j05828o6320l4352k4441o726L7837Q7265J12924
44288A23274J06638O0865l3216j40865j81508j17398j7159J8259k2179o0321m3447l445P421j1291k7327l0919l4662
44271d07280l5595j2684L7936Q8332J04239P3934J4621l5795l8111J3619P0456O4303j8652j15797j56296j34554
44255d87324r2416m8593J0556P4733R8929P0358M0741N7405R7112J09527R7818J04692J32850J34803Q4619J2844
44239D98654m1538p6205j07826j36795j43382j04826j9184P0262R2848L0073l7816j6674P4604J21231O3194l5675
44223B30945r0125r9313j10804j32896j33521r2233j1877Q9050J60408J39900L6244m7834l4201K2987J5599n8493
44207a16164r4298l3524O2902J14856J24197J39573J72026J90089J70864J20373N8201M939k8504n3805r1074j30508
44191F10143j30593p2162N709M6457M0319K5577L1895M5360L4629l934l9983m5569k6455j0873j5953l9561q0195
44174C74811j40542k04443k34626k09636j46405p4444r317L5792M4407K8638L4235P6371R9322M9738l0002m0919
44158c47020M3251J41186J64825J06625J8588m7818o8152n3359m3232n5474m5019L3395J26509J22969J0069r3323
44142A4020j00001o6226p6837r8082m1321P6350J44927J18912N9968K0152j8701o6765p8822k9455L3807O1975P4472
44125B8373J07113J37903J23274P5530M3303L3295J0729k8251m2270j2918K0732J7600r043j8042m524r644o7183
44108D05977j57158k19495k11275j46921p8349l6760m456M9739J19789J63519J49800Q7857J0384n3434q3665p1090
44092g5538l1979r331l2956p4248o3379L2096J57824K22147J90813J10606L9228j6007p2296j16535j17649q3449
44076E9347o0509o9684q1023p0323o3776r4809j40201j36540n4721O7695J64064J89846J46917Q0426M4884N3494
44060C5087O9818O4626N6776O8154O8643K0591l8399k7848N2516J04036O3054j1165k8586N875K0153r046l8822m4153
44042D31310n1880q4694j22947j35564j13944o8161j8548Q426M158p223o491j6245n9157r7384p3040k792L7455K9605
44024c47116L7930R0857J19467O7925k893K442P0933J01773N0602k5231o5043p6480r0357r9333p1545L827J02757
44007a29485J77709J79107R4820k3014r4935q6059k4974M1146P9268O5454m639q5257j02614l5806N0838Q2260N7628
43990B41447L4147M5201O8398O8852M0942j056m8771r6865j24798j06190m5721J0350K2894J3168L7635J03582J45438
43973D08653J08009K1279m3361o4811p2538p2779l6374L4000Q2138O6678R708m3052p0989o7964k8299K4190L2541
43956B87029k6570r8780j13012o4333j076M4132O7046N8631J2957l9668n7416m3844l5179l4298j0764K7997K6621
43939e27l1594q1596o0624L845L6710J7946r147j6264j8608k2753l362M4677P6877N9517K8608M2081Q7955R2979
43921B46720K9027l9868m4117l876L884m6728j02091j06275o4456j9709j651j3753m3041o2998m7911j757M4282P3105
43903b01213R5425J11127R4279M3722J1633L7773Q1346O9958J284o0141q0754q8744r8382p1532J1098R2665J00401
43886A49945L2453n3737j10622j18440o4576L9638J32827J48049Q7645J4497l0918o0935q5238p7910k4874L5416
43870A3220N2777K5247q640k0743j2900k42K786r279k1873j1599J7994L4347K8242L7507Q5305J25246R9385L2374
43852D69154M014K8443L0381l6742j14520j23430p1070k2534l4K5186N9941P2655N0119J7375n477j9886j6658K1543
43834C68460O9136O0312k4739j14147j23436n5940J2445L0708J5351L826O285J2521J7759K3862K7170J9483M00j7003
43816C32453j5861O580L2103L7614J7638j3757l8418m2907k1430J2389K5173J137k6096j4173J6068k563p8597j26626
43798A00727p6245K6296P8958N7657K6765K9742L8883K3326L000N865J8142J1665j1744l5706o2389r5464j09010
43781C0468p0629J0316Q6699J23376J19884Q8431L7206j9012n5460n9286m5379m0872n8519r0259j21466j43744
43765b08246j52954j40662r6129k3057M9937Q8914R1102R1418J19727J56730J51086Q6831J6333O650N9330J07480
43749D04490R6630M1396j3790n9158j06666j32751r2531J4O2544M4610q355k8953k1594k9215m2939j8016L3523M4286
43731A73525l477m3288j9259M1039P5633N8789l672r3062j54745j14013K9471J65221J87603J14181L2983k5836q7023
43714C34070j29464r1953J0611P2052L3488l7196n0657j7222l281j5382k575M4547O9870L6492j7981l5044j2572p91
43696A87012l1536p3850o9346q296M4938K0770o5515j20844q1474J5493Q7275J04022J00041J06678J16432J09809
43680D41609P8998K1416n3363j02466p6228J1212P0460K9310q1674j67321j76334j33831p4106N960J05024J73019
43664G1685J57431Q2585L5775O2094J06818Q4631j5604j20538j53554j00317k439Q1627J06538O3477q339n1345m6561
43647C53964k8430l2792m9418m5487j9770l291p469m12N0840J27714J65919J16627j516j13646j53170j14768m4986
43630A99909P883K3005R8m6233q2235p7316m5521l6186o3736p7743l3304L7115O4670L8611J1348J6376L0480K0433
43612a2346j8480p6230j34515j51680r2059J3062Q3413Q9033P8646Q4369O5381k821m7726Q949J15018J35588L1748
43595A69350r2816j34752j01712n4551j3400L0372O0873N3970K2774L436J0630L6748P3283J01591Q6131J6620n8263
43578B10284p9203m9568k3097k6251l4859k8050k0290k6466l2645k1830o84J8557L6799M9392L7579O161K447N8723
43560G6999J34084J59039J27348R0070N9951q076j14520j65847r0907M0685R6890N6491J5084K0844O793p7610j62412
43543B64906j56790q7356n1651p2548q7129o1627k8270o848K6586P5892J03020R4936Q7780R7108Q7125M2337P048
43526C34519J0249J0964k6560n6992k2774L9698M1926k5094p7502n7727J035M1709N3950N2987L5461r394o8553
43509B77902j10437j10231o2885J0865O6597O6849J8733l6210p2706r9967j24600j24133p7228m251M5370M6657K6587
43492b63088K9928O0673P3368L6980q529M108O9545J02613N1494l2097p3391p4693p6747o3891Q362J08155J40043
43475I2833P3563j7883o3583o7832n5234k3434J1828L40o0160q9046l2260M6687N2477r582n8176n6077k8418J0995
43457b72962O6557J06579Q8387M0642L8627Q3934Q9664J3468p0328p5601j9434K2022K6060L0772N6578Q0243Q0690
43440C85898O3112L4176j1131o8954j15151j23727q8798k9895J8621L1360J3442q344j6754j1169J4507O8439J21897
43423B77529J11136J2780j05689j51400j12926o4140o4357r3207r2887m1861L1904R0684J20187J29589J30921J21887
43407C00150R3837N8430M9464Q0406J13516R8385L5987k4991n3880o5347p4734o6179l0097k507l0160j05114j64520
43390B12646j59309j05054n9029n5759p1186n2530J6307Q9973J15308R7210Q2868Q6420P1914K2124k2666k5054j0447
43373B33736k4107n7696o8466n2072m1069l9944k0792J2992J8293j5048l6585p377M4804P2595P1044N7047K4063
43356A71418l6827r5193j09603q6993o9648o7626m7315P787O4710Q5299P4133O1230N3437K6006l7683j11403j40584
43339b58855r5146m913O5358P6734M4087O969r874m219J3061K1895L620l7652p4140q2981o3186k2057L0960O8554
43321c21785N5439l704n0907l5143L1328R6168J24004J09860O4819J8326R155M0015O2960M1305j135k7185m6302
43304A67218p7371q7732l8684K9617L7503j4965m7697k6162n499k6575m7435j9895L0320M9729L5171J7894Q171j26
43286a6518k011K220n882k3230p213O1011J26207J18276M1212l6322n8111j2849Q0456J71068J82652P8127q2759
43269F16334j93509k09070j71585j36143j11867q0105l5755L680J6328J083r977K0425Q2788J19822R6162M2335M929
43252E5875j4406l4521m2774j9087J0672M595k1648j3360K7679K9566m3984j23628j07742J6475J52685J87642R2863
43235A56902n3754j38594j11103j5455P2102J15837J19522Q7336K5564l3620n5574m8814n0700o9459p7377o1847
43219a39034m4839m4422m8034l2335J1660P0690J06187P5592j0436p3163n5156n663j5461p8498r6773l0683M0411
43202c69957L9316n740k7625k1516j5912K400N6978J06757Q0713k0271j18950j55794j33027p0782J7237R4429J07421
43185d34323N0113j7398l9838k6512j6945j6173M200N6491J18349J59130J63694J32438P4913N764o0670j08248
43169D4985j09018l5941R0696J83206J53678J3053j28318j78567j54217j27200j16258q1788j2416M7318O6528O9364
43153b74895Q4091R9258R7952Q8060O5638Mr9218j52576j11738m5429m6644q7840o2849M1650J20941J09395N9991
43136a14209L4364J1068m0311p5309l9371L7929Q4735Q4114O5125L3204k0914o8730p2673n4833o7543r6713o2872
43119c62939O4743K09633K70246K24688J28751L7942l5430r3351j11233n2875O6419J55474J22417k3020j74760
43104D26705k44064k31891j81431j13233l9636M482m129l7443m9813k7148K6536J09014J82930J69514M8331p2864
43088c4140p0091L3831J02246P1631J3557K759K0997K6129K8893M6241M6162K076m7079n3554l9412n4144q0977n5191
43070d0066L1112J06578J13381P2801L9631K9657K0344K441j315K6974O2554N5111j0424q3412r7994n2846j6762
43053B57765m5758j15843j53229j13975j6333Q9707J60436J73677J33159O5806L005m0847o9257q9563j06689j23855
43037H206j34758j16375m7140N8723J46194J64419J17201N6951K4573Q408k6567q1801j18657j04131m0939M4830
43021d0863J17338J33528P4589r378l0674K9216Q4263N5605k1636n9681n1564o5897j21104j51500j13175m5753K55
43004b16431K7430M5331K8513k5085n0433K000P7020P8932N231n1364k8106M2583R6358J08654Q8322M6068o464n1680
42986B16879p6754p6182m5625N155L9856K8165r971k6444j3857j4188m8160p5789n2562L500L2495P245m0507o5862
42968b12606o1431n5458o9087q7223p9797m7085k2886k2432j2429M0142J09604J41933J32293J22452J19637P7914
42952G3541j4520q4528n8610L3837R2797O7899Q69m3600m3677j5227J7369L2415K2290N827P856K0569J0093l0168
42934I5032n8906l5524K8658Q2382Q4513L2436m3162r8666j06273p7691n2218n2404o0383m5303k546M3277O4195
42917b02583N0459J7694j296J4590M7547N7999L4325M301j1192k6953n6648p5747n2787M60M2781N5589N0914L9485
42899a1062K4545J9028L4251N6757O8740Q1628J10349J25475Q4083Q039k8585n067J3007k5593q0148q2950l6190N504
42881C61811J5304N048j9273n9622r7438j11226j12016j16793r9722k2911Q8218J55659J43684R5033O0377L8874R714
42864C34721j9961l1543l3212m9437q2623j06748r5543m8943K523K0809R59j7258M65K9323J5683m0806p9046o2577
42846b63214k8642k4423l4642j4774K8821M1756J977m2851k9674N0029J42569J80914J38423M6781l4332o9552o9261
42829A9905o0435n1968l9629k8988k9855l2387j2510L3265P5863Q6342O9039M9963L8829J9828j5077m0638k6828
42812E4719J1283K0554k0027o2263m9737K290K7020m82l7103m8024n8194r5635j24730q7523N634P9793R1908P7131
42794b13386Q3487J00883Q5842L2936j5826k8405j8011j4041k2293k9097k7784k0321j434L3802O5457N7886P000
42777G6695m0855l7510R678M9033M7316K0447K022K059N412j408j2707j2678j8J127l2869q5136j02790n5438K5302
42758a42318Q0771Q4646N0813M212k7704j6592L2018N7827P614q3827j23901p8263m613M1828P7357J31350J71254
42741B62472J39655M0936n7192r7847p4980j2561N6678R5849Q4445M3157J6204K1883L3400J2680m3276r0200p3565
42724C57738J0621R4923J02356L1947m3604o9755o4265o6388p3874o1056k6994J0473M4645O9738O4985K6850m585
42707D03755N982L1178J6937l4538o5390m3762j269J4661j0258n7097q7935o1608K6952J21372J54427J25157Q8441
42690F27005P1427N0136J4634k225J2003R243n3963j45726j96965j86746j45892r3171k0674N4875P8011K1112o2220
42673C0864q6938l5721K2349K1042k3916n0558m3969m7864q0984r5400m8908K2574N3046M2250M8089R0951J21885
42656f1208R5845K9801k9271n6590n1969k3785Q314K1250J8747L2043P4857J18863J27479R3907L6833j6848l8125
42639C80143j7892M965k4577r7473j31674p3429K8521Q7072Q3045O3704O3196P7966J04135J38994J46929Q3823l0156
42622H87292j13052j19278r3311r8098j27412j26592p5640j0339K9973L9448L1089J5797L127J222P485J3255K0850
42605B85816L9129N7667M6150n509n9816o3772o904O4257Q9315M5814l5694r7856j01670n7003q972R695M867o069
42587A99445k8915p6688j28690j38281q8008j2814M0047N4096M1524K2340J4342K0587J8479j3460n2097m7966J849
42570a74210M2528M3966M2071O0107M7258l6634j19669r4355J8111P8544K0345o3500o2899K698M1818L1933K4651
42553i7237M4431O1323N6830M9186M6137K8953m45l144L9552Q3782O8036j2678r8690j26361q5096k0992M553l5431
42535B709j11629j62691j47496p9051p944K6371K6198K0568K9460N0749P5353R8209J10803R9804O3885J9973j6378
42518I8893m1934m6794q631O8346J28105J14615M4661p696k029K8179L3797J1379j3429l3192n9236q9016j02219
42501A23799r1277p7956q9366j19727j26401p7120Q63M1890K1440j3248j1782J2449J8496J0451K3041N4478P1766
42484b28204P1817P4138N8828j2374j03435j13892j2875J08495J58474J49626J33562J01188K1427o9874j02965p3864
42468A60072l9472k6795j2362J5519L6829M3632M9911N3357L4580J10j6190j770J9540K4522J0460k1331o7073j03492
42450A60047j02030o5053k3287J578Q572J095j0715K21N1232J15776J46490J27660P6157K817q7081j61988j79779
42433F1712j43039j00592q2750o5898j3781O8739J33970J32036N5753m3313r4879p9876m2490k0118K547M1942O4803
42416a25234M1305J0755K6183N9724M0558k6684o5351m8785l2551m9322n6036j7483L1570M8582M6182N1011N2782
42399a2794L6105J6297L578k5168p9396j19309j05972n2518P266O3736J12276J29122J03005N7866J5766k4061m6256
42382G9543j5471N1078O7797p056r5294r8817l1487J9170K4010K5425M1502M1818J5961r167k7624o3849j11278
42365i3739j20770p0815l885K7640J8497l07j708J7126L3770J9468k3372n4499m8086k9458k8569k6060P978M7924
42347c28865M4860Q504p727N187O956j1589j7693j4289m9536j25241j71242j47528j02976q6502o3967J5102J17018
42330i29528J60256J25346O5022K1782l353o582L2144J04278J59004J56758J13112P4351O5089P1068O3687L1625
42314C04059j1922n1308r0194j38245j78781j72945j07299j9658L6846M4209K5257J2654K0541L3232J7447l5913
42298c12020q1764o4470n26K3881l4088j01404p5566L7495J23917R9433K019o3347l7851M9768J29560J55450J32586
42281a6927R7340P6210O6213N4264M2287L9420L5485R21p9004j74659k23251j78730o0123N5448J04322R6966Q6354
42264B2536Q4996N6356l949l5821k140L8196M596q3880j29306r0438k8332n645p852M069J9594O436k2621k2673J8631
42245a77247P2134J13285J36423J27503O7515k5079r1830r6762o8635n7989o8385n8094m077O5361J08655J17449
42229A60227J09232R1611N7364Q302l9326p3214q8692p5080k5113L5413N7288K5359j7065k2262M570K6231L0235
42212B65080L2541M0137M5896N1665O0890N6141K2726j1778p116K1719J8151k7578o1976n9099o3184j01188j15100
42195A67927m7615M6210N3950l8852j24669j15165m0554J5290K2612J0656K843q272l4044o9392r6388r2992m8161
42178c96616J8037O2410O2937M3668L8779M4897L3727O479M916N5418J21952J37758Q2135N962k9150k3366k9700
42161B40243p4668j14210q5220J5098J23058J73056J46322O2890m2385j26805j51763j13052n2838k5327m8202q9692
42145a63495r8441m6913M2910J13128J20347P7480L6862L1531M7407N4268M2555J9915o639k5687j4184L9272J06798
42128C77114J37291J04686L0876l7891o7827n5263k3621p031k5728o8890j03346j02857o9771k8898j273J5166L6401
42111A09138O2898O7276K2784n6972j19429j20068o2799P578M6314M2009J7895L614M591M818N78J0898L8640M5743
42093A25506L008n0688m8502M099K4172l4277j11358j20276n4964J9466N0642L1564k1610p6885r1243n3929r492L767
42075d11000J4701O4866J16653R1342j587n4257o193O9066O7659n334n3858j8442O5666J26199J26900Q1832K6998
42058C01211j2034l3492m6195n0884m6089m2310m5827l5615R617O4376P8887N2195L3327L8455K4923k7429p1333
42041A91783p0510o2920q5967r2128j9497Q7357J18379N0765k6948m8750m2117m4426l5521J439K4380k485m0541
42024i7707l7772j7766l7523q1438p2986J1870J13653J81121K25086K53018K14887P2151j11846k13604j81112p9104
42008A40928K119M0939P0627J08766J35548J28308Q5384J7259n9991j18905j32143j01000n7640k9614j5230k238N914
41991B19031j549j9597l1295k9849k0715n721J7554M1540N1860M7543M0617K9731n570o7965j15232r8076k6685K7665
41973E3287J4131l3960m4071l399K5432l832n4753o4454l4546j8118l0577l0319N634M2323M6225L5775L8351L7680
41955a9191Q408k7817l2800j9108l0621o2165n7742M79N5779N6602L1641M7684J13475J62639J30938K6832q0117
41938C04916j28310j12951o8933j9771L6117Q8127R6129L8142m5135q9395q0586n3464k5552J9412P7549J06337Q3577
41921B26209M4311K9726L1946K2271O921J5153M5776O2588M0276j2107p0681j15462j29558j01827l9246K9561O6051
41904A51908M3417k6804q8990q8757l3312J8968L8916N9212J03107J24823P1220k5632q1838q0646r0474j48919
41888e3801j91670j37039j493J15662J45277J06196N7553L0920J8756N844o007k422K1812N1534O7248O9153P2973
41871C70496Q0072O7404J7816n0003r4946r4301o4127m1730n2003q6158j09518r4027m4281J2601N6957Q2590P8469
41854C5311L2156l8851q5593p8213l9304m931K7081P8086J33754J52511J28599J01303Q9024N9730n883o2805n7028
41837D64947p835J3716k1809p7425j14630j31576j27931q5633j2062M0594L5967L758n977R179K1564L3185O6618
41820A04650J09522J21640R4625N4611O430o6868j41216j54668j00554n5066o9198r0091m9533J5461Q808p9028
41804b90475j53662j48074r5472n1138j1950M4498R3419R1953M9911J9945K3982L2215J9420O443K7484P4834R8924
41787a67743O4734n970n9795p1851o0082l7943J2412R1759J39201R0711k1947q9167n7471O616J5950k2561l7558p00
41769b11405N1761Q5320R6906Q2265K8921m7658j04969j24825j26776j16953o4621M2280J48735J77938J17640L4631
41753F9190K074K8234N9899M7445r43l4035k3032N778J3951L374j168j952j8608l8119k7919m183k7226j03906j51571
41734b02717j03021l404N0033L2337k177j3530j2087r214L800K0971K0783J0567K0469M1561K4431m0310r4162r3021
41716c48691o6036n3036l1131M1440J40388J95098J79854J31919Q5864M2172R46k5443m3976p9143j23193j29665
41700h2633p8098q430L5135O0588R4579J20569R6397K4442m0087n7602m6969m7496o5843p9296p1683m2831N877O9392
41682a13989J22889J31537Q6406J7670l6047o0047n8342l3016J2503N7890P5979O0373K8222l627k7634l1873l290
41665B25604M4848P1692N3434J4182n219M473K2986L6366M3407L3614p866o6179r6067p3252k9446j5204l5349m4246
41647A77778j0311L4781L1740k6784p9313p1538k5839n925k6303l9145j3203K2293L3104L3754M8943N8660L1743
41630A74435j0303k0464n642j7241n9446o9910j3214O0401Q1982M7226l693n4120j11774j58715j48278o0732O0357
41613c09131J36411J17983L1218l7474k2166N0578R1587N5484j3225m9473m2586k0094K30N680k5831q7414j19381
41596b37604p7641m865K4030J0325J8090N8951O8711J5868m1254m3346j6208k0795o1925r5917r5900o2743l15P1865
41578d90673J06542Q0365L7378K9574L6129M654m4797l8646K2638M5254j4685o9033j9121J01093J77752J73546
41562A37970J48233J40168J15499M8734k1723n2852n8816p5483j00196j03517p5616k9701K0439N9644O7444M0338
41546B60565K119k6983n0011o4417m6357N242M0895J9697k8312m7141m0970n5581q4576o6560R546O5016L5484l4434
41528a06778m9099J3184Q0499Q2483K4136l9729p2844q1305p9033n4377P214P3766Q0442J7225l4016K412Q5937
41511d9883J10555N3754k350p159j3140p3681j46770j60856j18976o9917k0408N0168J18335J37167J14261R8086
41495A9186R2880N4860k5972j04178j44800j51945j25976n5658L1643P3392N2257K3502L6220P2494R0956Q5792P0641
41478I5294M2779j357m4338p1077q6825q7384m4476M8339J44560J91067J79097J22528K4014r4400j62236j23806
41462A31779j9114N3565N2903K0231q911n5212j32887j91003j65516o5539L7011R4977J22471J42587J42356J04450
41446B64148N3866L3039L8409K3460k7027o6973n6747k2764r869n475L1155P8907O5590j9263r0861q2340l4553k6009
41428A46693n9389p7196n9990m2042l9251k5616J1701M7463O2433O7264O6095L9777r573l4356L517P4926J13369
41411B85825R0946L7650n827k5494k5589j1736M915M063k5002o3241p2946l3921L6323J01351J36906J34462Q4470
41394F53155j6374j32213j92054j59759q9631p3681j26309j57662q4902N6871J50166J31351N3617R007K4128N6135
41378A01845O5599N5087L9895J8801j0133k9713k2955j290O412j1969m2756o4141n8902k1634K5341L5199j2463o7303
41360D920n2626L6040J12127R7660J3407n4892n6763j4196K4703L5431K3575P995J519l374k4380n5372n8926j2879
41342B3969N0413P7771N8654K7563J1294O200N754J5345L1409L4379J3586k1993o1890r7633j05414o1222J2339N0392
41324G0916K2364k5414l4132j2019q664k9326k7211J8739O9322Q4334P2542N6098K3214m2965j12256j32456j00138
41307a07052o0944l7660p554L3999M2239m451m3843k473R0903J32129Q4185K4916K8776O4201N5768Q89l9192m1462
41289B13374m5443p3797r0523o0851p698K2805K2661J6472J3338o90k5884l6101j3723K1442L5152K3533J5735K7494
41271E7296L2598R53m8263o6024m8407n0966j05507j58867j34567l3908O7994J14590J10864Q1860M1507Q054k092
41254a32885j0780n7479j21527j20873k6586P2063P2730l528m3474Q166R4136J37547J25759Q7314M1551J052j5470
41237A07716o890k645k4531n3912n9892m0931j3217K3226P2771J07626Q2122o218r7557j30198j06455q0342q5090
41220c14417r2547n2956L6917J23621J56928J40938J11658Q1402L4996k3427n7951m9848k7449k3026k5449o873K4079
41203C6596L5402K6394K4434K8331L556n2802q8378o2998m300L3144L3287J1906k3290o2309o6523o343Q0141J14384
41185F0632O6690k0626r7264j45210j52065j01554j5155M4291M3788J9008J0792K216l6861p4956m8224M3342J22818
41168b78338J27786P4711K0624n019j1720j4279j0422J1495N0771Q2316P4728K7561k2025m3224m7827o3712q8348
41151a14922r6590q3455o5967m7237j3448L1851O3366O8778N8222L7293N913j1318K2382R3392J26573O7691m7202
41134I5322j30581j30418n7390M4779J22299J29033O6640J091n74M6671N7824k0556j46792k29470k14262j19198q441
41117d94023N3931M2137j6149o2552n6566n990M8280P1966O2938M6537N0117P7640J06496J11408Q9709N8621L1881
41100B16381R540r105j5163J44L2155O4759P9847O0794j166q8991j54923j56805j06582o3237o4057q1598o9563l1600
41082c79170o948L539M4153J20598J60742J01515j6364r0471p9042l3005j1655j6867j8785j287L5532Q2338J11575
41065F398R1767K9993k4931l8097k4377j6744k5877m5450o8851q2584o8510k9459J1291M5471Q2048J06899Q9026
41048C8013M5542M0907Q5017R6040K2863n7578m9523M138j5130r9887j05948L0802J84350K06810J14841K9246r1
41031E70412j2359k2185L066N3684O1542L131n1848l7139J3282J4584m8657j01802p8796l829M0812J1408m9548o3124
41013C02634m290O6418O9100j918o8493o2011q665M508n5038j18164j00593j0793O1983N7342L855l3293k6536P946
40995H3992M3571N6009K8663k2748m9702k6736Q784O906k2503l1504j5503j7017m5299n1996q765M3580N8174N1710
40977H9616O7792J01003J05601O5016Q275l6965o8219q5220q0402o1321n4390p2871r7044r4697n1783J7205P7424
40960a70980R4953O5154J8419j5634m2932q2932j17099r2302Q704J21695J50657O2964p5399j59736j37467m3530
40944d15465M5234Q3868Q6511Q9146J01905J05563Q2480L6417j3603m6052m6397j7640J6179K5827L08m5267q0049
40927H965p6373l3587Q838N7o2631j17792j06715m5198o39m845k3795j5332K0127N8232Q5235R2841O8154J8358j3586
40908a39686J0133P3448J24610J36838J26022J13505J00184Q0081N2916J5039l9961j01742j44344j57707j57543
40893I1793j49392j06614j2701Q7702J16846M9022n9293j34198j54545j41907j07409m3329L8397R5938J00884P1237
40877b57569M3809K6644k53m1203o5378m1816J8846P3012R0641P6263M0458k6196j26018k12162k14049j21346j0891
40860g47208M0736M9027Q4780J58893K00091J59676Q4908N3347P2070Q6366O5550L1361P799j0991l4577n2970n3593
40843A95265m0337k5672j7877j8776k1528j4736k314m923j8488O341R6930J81313J41634l6406k21236k74036j88068
40826b62914n8067M3457J09372J49515J60940J42732R7593K3003o3730j05826o1371K6702O7633L7242L999K4348
40810C34628O3972N6151k741o0030q3418q4123p4494m9458j6047k462j9003l5501k1049Q596J0086k4521n3479m5795
40792i8688k8409m3265p4050o2237j249L8200Q912l1820K600R7200J46953R7512Q153m0651l8458j3811K6384P5138
40774F8414Q9149L9111k6561l1617K1570N3233J5906n1841r2414r7688q6773n8955m564O1295J08024J21836J09444
40757B37569Q3095N8583N1843N7250M3797m547n6436o6335l2951J982R920M05j4190m4351r2338j21112q9615j3724
40739H845M1704L9915J3790J4682M5008O8325O8070N8982M5549J1830l7544o7273o4490o5247r5456j17633q2487
40722a13430j3447J5238j7369m9900k5829L6574Q1653Q4941N9578K6145K483k854j0796n6019j23761j37723n5734
40705c00250M8376N7212m0524j29667j09694o291Q1389J01903Q3486P2448Q2678J00245J04205P9611L2879m128o837
40688B47041L598j9130p7531j10450o8250J0705L7171j5299p3394n9472R189N0433K6947j7129k6791l90K8799L7870
40670a6083J9835k4528p1322p4352j6734N2564O9421L3706J047j04J220j9126l3217o725L8431M7470Q265l4324m2821
40651f7377l2401l5713m7376l3338R945L6969Q951n0762q1932o3421l6804m5890p7866q6353n7669k4394j3052n718
40633g04201L2829J04440J69424J84645J39992N9002k6155r3847j31670j30628r3897m6005j3410Q933N1337J18886
40617c70325J69363J62365J11133N7321J1125m2969q7495p1896R513Q2277P0824q664o8848n4141Q412N7518O5249
40600A00762M6532K3154j637l3166o1226n8530j2872M3921N7886J2682m6650o2376k6414J9146L4406J8092l161n479
40582D5070J1817K5136R207k9258m9400k5216J1714N786m5077p7119m1784K7805N9498L5785Q976K1635M7251K9963
40564G1789l8348j07269j26870r3577l8207Q023K8620K3877J2018J5497L3693M1120K5828J5122M1722R1731J11020
40547A15789O7230j0358n7362l3230M2123J01937R3493L7233O514K8799L7725l0412j17064r4069N5431J89161J79624
40530F12564O8512j1774j4824J059m691q431M137N411j4358k8647m0814r6176j89248k27866j48898j8846M7829L4345
40512c0716J3366J7947O703l7339n5335L497J01402J58680J47845J03211O0090K2596j9060p0958j31133j80569
40496A10227j85754j33539n8226j0037J753J1276M2555Q1133J06759J26478J53694J71097J42385O1043l3353r4811
40480D92680j13500j09701r6417o5023r136N2719Q9959Q9878O3519K5486j6399m9840n8143m6691n1762r5705j39465
40463c7541j13833q990R6805J21697P3224K6149J9205J5003k9155r1371j17723j01867q8576r6388p9372O818J24916
40446b80999J81658J34916M2935p320M023K7715K0331j1190l5968l7816j9596N446J5646k777k8416j8048L3761P1642
40428I5943M2534l5499r6874j06023p7832l3749J7184N2861M2418m574l0236M541P0409J09835J04359P7856N3634
40411B86787L6250K2958P244k1342o1099r1716j01088j03309j08416r1721k4309P4886J47955J55695J03147J9733
40395B51655n3122o5323L938J02977J42221Q8560m202o9557r7005j09039j09313q9544o3695n5929o3849o5842n9400
40378c16469o1689p2516o6447l0900R204J8992k857j8925P887P1696J23028J17018O0795J558l0267m4470n2675l7375
40360c24412J6890Q3560J17185J05819P2201L4422j394j9302o713J1358k620l1123j0019P1639J30298R0097q723
40343C29163n7098j4900N3661P8216N9051L1210J412m4788r7458j17864p8503M104P3154P0881p245r5070j14946
40326G2980o0467K700K1135M253j9842n2370r3863j05390n1280L8803J00267J13513J03238P0870n727r9319j32370
40309i2869q0985k0356k2093n5124m4629O706K5009j8997o6512n3858R882O7151Q0121N6418K8408J9254J6813j6422
40291a62083q7793j39035j02805M886R0756R5824O0579N5245Q2207Q7037M6881M067Q003N2610Q4726O4009M713m2307
40273B07520m4085j1772K9846P4971J14019J01538J30j40617k07291j51839m9712N942J9183M6955Q2350O2829j2919
40256A27048n7580r529Q3404J27527Q8848J935r1077j67167k05139j84273j07320p004P4334J08322R5090O4398N2233
40239e950O4910P1957M0083l2494j14554j60813j36658n0347L4980N2804J1004j2186K9741Q6807Q3935K9320J845
40222e616L8173Q3590O8367n777p8838j08128j04028r6838q8012m3753N9854J86912K52561K01262O9143m9055r1406
40205B88411o9207k4137K1027N7708O6912K8226n0381j28801j64986j46497r5548m5849j3651O678J9201J2789j7387
40188b55492m9145n6492m5339l9032l2342N175P1694J13881Q8305K0992j8785N161O2342R1276N7745j5567p1893
40171f7516q0684p0886q3770r8830m8204Q0208J96718K02978J06355M860k5782M569L7225K7845k3538p5178p7521
40154H849k7505J7829N186m9115q4672p3862l7046P909O5319J27724J63915J53463J05032L6374l4881q2514r2202
40137B09803r2649j24178j71504j76363j27964q4267p7686n8384K2540J20552J49406R9777M5062L7026N0613L6802
40121a41414j4969p7927j16679j03793l7832M0353P0800L0205m3739q8069o6228J0995R6529J36116J06247L5424
40105a63981j9692k6534j472J8946K3747L5317O9321R7178P0279q662o4427l4292L7741M1505n4484j50306j38710
40088b68526l9593L6136K9383j6434l7983k7555j2568l910P793K6041M3062N4407O4575P7001Q3389O8359L0633n036
40070A09174j2624j379o376l8226o7750o9027m7612j3609L5849Q5042R1211M2990p336j1052Q424j178l9245o4746
40052g470o3034m3137O170R0866J59606J50556Q4751M1477M3970M5835L1300L9834P2710O6129l796o9147p0792l9783
40034E36045k5882j2849K9762O6344M1043l1105q4995r1856o9026l2007N814J1676k8561p0010o1942k2772p620k1227
40016A30832k2503P70K4991M6850P9624R7536N4287l3414q6204o5840k3661k2792o0531r3563r8423p8824m6342k0064
39998b17271j8387k8780r889N5891J32601J69153J47093P9246j1233r2138j28710j14575q1593n9568m1220o133L6940
39981a88573N7925M7400K3294m877m9872j09736j39273r1063J4223R0791P9785J4478l2544m1903m3970m2382p569
39964d23866M7908O0793J4998j8507J3945O5956P2635N6472P1606Q8859L7553n7233q5383p798R3278J39474J41634
39947C12324J29571Q6412O224n4633m7666n766J0225j017j488J1310N610k6223n5373n2806j1576M7019P0484J4625
39929D37256q5543j26802o1266K9814L6513l8136r5506p7483k0657J8463L0888L8856N8635R1780J22077J17706O4734
39912E41329m720m7565o4156q1513r3128o5706q498J8190j5345o1694o2374k9434k4178o7968j09341q5618J671Q3885
39894a76163R3568K9131m9599q2135n3649J1180P4678R9374O3586j1200o3916n0405R694N9821O8527M4827O496l5961
39876C7854o5469n6459K129Q8820J54574J48488O0148n3772j11384r3466o2916p3295r2713n9164J8902P3273P1909
39859a2541M5657K4125N202p369K446J7495l671m8721m4228L4086R9766O1937m5338j06832q0022l3596k8872l4861
39841a55337K941O1423O6688M931n4220n8463m4958p2826j19258j04632j5195O7451Q1972O9110R2008J29003J16062
39824F6700O3583M6544Q2977J05741P3081L1510L4412O2441P0180N9705N5560M6921J1309l0969m1523k6351k1809
39807F90012k9100j4606K6972N9365O1143N1427M5811K4337l4860j13672j65524j57286r2606r495L9864K8099j5075
39790C94806k4946K8953J05749J37810J02171L2007l3647q5832j26469j39964j08593m6494R051M2002O7574R1778
39774D45956R1149N0489o682n0074p9865j03259j02512o7111l2187l2946m0798n913N2072O9127M5009L8301M7034
39757C17790j318j07642j59875r9257k5078m1728r2629o6295L764o519r0677j04967M502J14856J11910L7912r095
39740b14346j7048k1810j1730L7863Q7068P4014O963n3135p8487q4380p4177l0172N0473J50599K49286L12302K92944
39723F76227J82153L7639p0004j17660j12908o1599N814K3089l3650q9300n9291K7485O6742K5239k7287l1646q451
39706D32592P88n424j1385j4991j1913O282J9184j2144q1364j26603j05800m1164L1554J09865J88555K22338J72855
39689G73225O9761j7618n7894p4571r6099j20226j25869r8722m3904J6581O1642Q7861R8177P8768J2905p8312j39330
39672C46375j37795r4901m7454p825K3529L5542J9675j4301n2272q5131r3841n5839J5868P0688P8417N9533L8751
39655I9019P119m0386o8655m4442J4866P2141J17767J43918J09995m318j34057j83536j40475p9317n5621n3273l5166
39638b74421R145O8788J14411R9270J2544p5082q4040l8178k4535m0850J1825J51840K43457J74634K1065o0824m1164
39621B67885j2921k4466l3592j9844k9309q2313j24072j03737l9041K7909Q1570J09844Q7098K0064l3952l4818r409
39604D6896J810R438M2123Q1253Q2566M7577K1121J8880L603n4449j25941j48984r2617J4428J07054J31456Q1159
39587B67373l897p0219q3081l9926K6465N9985K5733m5956q4712o1202j5227R438J7720K3428K249o4252j29000
39570a65081j25705o0068N208M4458Q0299J06827Q4843L0125K1123P9128J17871O7731j8045m9553l2908l2754m8377
39553A05122k7415J9662K5852r150o985N3820R0217M8983n33K3768Q3138P7052o581q3743r5445n8520l907N8347
39535B93682J02250Q3929N646o6625p9849n3414l6110l5957k4344J1387N1412O9874N4580Q229n0123r1581j04123
39518A38863j07496j23722j38737j16529n2557J2186M2162N1962P8842J21694J34759Q6330J712o4344q2819o4501
39502h2195l3119m469J4095K4110L6660N8324P8171Q2033P3456O1910L7532j5225p8896j07333p7445j4232M1448
39485I4825O7624O2159L9071K9342N2011P6304N0391k1317p5223q1198q3223j12143j15656l6322Q1469J36366J03405
39468B67885N0890K9292J4452k7350q0741j12783j18687j11575r7475p7177m9691q883L7888N3296J0051n4969p0792
39451c46369k0104M7968R6832J41032J90854K12712J75688R8068J7418n3396j12746j42003j21372n9331J0133M7069
39435A82453K3931m6535j02720r1212l3947L487P447K2541N8159O2349J5882j9257Q740N9019N7322p129q8732j45058
39417c3260j46749p7047K8804Q9806P7256O2276J12549J89029K04637J38500K8405r8030k07354k26770j24225Q565
39401B6392N0376P415j8695K526O169l2033n4205l3801k0812m0017m3412p318J3159k1498o3012n1161K057N1179
39383b26691P8081P0327O293q5984j19607n8452K1186L9867K8711O1392J22211J29639O6796L846o503J3493K0533
39366A65138Q195m76J6404O0444J00981R0885J8501o9572j20383j30004j23467j05602o3020O309R2323J76964K18811
39349C42431J76032P7571K1717N4149R4195M3782p4450j62797j93846k17919k45620k25012j41552m6969K8508J03489
39333c66291J61401J34802K1412o8954n0415K0675L6466m037j1461M6113R7346P2259j3176q9872j05888n4807K2934
39316a51493N6358L083q9954j18570l5097R5494J71520J60065J03487M8047N486k4819l9161m5063o0451p9999o8977
39299g0044j3781M3106M9370J0886k0596k0586j2505j2324J664M1747P1112M6196k1318p6869q5579n6138j3887K1995
39281a17551M0681M3641M3758M4975L3634P689k245L2068R1127J23882J02060L8064l5792q2192p5618l9274m2760
39264B06147j17175j90732j65111m6315O3443J02387J04204J03225O8265k2709j09226j16153n6339l855Q763P049
39248a64132Q354M123M717L8772R2693J01288K6701q2965j39599j04779j7751N3417P3609N9103M5915M5394L7280
39231H2140P413k3154k1406J4640N3388O5159M4451K724m0508n9391l5824J7504N7592M5405j6526p9098q4056j8401
39213A2052O7751J11051J01311P5817M8551j3033j18842k07027k10670j48943r8718q6627o5592j43Q2410J41958
39197c08694J74879J87180J63502R9758L5754J7152M2794P7796R8047R3190M9718k9586j03680j30423j18960j09002
39181B39425j05657p8440k6679K224k0396n6621m9986P88M4065L9000o554n3663o5752k8646L9887R5233R6777M5032
39163A10037j6351m2117k7736o671p761k3350k4478j19L1672M9922N0385L3588n995o2329j04972j05815p0282k3819
39145b46191J9401N0132M4089r902o5670n1645L8584J26423J36788P2300j6237q9879j23950r5004j2919O0255P0259
39128i3166L2571m560l3193o9380q6118l4325O6382J26974J00607L8457P066K547j5173m5481n1823j9610L1015P4807
39110B7597R1403O3232j191n3358m8771n54L8093L8643J7277m072k5389n2534p6225p5608l4801L9219J04800J05714
39092A53475K6612p6716j25340r5441l2373P825J0101l025l551J6200L4304J8241l0931o2971l3540L0841N8034K5254
39074h3001r259J1908O6102Q6103N3830J7149J4109J9848j0598o8944r3710m5844L6305P1829K1438p4368j39886
39057a26989j35634q2945l0256o819p185j0063l693R973L0276O2607J00712J18786J00071O4713M4351L3856J461
39040A63222m9116o7440k8143K3426L1956J0017J0458L8021M1930j68m1096k9161K0370M8957L2731P263J4714M6329
39022B74270N0521j660o9368p7811p512P0644O8556k1802j25673j71558j53782j12545q3423p6719q1770p3652k8492
39005f21776N1540J31191J67968J45716Q4958K4862q699k3204m2065o2482m6624K8552J26167J78531J56045Q6011
38989C76691J1077m3237o4755n3146k9254j8307j6731k421J6828J125n6599r6739n8219L7309R9767O9307k2461r4305
38971E5930j00237o0827j8733J6228O2420J15077J29901P6152j3743p5421q3426o1456k9791J7122P3050J00203P2678
38954B75127J6172k1585k6334k0411j9915j3906J1279M5558O4687O0931N1080M7046K9931k4711r6045j23914q2821
38937A72169k0540N807M652J8636L9208J1132p5586j54130j60572j04370l9858k863M905O34J0137M5135P5074N2252
38919a18178j9419p5917p3920m3654l4543m3808l3799Q625O6603J22437J54367J27627L4953o4888r3997m2274K6131
38902a03654N3173M1951K9127L3988M6946M9220L2643P993n091l949j1776m5870q1956p0804K849R0168J18213O1710
38884B44881k8117p1598l8902K7507P0788Q0500P9377P2630M6632Q664j4104j8808l1893o2648q8743r7422j03728
38867G5016j15277j15430r4572o2559k0594L7398Q5241P7461K1184j7128j405L1392M6467O7735J16918J55005J39604
38850D26456R2911N6602K3057l0355q0782r5330q7543p5843k8127P8855J81430J90530J06747J424q5088j46203
38834E28741j48148o9970J4742N944p5089j12423p2488l9163n4550m8287K6699R9764R4551M9199M8177R7517J39975
38817D85191J46008J24779Q2822K8881j0131k2446l1403n0419n6992m0984l1705m4505n1842m2100m9690q5636r9769
38800B50059o1951j8898j2355m484M5357R1358P3948K9234K7805M2899j0207j18293j64971r2578K5076R2069R0281
38783B84349M7109j6925p2325p7739l4930p56j2236m0265m2858k1240L793K9434N4613O2067M5982K6795J4471q862
38765B40477m4443n3600j4827K8313J9078l4386p6768q7468r7008j19934j15960m1437Q0820J66615J46682L2297
38749B8451r4465j52499j22758m4136L4374Q4544R6222P2938L5079M780k0936o2500j14397j31727p7336L1797J39110
38732b93459J94754J76621R1345j7771q2578o9654k6964l5599j08615j70502j48665n2102N8869J44258J91481J82274
38716C3693J07406Q363m8247m7937l6632m2200l8278p898J2881k177j1581K8870P8204O0861j0406m0525J3750Q8169
38698A46316J06831O7747Q404n0997r6953j12179j11443j33823j64286j27371q605Q6434O7315n891j3829M0413N1618
38681b50299n634l8690M765N8194O0185N1090P6726Q3989P659r4636j00682N14Q8170P3795L293l1466j4192O659K152
38662a8408j6717l8295n7993n3281J198Q2858J22934Q1598k80m6180k5528L1455Q5149J19949J27666R3325J6791
38645E06241o8080j13895r6144k6949N5709J09288J12459P6873K5006l8539j13749j71313j70562j19052p2968n8364
38629a64039l3323M0278J26145J58777J31090Q8126N3166J2599l5740p1646q8432r2943p2361j1437N6503P2251L5431
38612B04445R663K2978K1166m3654j28568j54627j14055o9043n8963n9465l4611J1473M6108M5208Q242m6095q8905
38595d28703r5630o0908R60O9133J27034J62230J60987J10021J4261q4598j25750q5159m721N5156Q2284J04945
38579A542J28578J24318Q7242N9199O7866P8339L9197m5807j25499j66044j75865j73941j63104j34921q1121k619
38563d82640P7101J16970R8530N5027L6764N0615N9198M0847K1435L3900O7563P7286L4541m5271j21594j62202
38547d1930j60555j32447r8433o2819j1080O1485J20412J13983L9625l0867k1978N6272J22722J28322J03149Q7521
38531B73382O6222J0236n4683p8015o5250o8947j00419j08403n8740J6294P0104R7864J11122R5981L8202l1274n7339
38514A56337k4860K5023M4590K9238J4581L2050P1879R4901Q0745M7295J2530l3860r1009j10580n5614K0379K3199
38497C36824m9140r6529n9317M791K2233O255J278o840m5761o9825j0868J03125J67526J40028Q3101N6185L6753
38480F19819k2319j09612j65985j51755q0211r88M0511M2500M4540O9787Q4688M7079k1645n6704l6432k402O599o673
38462C00797k9446n9351q0995o9571l6093k6315n4497p9212o7851m4346m3560n5011m7323k0696K136J8156M2784
38445c50394P7891J10127J33182J47579J44932J13197N5495p584m8858m5031M896O2595P4392K9089k7127n0783n5446
38428C68152q1658j28699j48118j05942k9068J8707Q53n2828p1303j2441R2391J71835J86561J52160R9516M3568n189
38411D98497l1517l3201k5333j6381l454L239j4780m2670l4965J6393N3913K6908l9086q2196q7096q6106r6579
38394E586j02694r2730p4284n2347k3246R909M0129O9432R5652R6989N7435j282m1244n3742n6687n7954n1010l6411
38376b68499j8096Q479L3761K1761l4886o8023m571J19237J80859J22698J9118l1426k1760n330j555J2230L9194
38359A03191M7383J5031m1146q4846q8852m8405J8151Q1421J17389J09914N0653l8870r5026o4043K6121Q6167P1098
38342B65331K4024k456j8396n6087j02997j23705j18584j11494j01083p2943m2793l6852l9738j1752M7292R9297
38326d02936J28997J52690J64408J29738N0314j4726j9238J3034K8344J1996q316p669J1407K7298J7563j9527n4630
38309B08747n5331k9236j6270l1268m2320j9642K1468M5157L8646J1849k3347n0347m5690p110L0348L1533L102k3086
38291D7203l2449k7581l885L7116N9124K0842n7591r8719n9758R440K8294j4619n6831m9821j5893p526l7851p3029
38273c33534p7778m2970K4540J08076J71381J74192J18470N8444M0441M8028L2568j7038o8717j00751j18707j17474
38257a00829p2727J0396P4931O5328j4427j09429j60061j32588l7065O6896J13013R8665Q4043J03588J19103R1206
38241B00043N0708M6283N6408K1525n0103p9233k5751N6832R3176O5248L902n3496p5552m6519R294L9432K0758j6708
38223C16247l6306l8471m3723n8769p5546q1018n7354L53N7120O2485J5638k9792m1764m7515o9595p1802j3802P4322
38205a39292J24098J16882R2901Q3614P8959N6983R275n8194j18982j32375q9084l6727k3565l4983k9818j7676l7504
38188a55488o9761m6869L4897Q7567M8467l5429p9474o4845k5799J6173M8873L9870k1989p6312m9020M4569J13321
38171a91249J07596O6742M2424L1551O513l5159p8628j12615j17346o7928J8992P4150N1575m598j0887M8577J08490
38154f1800J15843R3791R4218J17627J11536M2218n6570j16533j07786o6029m3584m6802m0462r821J1732p378m3349
38137a3149m2814O342N8214O3627J8769m3550q9585j05244r8904r2011r4849q9097m8858K0367Q2822J15511J27772
38120b24637J31469J17937Q0761L8927J4050j305k8348o2561p2364l7947K3583P2755P9181M3025n328l0550k4350
38103A14298q688o805k3328n3684r1208j16675j06506o7927m0825m4081m7299k2739O423J0451J6115O6663J34055
38086b81760J41470P9673L0357M7538Q0450N8544J19k2804O252L9354M9443N8398P4869O4729R289m9663n7487j6257
38068C12514K3857K8183K605l7104q6568j34609j51222j15854m7333J3278M5250N7754O3053O2262N7854N6061N1616
38051B01597L4576J8123K7634M9989L4973k5238o2058k3155L8459L3406k9312n6152j5012J9373j0705n8215n4339
38034A23944j3941J938j5415k3425j655K9719M7476L8014p764p0398r3894m6147K9197O1281L3138k2184p4371r4621
38016i9108l8571R4819K06155J82655M6741o1216o2696k3509k8311n4972l3307K8144M7878j4869j08315j47907r5085
37999a61474J7461J13327J31381P5929L458m3479o7761p9864o7847k8284O464M622k3268m6545n4923m8164j2987
37982b81954N0156R7275Q2759K3131k0829k0735j700Q851J2012J3488P903k017j280J3139L0726N2954Q5756J01005
37964B50640N0369o0353j52034j62022j21650j03280j15274j01942l9493K4531M0481J9231K263N171K0956N2076
37948c90330J01464J44663J47683J11373O8747L7577M047m2143q5121j05774j01631o9649M453J14041K04291K08322
37932C52013J14519j7054j07578j21490q2903m5531m6654p8634r9818p4950n760P4404J28216J38020J13680P8976
37916C19456M1195k0581j18687k14121k41735j84611r3057k0518K4076M6874L8755O844n260K6422O2293N9929M7843
37899b24883P8150J27550J15678J6839j12451k14806k69558k47145j14599Q0724K10761K02588J20037O3236M2815
37884a25064J1922k7530k7846J8416O6283Q5721Q3479O1659J0054n5315r2622q2840m5211l931K7789L6191J9152Q172
37866c1521L7583R1402J21126J13450R1202M8419m7879j69677k12647j21684J6473O8720J5513m6765m4457K744M8858
37849a9140Q3303R8999O5133j7182p4941l9788N4226J06085P4031J0207l2308o2202r4050r0288j4081R0782J31696
37832B70482P4461k3656q5722q1900k7140M3949Q9180Q2551M3338J6111R877j5728q8144j71073j97779j42401m3918
37815b47512L1116M4182J7145J1879O1430J24627J34572Q7152M0764K2704j1303r4606j72426j58162m8545O3327
37799i3656Q7957K0987p2896j27529j20568p1864j1186M7926R9778J25740J07662O0728K2586O583Q81J5789P7683
37782A76601J55339J54845L7191j06054j54821j05215m8122k9933j1783L7633Q7253J01583R2355Q3856P1451M2825
37766E85004O856k4042n4093q5785j03716r5135o7973l4003Q574O1807J09790J23897Q1592j3402j14609j49523q4779
37749A50460K5009Q2689M6780l8290j03711j13561o4586K2487R4876R3556J8185n8063o4859j0003M0463L9595m257
37732A56770n4699q6221r6410r3838q0639n1030r096K4164L5429L9377N4479O9539N9883K7006q743m6031r4172
37715a54232j29493j03862o209J19311K21223K70341K44142J37431L752p0724o5012m7892p3569j04483q4020l8291
37699A18413l8250q2422q7053L0J24555J80126J11984l6996j61829j77724q8771K2613Q2193Q6949P3533N5236K1956
37682B04543j9802m8973o4397q0806r4151q3497m4756O776O0568J05008J08080M8466l4529p0081m4839j6555k3494
37665i2439l1864n538K0458r050p2031q6918k6964M1001N0377J8852N013J6785J2427j9501l4373l78M6820M8430Q09
37646a18084m2402m0295r577M499j5076l5395m395Q9977J85758J91292Q4508m8047r9990o0130m269J4858J7838L5668
37628A46738N5847N8348N6311O0630M0943k9712j14294j46174j15295p4018n8208m7986j8260J1683O254k7548l7358
37611b32099J5015J02820J53065J19514K9926m9946r0630j13258j32985j27123p7213p687M7610R0796J36750J65897
37595C0452J41343O2950l2405j15366j71613j76702j13167j6573M2645L8457J3620J1789K3867K2161J1200J3442
37579b13900K9206M3389N7048Q0819J02558Q9529K8268n2256j01546q7464k0623N3635R2813R4166Q9448R8517R8223
37562D81830M9071n0559j48035j79163j28145m5673k466j8142m1522j3943N3563Q9693N5584P81J220N6268Q5240
37545B45602L5131m2111n1347K1373Q7624O9290n801n0383l1706O013K0345J6137M683k3749n6779m2043L7086J04158
37527C43523O9947m5389j30174j17652m8012Q024K6588J5995j6151m9582n1437k4505j6132m3937n5221q179M4753
37510i7541K1945n6918q1604l644R1098R7092K5148k5773l528M6513O1277L8352J5437P432k604k2563l4470k4978
37492E0671j0962j9199m9535p3695p0763n1861m3614n3933o3433n1106k0028R144K4948L3000L6517K6597L726p659
37474c31185J0209L2119J5702l4797o5187m4449n773J0255J9376N9101J11883J16161N5097j4985m1311l9493n4090
37457b01367q3757q3730l4338K7683N5174M6049L6183M6475N8841N1032L3851L0195K9195j287n2257o7331k1576
37440a30965L5249N2647N7518R9603J44993J03013l5085j59647j74422j05196l8672m088L2827R0631J41759J51778
37424B61943J12123M2109j5093j4909L9933Q7343P1986R437m3979o6618q0388r7855j01991p6722k4932M0637R5627
37407B38651J03907N5861j481j4301L478o469m8426n4700J5172J08919J46665J11671M2182l1386r8150j39034j33976
37390B98583r2066m2558j539K6306K5084j7294p4081r4607o0812l418M1865O6453P0486M3177j8084q7093j28148
37373d7746j28309r7645m8126J0575N9779P6102N4088J6170o446p80K2503M8114P4051J05322J33360J34495R6626
37356E02133L8409r651l7064n2613n8178m4965j8092j776q207j9489j6101q823k2531n6696q2766p8491m6915k263
37338b4079M3840P7903Q3828N7779J6748j3683j6187J1202N1721P0777L6989m3247j17748j28609o4023L2332J00713
37321A76256J09160O2165j9473j12361j83795j91919j18637n312O7921N6062p856n6642o2281m7171l5845k4776l21
37304c94825L7732P5479R1133O4809M272m2206k8685K8555O4325M5740Q386m95K0843M9602Q1425J18620J39819
37287C64529J19548O6933J4482k1591m2619m3753k3542q485k9700p3990r2437o4268k2284m650p138J866L5072O8820
37269B36793O5885J3474n4299p7465k9411M7095P9820M3190k0516n5185m8790l3614m1496o5418o4658j2698O0754
37252D3461R2927O0476P475j2282N217L3039O1226R1488J08498R8453P8787O6848L7339l7119j17202j31459p9885
37235D07287l9520n6501r4643j08512j02941q9365m5010L7580J06603J08899O3008K9957L3893N1166N8445N4167
37219D14513M6081M5192N5501N0150j1451j15689j81390j54795q4537n2474n8537l5536L5983R4442Q5880L1363j1515
37202A53181j5351M721J5880o830n5519q4796n7397L740L8056K5205P088K2783N5173O1979L4533J106j4853j7084
37184A71615k0280k7910l1318k6302k4578m2241p5634r7908q5535m1649Q994L6684J8984l9445q9671o9126K8866
37167d06454J36919J85161J67332J13711L4169o6446j41336j31876m7332L4788N7748L5195N623j7071l0121k1131
37151i1121R321L1394K1662j478l498J5849K1439r580n6040p4415m8167r862o555m2648p3153o3494l4881k7366l6654
37132d79247k4073J7673M9920M6269K8600K7933L7140K5558j4346n5495o7223m4538m020M2995J00204J57301J66903
37115A1554R1522k0261n8066J6273J08189J14508O0414L9072N3450K1151o9799j22509p8575m585J9157J0970K4818
37098B17283M7253L5047L072n649j498k3068n9265p3011p9539j18654j60787j27742j5232Q4113R9886N8972J9698
37081i9121l335j6564q394K3017M2971K2423k0453n0622n8215m3460L464P0386J03989O9094N724j8817J292J7664
37063D1043J1507J2866L1847K9216j8551o9035o5383j1613L9113N5095N0315M6759M7879N2432O4172P5889O4635
37046D58186J7386m8902j01648j19317j02034o9658n3112o9091r2902p3534Q677J11729J73459J69668J14829K4946
37030C48682q7128j85526k20042j77162j00443m3458j5554J1725N4377Q9316Q1081K9383j7074m551O3046J18295
37014e5033J01426K7685l6083n3858n1612o5079q7952q8600n8183k1250m462q359j0603O179L1077L6906K0436J4678
36996c02687M4087Q2912Q5586M7607L039l1168o6701r8367r3171m0244K6362P1508R1739R2393P4017N8298P8054
36979A23264J12844Q6332k8217j45330j66090j04738n4156n0971m7541j0246K9558L7886K9651L0605L2548J6404r559
36962a17756k0539p302J7211K9485J0059l4495o4418m5846L520L5327L6017L7400N8206P3089N4097J1623k2057k6020
36944B7601J520L9832M2561k3962j20703j51438o8572O1892J30612J00585K5957k5056l2839k0456j5238k1319j9611
36927f8634K977K4872R590m0457p7042o6489k7582R924M8753R2799J06209N4923k7957p2699o5101n4484o5156n8331
36909b73885n695N1778O0187L2260K1259L4835K9154j0946l8879j5949K4623K0778k9256o1421l0855L2725O9364
36892h9923O1104L4995J2388j0231l1701l1948j327L8603O0150N9164M4531J6770j9469l5245j982O2252R8776P0609
36874C37516o0o4575r7286r8886p1918k0487L1386M8896K2949j7303l6662k8002q655L582l84k3830n9286q5488q5591
36855b54084o6355m4371j8405K1305N7062M9311q207o9108r2923r4840j04753j03923n2897L0067Q0063Q3221R8577
36838d90260J51140J65215O7194q1565j34908m6768O6064P4726m031n0409j1072L5765p968j29252k15955j84432
36822g96516o5733L9289O9299M8629L2422L3809K4394n666j9013K3919J07549J70205J69931J24831Q3086O8746P1381
36805A80562P8294R0540J00130P6537K058q7367j26611r5807m8423m8857r6722j33214j13910n1089J5997O6454R8980
36788i2448J06200P2691j19q3137j40432j53646j23868o2823P114N4992O4206N4851O4299R7696J16048Q7709L5187
36771A04520Q990K6480O2554R1228J00958P1330j5861j21276j51242o2454O3400J03516M2371k1018j8309J654l3398
36754B53443r4416q7540K024P4091M1976n4853j07000p6543l3723n3497j18950j50219j05482k3338L0447L2561J1249
36737d59770K796J2768J7259m879m2342n6735k4307L0156N5272L3967P938K8445R2009J41700J30716P0279J1922o036
36719D1158J1526L2831L6736L0786L2260L8794L1048O458q213P891L5300L4967m440o1694j18515j69659j94694
36702b17460j55682m7274O9740J12345N2546n8541j35564j21449k5257Q0425J11693N0041l2707m6002K2801J01388
36686b38957J18875P3223Q907m0051o3688n8232l0165j1801l6762q9114j05283m8897L3862O3364K6752l253L8677
36669c62543J26225J74569J41017O1613p189m7868p3201q8211q2754m8318J1768P5331R5982L1046j01188k13394
36653c07115k30992j70195j01620m9032K8227J47672K49842K60688J76722N8439l8795r6567j13832r3611n1033q219
36637c39421K5330N2837P1118O8474M4151J3379j3766m5991r2747j38676j48731j04434l0189K6529M4513M7827O5296
36620d54501Q2493N6567k0871r9051j16470o0286K7993R0547R3060M7705N927J0158M4880N6547K7269k705L11J3351
36602a97076j104l5955n8933o4476o3317m0682K5156J08801J48765J17012M4988j7142l6695m883N2968Q1536N2205
36585A11168P688M269K2999J082n4302o3982n666L9091R315l7884j6354N7730R4608N5726j9349q6541j27443j18164
36567a26009m0631O5712J22009R8777M4369R515j5502o2507j14617j12169l1225O6418Q3782k565j01590j04090j3815
36550b34138N9087M1790j8821m5321m1221n4133p0780k9740P1299J56913J73169J43569J08995O8205N850o2938
36534B71785j06999j10826p1704N311Q7855J20197P6811j924n0663m8002k8648l3921o5404q8550p4838l3790J652
36517a51658J5453J7293J3494m12r840J6507P0622R2813N2085k168j7764k6728q4975j57354j52262o4452P187j771
36499c83930m6375n7543k5543K9165R2771J30157R3150J876m8504j2051L9392K5560k7098m5481k9488l3274o4910
36482c62126q3709p4672n3269j3160O0592J35390J53552J09815N4389K6018K9950O4243J08654J04262J5766r1188
36466A84507j09883l6262K2823L128l2550k185O9518R2249L9146k6026l9769r319J4044K886k0120j6143K1193O0206
36448B17443P1959N8276L1495p443m9158o0893k7188J2037M512m3531p8294p0509l6107L792L5020L0065k6990r0079
36430b5593q2520M342R0809J03599M8359k4002p3995p8820l2269L3020O5034N7599N3479O3241L8496l8443r6857
36413A05479o6015K0442P0642N7854L6493N1355R0872J24811J33296R7475J2715q0150j21524j04703q4930j04060
36397B40052j39676j45693j13718p1765m1876k1951O93L6275Q8109J46103J84698J78723J26866N5655m665m6795
36381D71035q2176j10648j10265p0574k2048p006k5341l7354k2871o917j6821m4517o8345q4988r8511j01006q6810
36364e25163o4887l4519K7819J28032K20227K47317K05593J39050P9864K6433k6270o8691r1536r4009p7579n2350
36348C9331m2708n9283o9917l0647N1284J14649J12150N6972n959n0929q0145r9242j02293p9896l6958M15N703j4197
36330b91670k0113J1408N7149Q2109Q5944Q6372P4017K4911m6303q9038q1203n4747m4267m2889k7119J560K1557
36313b52322K0125N8k9214n3966o1827n4897m5406l2689j401M8421Q7418Q7626N6628K7168J6442N908l3606r5619
36295c11153j26504q1464P930N8116M1788K5395N9142Q1142O843j18429j58606q1354n766k0955o0211k2506O6563
36278f40029J05424P0387K2969j142j5516j4991K1089O1157M7040l858p929N2363Q7206K7149p5903j20626p8129J603
36260d61736O2835Q0357N5614J7887P273K6725L4355N828k8833l8182m1070o6335r3346q0966l5875l124K281R398
36242e46914L7988P0526Q3459P6164O0703M4716L2710L0971M5088P5510J11015J26587J03042N2524N337l0583o7726
36225C11117r2149o3185J7644Q1934P4122J8383l1733o7907j00740j01483m1591L3396M5798n583m9203m8946l5520
36208e5646k9349j3589R86l2372j07622j44316r6836j8081L1977P3647J43332K03094J92259J30229Q7892P8103N2269
36191D95977j294l0570k883M3906N2200P065o3115j13852j07036m2783K2250K0295n3684j37376j71148j44901p8818
36174c05767J828O3195P3781M2234J9415M0222P9583Q5613M5372q00p814K4136N1877L8679m846l7468m1311l9842
36156A28087n5779p4597o8595l9455j4979j6137m5139q8795j12636p4161K6696J26423J59519J27033P3756K0612
36140G1853l5212p2145n7036o710K0166N056o185K2414O3550O9184K9546k9974p7432q2529l1679M3951Q6097P4607
36122H7522M6534L6119L1395J0429j7027l2451m1823n6520o7510o6151o5208p2159o8335m3159k0501j7005k346N5758
36104c02438J26358J43003R0586K2226j0489o128J2011L3308N5887O8602N5523J1907n0641j10606j48942j61688
36088a71521j59231j49080j23657o9338J5626J10485J72597J59098P0546k9694o7547l4781J2193L2200M2145O8547
36072a21412R5926R0798N0482J929k9303l1497j1180P11k3854o1861n5799J173M0500J0041n3268q2859p0971m7224
36054b97668j0244N3332J09330J08214O6064M5364N7781N1974L093m9110o4407m6852r117N2418J21897J50657J11597
36037D54323L6677k2413m6015m6809m8235p3535j24310j60211j35523o6568k1300k4646j9233M9298J46080J86948
36021H4528J42156O1192N317r527l150P227K3558N2105P9243P1467J0804p4624j31852j34219r7439n0990j3866O617
36003B8547J5896K8884M3079K5969l7219r3147o5934L9945J28041J18985L5067m1774o2467m0727j8729k4577m6933
35986C2906m3840L729N2100M4216n598k7062jJ5367k4149p8169r0554o8844m8359k3662K8012Q8652J21517J27039
35968A03300J23399R4470J6666p5208j11122p8245l8994m7163q7230j08689q7256l9153J571R171j5062m5077n6879
35951d41501m5363j0751M6806J03755J16414P7742M1882N4643Q6127P7470K9913q157k5635n3550q6291o7342K4218
35934g9620J26347J61988J17458L1276n8045j24918j46180j10357l0730O1911J30421J41400R3890M1061M8447J17335
35918E21684J77417J66132Q7074j7792j15497j82341j93256j44039o8047r335Q686j8202p8781j34339j35464p5368
35902b11468j436M7055Q2258J23418J45546J14936N2130J2297J4006K9406L5754L2358J1761l6541q8129r7076o2032
35885B04243l5887m9072o4598m0289m3J71m2408p2162n2575r597R802p362l7002m6092j3284N5794J18399J18996
35867C7034M5723m5251p9382l5552M0045Q1357N2343l4244j23462j51800j03409l4145j2664l4735k8496M4014J27556
35850b55068J43573R0457L5244K2346L6396N3325P7990J11033J17356O3268l1053j07484j34086j28855j19872j06194
35834a31624o9094p715N1510P9621P1157M3957J7164o467l4545o3859p3193m4549J0498N5146O2190L8625J1608r76
35816I454L933K8285O9366J00514Q2822J4937m7831n2164j6456j1739p1095j46644j66174j08658j2026O9854J00004
35799a53618P0476J0134k7182o659N2765R8897R7485N3099j0956p4161j20728j37073j16933o8556j6695Q235k962
35782c44432j9917P36O1761J16954J29803J19897J27842J50033J41508Q3199J6145n287K0523L8343k023q6267j45303
35765D03515j28181n5518J2381M6720N9383M9208r374j04182j61133j26323m3054L41j7531l8012j2094M3564Q1439
35748A149P3901K4440l7120o5125l4337K7926O9041O8775M5121J2131l0757o9709p8280n7183l9111m4573n9425n9580
35730b52716l2223K3204Q2290R1405K0617p8747j15864o5313J4672P0556J03803J23242J13197P8408O1805P7646
35714C15982P6030J7826n7269q4856o3950m2886m2655m0175j1919M0172Q8868Q4935n058j32218j79107r0161M2645
35697h3796P8511r688j22487j61918j16879l5563K8462M3087J6685q237r153j3607m2793n9652k5970K2285K5486M73
35679d74754J0931N5722P7615P6618J10884J71551J67025P1387j4996j2282K4526J0819l4089m9874n7399j04549
35663B9135j40056p1533O4845J22519N1479l0292j5113M9601O3367L4702M6675J05980J25409N2487o2661j40653
35647B85891j53160j11317k9518O3237J13129Q7965K2795j4594q32K5646K1272j6143o1036r2214r7780p1437k6847
35630e4943k081k2561o1226o0535j227O9582R0388N3333R279J3973P9175J67531K20802J98544J09392J1316l2844
35613G87898j3150J7370p32o8647j29569j31992q1802k9003j5545m4849r1498j24860j25794r5273n1521j3765R424
35596b03308J3295o843l7916m4247r535K6482J2667l2704l5134K6066P4069L9219l7133n9785j3023K9674K1885M36
35578b35835Q397K2745k751n9007q8316n6350J2034O4306O9874M1531J7440J9708L2737L2988L1394N9642J13648
35561H4185J42594J07212K4167o0545j17785j40092j26500q5086l4222J6084O8169J09580J07022M9793k1225n3571
35545F9780l7821j158L4200N7752N2089M028o6391j14879j13787o9527p261M3003N5787L1362M688J2793N5680J02981
35527A13319J26626J09301M1215n9895j39722j54974j23079r1062o6322k1075M2615Q5554R3311R1090Q4263M1572
35511A72737l7113r2232q2360m3055k2861m979M9046J10953J10569L7123m7631r5007j08845r9193o1268j4582l1
35494b28729j0960J5742J01952J71528J41005L1796o1360r0366q6534q5294p6846m0943J3205N7782P0172L9899k0333
35477e8284o7163o2225k3082o618l1032m9324k0019K7924L1306k5135r2655j15888q3456k7451R190R909K103K8028
35459e53872Q6227J18719P7503r732o6835n5369p193K6007K7279J3791P696K0886N2601Q8133J06636R8669P3580
35442A04726M8369L3649K8302K1198J178k7358m3678l4215r754J1526K7890M3731M5414J3960l8092o9308n8076k8337
35424G1125j5650k4908l5336l3469k3005p321J9024N3491O9610L5461l9512q6720l8006Q3400J59113R5983n9011
35407B24269j58031j09370L1573J31920J14544J3283p7742r0761l4679K3160K5624k1966p0602q6516p3382m6546
35391b05222j5465P831J3582J4532L3173O0662N8695J5850k7570l0931n068J0264K427m095J7185O8505J28865J67104
35373C10324J60789J12569M4287k5995r2339j50871j96397k23268k13046j37073k068J23031J69853J50660J26335
35358A56791J08635O4984J5920L1931J06219J29481M7937m2967l9189J6589J5799m3290p5941o3262o3766q8853q6653
35341A90365n6305o5176j26235j57466j01022k022O6753Q5935O3965N216n8230p0905k9398P128J1566K2698N0656
35324a62477L4311m8701j07841n3901O8373J39937J17752N2800l881l7653m0520j6884j037j0363o876L8528Q1518
35307D3085P3337N3841Q7734J38591J10402N348o7467n1848j0446o133j7200j2485j9046n5540p3516l4108J3467R48
35289A78964n2218o9184k4753L7785P7192Q2510M7110k5056r0721r7662m9248j35J3420L954l540j145R313J7984J159
35270E5729n0383r6054p8696j288O8893Q5753P3110O6861N1493m507p6973j00556n1657K4487P4534Q7489P2248K3121
35252B23604o0324j39653j61661j16379m4814J2792N0958P6511Q2000N9857K1862j7339n9432j00646j07057m8019
35236c27740M7309J02806P6230J441o0233q3888q1711o8859n6521o0721q4937r8798o3787J4965Q4105R6563N6191
35219e07585L900k4454j8064J5671O0436R4399R6767O0549K536m1275l9511N887N7265P8025P2002P3670R4317R4754
35201A79289L1447p4239j38374j01108K085P5672O6165P907l2907l0253J235M7632R9021J21998P6427k3311r7877
35184B10809q3118n240M8890K6360m8856j15819j28811p2049M1025J63891K33739K18648J48916Q9116P6063Q7060
35168H90624O7673j0397j15452j79983j64365r4507k7531J3561M9047Q4710P9201j714j16164j70759j19168q523
35152A76253P9249J05398Q2428L5134j8254o1713q8393j09638j37284j61770j66508j54562j35204r2502n116R8900
35136e53582J49625J19331O5569O0398J01967J31167J16370P7826L5569j7221p6308j04782p8324k7047k12j291R842
35119H897M9755P8139N0612j2252l9346N41M9005K6374o0535j17886q2216J869N1887N9511P7415J09671Q7861k0012
35101C19290j36452j58975q5178l159K4955J6890J0773O741j2266m1099o3154p6856q2965o2546j201O9322Q8422
35084a87458L8201k5473l3180J8142O6530O3109K6190Q316K7770N4485N9728N4819O6080Q5141O8564o900j05476
35067B78588j64141j55856j03777l7433L5083R9562J15495O3036o869k1094J3165J0049o8009j41309j18977l0288
35051b32775J7409j1002m7996m3130l1106n1767p3410m6819J2009M8555M8406L7365K6024O390j1688j3037j6733
35034c83305m9584q2312m9461N4901J52272J71239J21386N4073n809n4055p1292m3311j400N688k0006k6033J3158
35017b13851N5328M7173l527m0784l3910o945R067K2906N8823J00215R1744P774j03682j63857j40197o6102N363
35000c74462M7753O6746Q2569J11539J48808J64465J31104O1046J930j4183o648j9416o3770j00842q5887k4362K6601
34983A52991K0350k1508l1286J9969Q1033Q1497J7545m9716p2076n7321l2831j785M4992R5720J20843J04121N6554
34966E29092K746l7504n7144n9588n1900m2204m1176n2916n8931l1430K0329M0175o589p3707q7436m8442k3270l3102
34948a12997k1954L7638P8819L6081m6809p5610l9541j0087k1920l6221k7380k6661n2412o3558k4475L2696N5394
34931c18997M4000L2725K6083M398k3207k1401J6531N6541P1392O8959O8851P9134J00243J23157J17703N5093m2934
34914D58271j06975r5629m6523k4534l6355l1951J4430O4637P0561L6844P070O289K1570K8716J4191k3112o6891
34897B90609q2524m7771J2799N0501N4147N6474O7532M3793m1244j28644j30639m7342K7205K3787k6646n6008m9865
34880A6164l7865k8735o497K0456J7307k1949n5859m9227j8871o881k7372n9652q0807q3824p0408m6776k6516k1487
34862e88799k8470l6698m4391m8588k2534O2080J74211K19711J38723p058q9277n6830J8444N0292M2972N5444J01452
34845e9316J36485J27275Q5361L5888l708j4758Q573L0549K284o9330j21208j15352p7958m1174L993O5507J08790
34828A01901J02879P1991N2072K7916k9203q7288q6666l8110j4993l9953n0752l408N5843O2081K5245M435K2756
34811A76746N5074P7045P9680M9448j9469r3771j20241q5066l0995r976l3838p1794q2865n0700N635N7973J03042
34794E928J49729J72271J17602j4049j32205j43920n8849L5909Q6553J05515J05724O9902J682m9897m9485k2869
34778C79541j6930m0320o7448p4573n0270J713M6755L6959k5863p1638m0140M3788J05822J10008P3864K0213l5106
34761C96375o0843l4226R338O136m1704n5147J1184R4071R8298J6430p3573j10848j02372p5890l4276K2663O4596
34744A30212N1626j6868r3355j25241j01828n9287m1010n1435n1722o003P3383J37845J54881J30478Q0617J0279
34728B22572o2280q9034l9056M4737P6300K4211n4227r2379r4596j08912j45748j63760j27518m4426N1011J17353
34712d85752J18269N6854l57J9823J03204J55141J20369M9265J4865J2388r533n3955p4421n3542k2962o134N844
34695e0634J6389J1087n041j025L4248P4958R6551R3698N4301l4211j33378j61239q9229O817L3813q813m7155l6125
34677a44988R27K2262J2970j7484m7622n3305l1247r985j3497k1623N748P0545J28942J37677Q6388l479q3505r7814
34659e9090l8518K4599J2791o2486j11436q0306q075M0324M6978K6187j3226n4810o3419l1183o281k9336o1130k6342
34641d94759P6333J59930J55778R1921M5726N0785P6356P7529L7318l0839r4515j15409p5016J107N8063O4471M4336
34624A29115M2399O2512O2825J8992l3117m2174j4102n808m5096r1234r0081m0438J7760O0554R4142J19396J13472
34607C59117N6348l8668j27859j65912j35999o1921J0912N4665P6720R3760J00896Q2513M5276J8076J7917L4473
34591D20314N2600P2689R9082J20007J11243N9223k1363r0655j08570o6731K563N3579O0394K0961n5247j43439
34575E86650j97841j81982j12235m6765k0765j5527m229J4k9915p8873r5831n6504J0918O9005J10722J39195J33681
34558B09718O9598l0838j00989r9624n9945m5196o2630n2100K8408J32036J66610J01530J736n0395m1443k0903k9566
34541A16007n8753p4875o0331k2735K1468N8917P6906O1667J1280m6798o3206q729Q8061J57657J51596Q2275l77
34524D90030o0472r7719j27371j51245j51348j12936n4142k0613l4988o0758m2768J8226O5056O4785M8873N1235
34508a76155M8727N947m9739n2161J2083Q4175J07382Q0901L6927L867n33K2780M2047K3338j9491l5413l720M3459
34490A74421P1047P1123L5455m8055j46377j81074j18564k4391J2392k1406p5020j08520j09590o7995R428P4990
34474d52136Q5927O6204P4507J16803J38526J03151L5228j6911k4765J2574O8597R9179Q3559M9448L0482J8734n697
34457D83410k8882l8103o8442j41858j86325j09204N3691J61092J50159R7483P3107M3602k9098r6622j06889r3171
34441A63950r8467q5686j5170N2949L8197k5774m4946j9249k7071p1780o6478J4701Q2656O6597R633j2857M371K3223
34423a1201K9993K5547o053o8721j22819j23221p2326r748L4931O2957R4793J42775J80383J52920N3427l0488n114
34406C28035R5591J32600L5896j07158j66759j18371l9456n062k7119o6265p2446l6739j3282n1271j02251o0835
34390b74892P9816J88444J58811M5542k3836j3347J9007L5167M4491M0954J766n0996o1387k3763P52l5981j15552
34373A4996j82857j91189j22578o962Q2240R5013O4505O0330R3067J12597Q9446M0186k1516r3279j40016j12539
34357b18556k9763K1891q77m4951m7343j7611M542J9986M7859P3395P2394N9523N9960N4492P304o2652r2026n6882
34339a49315j122K7330K9542K9016K3106j2990q3245j50534j65006j12750l4474J1979J0069n095K086K4878L5136
34322e21389K8328K4425L2966M1724M0311L6062M2818O5143R3461J05807Q0341K0440l7207n7284m7996m9773p8774
34305a80597j02240q2238k8759R600L664k5151l5786j6194J0070J9652J6462J8327K8690L4180K7208J8467K3502
34288b61143M4006O5122O6358L5567j9085o8349q2044n6322j6390J1464K3785L0825L2191J4869k3213n8806o2816
34271c23981l4482q300j8583n6660p2144k4982O6516J38629J45776J04210O7373O3951P2317N8475K3623l676j6249
34254A81813m0550q8044j21236r7580l3398J1053P449j4767k1467j5360j3296j7851k7406l9980l1155K9487J14606
34237b17682J39583O8426k2973m0985O848M9040O8856J01392J31707R8289J2169k6215K8244Q6298M9569m9865j05767
34220C76934q8662o2839p3332r0292o9348j0360N7290J08116J25548J02455N1153k707m3838p5969j06207j28345
34204F9597j21714o8529J7432Q5244R4110O5777N8391Q5474J03396Q9935P9031Q6208N8672m1415j46788j54283o8746
34187B91792l974l4491j09832j35298q8029k5167p781m3034q9017j02648q3183o2271n1550k9679M490J0962k1081
34170e79791k8656L6541J11881R8873J6407j5428N0554J26254J24668O8022J9345q951k2060O613Q1044J34499J08698
34153C28513L9980n46j2849m1763p9535p6253l0559P192J5425J5594J2723p432k4306Q36M8445N3763Q726k1833n376
34134B30745J0727j2706m2513m0039k7450l4156l3956o71J6883m9511j76303k60252k36779j32075l709J12398J90919
34117d88448K09117J72672J15679N9491o22n9244q5763o4578k3903k279k898p79J7180L9685N3731O1803P1459P6652
34099A48955N9669J6143k8263m0718k3590j6447m4469q2144q7890o1860m3241n3911p0564n7626r434M7107Q1002
34082b67281Q5068Q0726R1489J09419J03213O7025L5650L1226K4616j4011n2139l5835J6818K4953m1053j08985r3751
34065E7148Q71R2592J03645J9060j04732j75731j46543p2097m7632p9090p2471K1449J17391J04626l190r2593r3536
34048c70833l2952L3814P7316Q6106O6393N4701Q2677J25622J26565O9102j3063q9578j49676j75086j52430j11131
34032c72453r3167q3571k9581O5367J29541J18841O4193O971m6069p7052l8942O6696J50653J35403N7494J5135L9328
34015A08787O9091L8721n4077j55129j94832j38411k6619N0978M9821J3846J839J1035J4785L1474Q8808J44191
33999E4308J18371J0938q4925r9137o1728m1824n5534o4141l4858K3483P1037O9705J8996l4818m0215O714O4872
33982g8756R6931R4364O3742K1047k299J6792N6315O5162K0846n5091j34712j95641j95263r2774P3707J82340J48423
33965H5133K2170p8970j09789j13472j14939p5182K3582J11380J04319J5251o5645q9630q9807r6293p5358P136
33949e40114J07029J44385J06196N1664K2471N068j4464k1258j9829n2649j29962j84902j46134k6950R9498J85291
33933d14660K23173K06476J33837M3774j1514k8745m5348p1002p6177n3869m3895p7596j31599j51674j01191J3942
33917e86068J40553K03115J69465R0528M0040K4253j561l7889l1848K4718O0719K5506l4894m5830k587M5497P0499
33900A54216P5011N6196J4742j7983j0338K2382M1313M0869M0716L4892k212o1955r9171q7864m1595K2048R4226
33883B75493J45910J32984N2644l8881q7443r2024p5494l9943J1903L6721j3643j13012j65072j11862q865M0059O748
33866d3777l8470k5104L6675Q8783J03410R5660P8314M4209p323n9079r5966j11021r1298l0317L8789N9499J9854
33849F2838k7825l8655l4492n6899q8554p2472k620N7479O0018L2139K2578K4572l537n4762o3344M253Q7252R6771
33831D740K7944l5082k6730K7734O1593M9698J3202k6967n9921o6185l4593Q320K6809K7702L8004L7279k4460j28464
33813g9377j76014j13597j1029L8081M4117P9637J43090J52103P4352j6622m5483l3375n0903j15591j80901k00834
33797d92346j64212q5041k494K3170l4654j14579j14066o759J23954J86381J76252J44456J13347P6650N4032P7224
33781c8685J22786J23796O3984K568j6618k0568l7364l2971K5528R1811R5957M9926K6365M7835O6822M9417J0664
33764F31253l3876q4981j21258j07539n3733q211J4411L8197N6018K9764k7192n1039l5818n1817j15770j36993n9005
33747a17589K9651J4654p5595j16946o4975J1704M9628M8877K1741k8798o8946m3650N3822J65942K29301K14301
33731C23122J24102N157n7693j8240O3722Q7469L5948k2393m4559n3960o8749o4870l1868m153j0415l7634o2563
33714A62423p5458o2489j3558M0802N0830J9050j32J4982K4038k657l8792n3667n5170n3052l1130J1244L7634K9151
33696D049J7239K7708L5152J0674k4861l4440j6884J0638M4884P4272O4441J0045l6453l6536l0754p6077j47607
33679a04510j66756j10886l1404L0141Q0413J25213J43181J26985J04188R5557Q7293O2423K8690k489l6708p6930
33663C54401j06501j12248j06480j05258r7924o0484M805O1712P5381M6178N801j3664l491K2775M4278M5142K2375
33646G6798q524k1431m958K2684L5273K9676J9816O386k2610o0571q0038p0493n2361m1717k8659q356n632m0361
33628b55078q6546r6093n5619L654M4577N1437K8276n111j8920L730N0482R8912J40300J65105J42400N1558o6601
33611A96463j30550j06920n1485m0235p8840j05477p3395k648N3498P0086O3674N7050N1470L5581O239k7606n1927
33594a35022n0581j1989N4262J14536J39228J29648J04403O7539J0864n6689j08209j31260j36915j29390r3043k4856
33578b57474M2932P5511P8151Q4816J10462J32795J19595O1443j9397q1286q8387l8389L0962P0348N9064J8130j3646
33561C85630j5487N45Q249r28j0520n282O570P211n703k3737m8511q5963j22639j31725j07683p5654n9548n5721
33543c40896m3895j1527L6633Q1792J01861Q8594N2821O185m9565r9898j03168l1790P7819J49178J41802P8699L898
33526A38543n4228p9849p0328n0172n2874p8781r5710q3068m6889M993O4207R8892P4276L131o5954j13454j52418
33509e59683j64539r9794L5229J50287J70432J14483M3658j4385n1343m3942J0885O5255P6550O2996N9468N5388
33493h9055K5934j1472k6581l0408m4336m5802n160M8937O4144M5060L7199M7161M2313J7259m014k2951n7267q2742
33475i1781n4374J0661M0643J3113j3343Q809N0639O0485L5060P851L053K5401O5596R6475R0059N2655J9707Q673
33457D29382K357j7601m7072o9314o2885j0062O7393R6256K8019p8068j07709l3781N4365P7281N5509M3250L4980
33440D62300q126p6236j12300q4649j9015L7454N6303L4512j5892p7348j30338j52427j27196o6028p510K3874M3435
33423b19187O7614P2853L3510j6536j4405M0308P7332M9333j1610m4769k9411R714L2269J0323m2700p2660m9296
33406a07318j8829m2474r4042q6652m350O7368O1185P140l4654n1338n0906k2266L3031P9377R6050J00226R2493
33389B4041M2350l3482n0009K8392J10791R1790n858p3237o1289j0666L3409N8794N6221K2349j5294l2663n1656
33372A33983r2669j11315n2928M7951R9029P4393L2981J6145N271j1022p797J4629J0351l8893q7705r5427p8219
33355a41242o1081k9585K9850Q3453R0122O1571M1504M2422L8763J2229k5424n0572m9880k8830q961j0014l0923
33338c6598n8650r0557j24224j29335o8564M0943J23456J24925P0356J9995k206q428l208J9536M7306N5068M0715
33321B0530K5435J6788j974l8884p0917o6509k0433M0081P7927P3995L9608J842k5401m6859n8902m0322O628K8499
33303c8868j9645r0869q2860J7336Q4422Q162j42123j84178m8401J40955K27309J89147J06395L0425m0231r4558
33287F2418j02126o8211l3436j3537J1723M8758P8605R7786J19242J24483O8737m5182j42134j50123p3263K3728
33271G468P6486O2562J6157J993L7542N1476k4955j35528j48377l7791P3485Q4802L7859J5239J1852j4139m0336
33254G5795k7604j3150n3495j11146j00669k4518L7750O0617Q8542J24622J13301N1737J4175K8348J8861p5174
33238B07992j98112k47885j94268p9364M9901J57245K02601J67007P8524j6683r1435j29367j13875n3106J1262M6109
33222b03454N4532M5734J3345l0686l7725K2654J10885J55862J32029P0934J0841l4801o4673p1821m5967J0333O6287
33205B04309P2880Q917q5435j45082j47382j16241o9078n858M8804N1713J0932n981L0714N6055o01j04881j51041
33188c47256q9814K5043J07958J16375O1145j3375n2961l0473K8811P5219Q8125Q4202P7244N5984R632m2316o0413
33171I3130k6231L0649N5153K6261j3623r710K8836L6135j8879q5421r9114o5620m1075m9287n9379m0584j695L1397
33153b09057M9562N8063N6979M0404J2734n854P08J9188J4940k4097o4608o9124m7490l5987l3231j716O0288R8918
33135g9380Q1852N0174N4833P7914O7144K5562Q369L2957M8666J5794k6083k410R8311J98481K06052J02245m9235
33118I11246j69504k26878k34502k11422j67232j10959m6455L4619J25360J76859J41467M6370k2977k7373j4638
33103B03981l4457o4886o1817l4922k1892k0798n552J3781O477j4462l371M2815P5418O6915M2793K9982K1845J1499
33085B53349J4320L0348K0354m7708j48704k22936k34850j90210j11158j7601P2565J42460J76777J61602R5613P546
33069A767n3905o3668m6089m2110n4786m5609Q596P1000P9057K5529j9991O401P4849R4007L1585m2792n4545j8537
33051d9241L451K999K2490O5673P7573K8172l7389o0585m3543l0296m1930o4247q2576r5221r8370q4845n6872k1051
33033e65808K3201O7544P4613J0820r0289j35061p3575K4657M4046k8640p9332j4468J09048J50379O1903n6373q3466
33016e60801p339R0582J35431J09981L9108l1723n2973n674P3307J20206J02638M1061k0168m9823m3974j7230J7491
32999e9900N8334R6484J01144N2151j4344l3924m96J7972k5602q9941j09113q3547n8574m4015j5495K0609K7429L995
32981a56833n211K0588M5247K7891k5175p3627q1643l8298L2482P9972P4848N0447O2424J05685J11522L9603o3239
32964B06683j14835q2486j011P0218R1646O3223J8170o272L454L6176O6333N7729j2906j09780j46393q2043J4535
32947G2441M7471J7130R75L0363O2685P1598P8763Q0801L2292o4093j30999j26865j10139j37306j66421j34493p2897
32930d48694n7049p6345m8405M6110J29557J39714J04466Q0795P5160N6538J2548l9114p7309r2808q3713m9856K898
32913c25507N1094N7922J4078k7267K883R1937J41762R5710K2041J6767O4160P0722J7808j2419K2306M6894j7701
32896C33190j25690j59171q2478K0406N9397L3041o360l4261n8757o6129j9734O7817J08401L5165r2128j38999o2265
32879a88555L4328L8443l1416p3262m6373l059O351o723q558J1649M7484Q3117Q5826L3344l7696n2402J1587Q7092
32861h823R4876L2595l6146o0265m4996k9270l8074n4502l6933K5752Q2956P3217P224l4417K28O9669R4475N1217
32843A88783j6306o0042o8693n2706k1328J5488M0723M1230K3125P360M404k222l3691p4075p1827j498R2160J39078
32825A49963J23350Q7083O1857L7177L015j9598j3406M51j0468m7391q6096j07255j01528o4077q230L0242K8257O466
32807F9812L408K5685M4608L6424M692l5469p4847j07257j22583j10304o9008j4140K4857K6968N920L212M3428
32790b44594J02399J30259J04395N3268K7496M7374P8351O5670j584p4477j04300r8139q9605p8759m8112k4320n8551
32773b13229j36261j74297j35629q1677o7813n1848K7855J35025J79777J51517J20078J14900R2931L5708q979j1773
32757b3715j3080m7719p9388o0476j1492J1256m343k6091l3236k8257j1720J3482K7091J7593R437K8277N3955M8188
32739a30238J8264Q831L2714N4609N1246M6039O4161Q3400N7273k2761j06554j28219o7927K6571Q3518P5789L7604
32722A84320J0940j282j2711j3014J3543M3977L4640j5708n8048n3619j0444M2841Q3065Q6877M1592k0761l7948R645
32704C27905P0039Q4544N0696k250o3546j29784j71822j57374r3792j3850O4188J24506J22895K4807j23943k16061
32688a02842j90259q8158M536L9833K2820j3382k6280J0906P7996J22386J20665J00526Q6403N8410n047p5161j05668
32671C7684r9932r9075j08950q6637j0426P5866J10335Q1456K9833j729j148J8671L9487N2442O1424P0106O6824
32654B36231L6272r154k9466n251K9171K5029j4535l5071k188N3320P4318M0706k2304p9128j02438p3229N66O5688
32636A88537O1544q747p3930p8665m4702k5884l1916l4135k6296k9941m1794k6043K5670O7387N5737M201m2957o4056
32618a25990n9996k5508M2331J16490J55259J45865J08822O1036J9p3256j40103j80285j85818j54447q7357j072
32602d04010P2974J10213J07260P4098K6188j2579j7801J1435M7205O3614O4653O8317P1583N1917N644l6633m7359
32585B56719m0715n1385p8747q1385l8580J0375J4938j7590l8916l6950m7534p7835o9696K0925J39391J77672R7642
32568A38329l1458j18438j33431r7932l4263M2935J04672J15687P4484K5931J5654L4957L0506k1885p4490o6344
32552D914j1721J4041j8413n2365l7867j1046k9275o8562n7256O111M7891L7288L1202P2948J13483Q1657j0499q0780
32534C1751o8877K1206J42391K27966K18180J10151k6971j20360j65743k01316k30029k14575j43960n7446P098N1099
32518d19435Q7985J09410R9005O1913K2964K696K795Q309R07k3383m9380o1051n9729n7217n9608o6886p4935o4539
32500e40179p823Q8473J61487J50190P2738J1841J8505O1900Q3181O7161M2614L4405L6882K5708j4692o8436r3623
32483A30332o6405j7212J189j8645l4568k1677j894Q780L4706Q6267J13518P0618K665J445P4838J25566Q0428j5685
32465E54266o9800n8979k9656r876J5252M3104K8306n5349j61059k07858j62434o5872J0551K4303r674l4386n668
32448a94829N5845Q1798L9954j8114j8727L9518Q7077P2769J4031m3082p2314o3786j5683M3664N9791J3421m4765
32431C6568n3048j1840L5009O7232R0700R0743M2308l0757o4080l8899j1549l1544p3679q5796o7282n5397n6612
32414b17923m1062k81L2701K8026p306m8881q3048j05377j10539r5003n8331K434Q4308J59666J86170J49749Q4149
32397d0548L1322o779n5046j09291j25116p8530j3439L934k7044l4983K8988J21300J57213J10459K6883m7254j03690
32380a61621j35757j15727l9210M0859O3011K6292j8286l1239r184L9777J03255J46204J27162N1114k1136l6105k655
32363B6754L1801M1367L7081L5199L5111K7683P705k3097n2355n8033k9278J2018K7996J0588n622J1292M6588N9474
32345B42272L9249J5598J1134J0304j0687m3990o1575n5095m2155l7805l9323l6436j8925K0900P1871R5219O0633
32328B21189p482n0447m7974l5933l9588l1996R660M5364K3493k6631j5634Q2639J82112J87283J06363K2663k1896
32311F03185o2198j27102j74087j43054n0403J8128J2719k2985j9733K5692O1824O2470M8268L4686R105l0095n7067
32294A89353n9808n7772n7461l2914K1189O0679N4543L4981L6860K7759l7126j19130j31855o4105P444L0081K4897
32277g2385J5166j3245m9315l1739O1702J57020J73187J25639Q4725O8264M0119o358l1041j3058J8891K9565J1471
32260E68608k8665q1691j25171j28977q3948j1507N5745R0844P9409L1138j9234m0363l0926q294J5207L0207K4031
32243C36413p78j8619j5517j3783l5572o2446o3461m2771k1330O646M9513O7978J2899q5270j28254o8546L7715
32226d5183J16801J60168J86381J71700P6889p4329j93432k09810j34255m2045n497l4278p0774n3095J3750O7298
32210f9711O9634M7545L6993K6719p797m2797k9485K5077M8687m763q5033r7621k0032O2657N3698l9355j13916r9152
32192b38652l5385j606k063K0171P5057J04146P9881N5333P6713J04778P8015J2164k7077k6029l1161o3105q7197
32175I3983p8374n9200n2657m0913J950O5396J15089J30072J08054N1443l0381j11597j57602j44857p7305P467N4843
32158a24589L6118k0922n5857k9399N3962J60464K40344K42822J59419N2850J810Q310O25n8963j17600j13089o7460
32141C68845n1217q0695j05281q8529n1265k9556l2984n4363q1117q2382k4961P0504J21558P0853l3566q1619k1668
32124a87443R3265J78446K00372J74408J15104K5750o9567j18511q4973N816Q0932Q5251L1585j9569k9203j6396
32108D65267j8067l0466j9701J3580K0205k7946q7913r8913o3732l5747l5949l0636L256L6682L2791o76k6721k3387
32090G1927O055M3435N7728K3102m1324p5226m9287j0091j7662n7510n8985N151Q1443J04812O9323J7452j4354k3500
32072A32489k9900m8903p0750o8736l4508O138K6858L4723M8687O1997N8702N3729P4427J07186J08421P1951L7457
32055E69968K0270j6664r5139j70261j83691j39170q9049o5465n6589l5609J4243Q9472J56512J67001J06277J2742
32039B84848o8660j27912j61884j40462m8958N4208P9137R045p9933j11836q5339m3378o793L5963R3825J51226
32023a66903J74801J34798L3191q2228j47156j36520q5225m9787n6953q9271j07811q5714k8961L3812Q5160J30958
32007d43809J68526J66448J09882N0790O1110J27845J47323N3983q5966j51769j12607m6064k3846l3414k5325P675
31991b9218L1644K8347J4478O605k489k1249l5858l1820k6925n0590q6758p5175M263P8863O1216l0822q5304l6475
31973b87267N7951J04401Q9757O7386O3974N8326L8778K3747K0047P863k0626m5130n1900n0554m4834k2092J3116
31956B2943L1730K6684K9212N1606N3139M275m8194l6085K6402N5410J6472k8876j6043L3590N1187J2557m7624q9971
31938A48414r6137n3314L8136J32914J57171Q3707k6812q3139n6002K022K2146j4015p1946j06033r3514m2979J2902
31921d6479L8603K5481n01j1219r324j1942j1744J2215M1655J9311p1553j59372j54322n0828P3745J47589J52910
31904a5775J00781J2048p0898j03403q8414p0009o4766m2188J0283N3878O1515O5519R8361J28330J10135O6834N5549
31887C07780P0475N1176j5872p4581q7779q0502p4289m5135J6202O0384M6600J0243Q284K9634K1427j4870k1171
31870B08006K3036O7230O6828L9773K0067K580k5837l6351O596P2752Q3470J1481p9682j16028r8169p7146p2517
31853I6089n6727j2834L5333N9619N9867M4346Q564m1932p0747m4789J9449P1092Q2584O8087M7375J8922k4002p0881
31835B89415r8612q9156m0541K7618P8627Q3372M5361p620n4985r3236j17616j15673q6984n2890l4454k8286j2929
31818c08589K4234P0465R6851Q6911N9110N1856P6792R8268P5753J7787k8162l5240k1550j3624j1753j764J8610
31801B55955L7685M0362J0600o2447j64471k46390k50807j59855k0180Q6448J09154O5686P173m2186q3288r1971
31785e08532k7721Q7386J57113J25407N6825M4856Q0318Q4579M2405R001n505n4470j38420j70855j06696k2466p879
31768c54654m1082l6931K7077R6567J19641Q6816K0833k6339J561R3886J56967J19198K4577k8028r929K6959L7967
31751C15086K3868j248k1934j2126L3688P1342N8905K2423J5681L0855J3914l7877o3663l2916J1365K1652N246p656
31733D46605j2069k0212l5687n3197o1628m1710J4004P7266J07027R5015O2389K0860k7440o1341n6576k8894j7639
31716D06773k4837j4386K3050M7380K2302m2177j06069j29334r0947j4790L0217k170p4653j17662j27708j53194
31700c68205j88179j57640k9985J21505K02307J92194J29517M9004k8946q2350r6635p5531l2862Q706K1285J1394
31684c24421M0301J48250K68437K87365J91336P5814M306m9424r9114r3708k0096L7423J3625l7291l4586J462k196
31667D07483m9719q9441j06648j17912j06212m8256J5205J7929l6081q5777j04428j07502r0227l6292K3040L7714
31651d77124K1085K7602N5349N3610K6529L7581R4411J19924P2782J7932L1888J01545J63543J87808J72386J06717
31635H13568N22q5243r8049o8031p0522j23917j72605j67821j17890n1282K3277R4571J22598P8186K61k9797J5998
31618A63824P6842Q7481O4453O5107Q5335O3277j3878p7365p6511m6315l4407k1293K6722P4121O1964R578r347J6031
31600E15619J7230m4334j19165j41836j08278n6464j1682K1506L9499L6678J4207j4481k4751k467K6189J6968j9967
31583A44471j3523O3282J32488J18469O7735P2093J06721O1371o7795j42554p8046L3296N5397j7887r4162j21748
31567C19608j17912r8753n7620O24N6816R8948J14047Q2108J0322n4122p8904q7007j11739j43112j52128j35015
31551c53839r8301l6363L5583O4233K4353k8823k7787J1730K1044j4420m0765k2677J4910L8775N0219O1634O8771
31534b31723O2313M1705Q592l2521o3328o1933k8520J2105L2286J8120k3043n9563n6997j7504K1910M3974P2699
31517b61428J17427J34700Q8068J5298j6423k994K915k1722m6891m8254l1533N780P8809J65798K05986J70986R8111
31500F54633L1535k9555r8174j52770j59790j21744p1515l2241p031M687N417P251K0940L9962M7985L6833P271l8364
31482A45330q9757j20875j06571n1630O965L5269L7440M6635P8481J07115J01996P5210O0980N2094M403p6992j10152
31465A95941m4511M3259L4095o5685j21697n2798N9495Q5699J7104l9292p421P4604J15482P2416j6341p5502o2108
31448B12740l096L6341K5999j961p294K408n038k9925m5318m7136n6143o8287m8222J0548N7589M5978o222m6473
31430B6488n8350o2442n8443j5279O8752J35561J24424L9687o0752j28087j50946j37697j02966o9300n3795m7219
31414e50364k4670K2160Q0023J34703J70887J59303Q5515k014k0482M3676R9410N8031n3550j31339j24702p4745
31398a28158l0382J2019O8079J16349J25469J00678O7908K9231l0022r6186j25402r7713m9254l1767n0728o5311
31382a85190n1114l9300p2342j31131j38836n0387Q4585J70028J62085R8210L9598J4367J7500L5072N2320N4892
31366F0357L9685J9829R542O641n505l9409q5681j12580r2213l4830J4456K8327L5477Q2099J59543K00445J55232
31349D41415M8658n1729j02338j04269p7698l9808k273K7902M6067M1992K612o5220j22039j23824o6678O359M7484
31332i3387M7918L6284L7690M2600K2828k4616o4240o2799l1697r765r758q435O651J2807n235j6012J8917P6963
31314b3286Q8746K8939m4525o5369m4706m5707q5121j03874m7604N6480J28055J22192O5563J3625m093J687j871
31297C9131l9596r7574j20542o1820N5258J44912J42524O9982N866P4L0838M1514P733l6093l7643Q007M8157M0204
31279B40932J1630K0928O8093R0051N3798M069r430p245l8558r5886j23690r6967m1668J5261O5762R0011N7625k4305
31261B80411j02447j34068j24815r9226o5189k3158J6725M3842N3069L2965k4275q8982j02329m1794M4602R2361
31245b42308Q9891P2775O8584P3639P1785N0531N371n0941q9207r1554p0953m5802o245O7585J55207J92123J32419
31228C82900O104r7532j06741l1071M7972N3842j2543q0111q7497m2843L504K7444M6078O8550O7116J9619l9992
31211B24799n1515j3165L59o8216j70110j96981j11409J3204R2078J19849J33787J32119Q3318k566o7226p0855k7294
31194B0176K5565N3292K8939m3052j02157p7738K6694J32743J78171J66614J22111N2733j8092m3434j6192O551j4741
31177D98183l9896j7533K6451L0081n991k8834k3657k3417l5059k8451n182p204l6286l1276L8387J10760J09065
31160E30141M3336j3881k8302l0546n0967p3045o0230l278O7141J03023P7463J4096k8879k1071O01k4331r9987
31143D01284j62592j54320q7611k3887l475j3695k0190j0834JK529J0958M0856P2365N7235k2755j17234j51790
31126a83155j10709n0507k5623l0718l4058l4063m2661l3876L2724J30918J66761Q9404l5463r8636o5749J2652P9802
31109b32957J12445R9760M1473k7420n6950l9620j2781Q05J3473K6841J6643j3786j3518M3447J01587Q6863O473
31092A52778o1004o8175m8156n5909r6040j25985j10927n5930J1190P1658J19087J36659R6034r14r5613j21793p8275
31075c31315j8266L3045J01618J88588K25104J50884J0516q0806o4593N905M1815J9792o565J5939O6296O6121k1482
31058D02596j28579j51704p9262m898m483m8537o0260j3869N8989J19057J34556Q2914j5155q9952r6280p0296p2566
31041c7729j02037j12698q9181n4413k3871l224r305l9966m6173O557O9852O8917Q798m2485n7520o0298m9174L378
31023e70572P6582J15379J22355J44419J62260J00060k9904j05737o8417j0305k5770p2796o8024l2401l7711p1052
31007c71634o3527j4789J7394K6541N2078P8207M4174l8610p8568l5390K5675M0587L0718M0945O1392O3897O7657
30990e3253J07765J61741J62856Q7443p819m6436j3126L4854L2199k6909r1987j21242j22947j24909j28782j17612
30974b68164q9412n4075j0444M2198P9618P4407L8807J1957L223j8407p0773j23313j29341p7689m039M0330L3886
30957e21231J0151K8029J00294J66087J60153R6112M6551M7286O2407N0017K2669K1374N4146Q3592O7356j035q6515
30940D07443j42245j48549j22676r0283n7747j7466L3935Q9968J30768J23035N3674k8959n2494k2034l0387j22541
30924C442k04581j59518j6456Q2179O4904p924o3757r8166j14007p8969M171O0054L5459k0125k5989J8939N1452
30907d68892L7351l557m1254n5828l2379K1050O3803O5732M5891L9445M6152M2776K7075J7464K4023M4564O9843
30890e6741P2395K1104o5190j12389p5224L382N2594N8916M9303K7022j8420o3494p3024n4673l6918j2150L7713
30873b45794P6397M6143l6694q8986p2024l1016j1019K856L8750Q6215J17937J21987R5379M7347J9846N3640J18061
30856C39025J28805N7403l1689p7489r3905j07886r1308j6233O7443Q0544K0607m1514o0402n7617o7802r1644j09108
30839a52770j05180p5531k8550J7084N0951P8094R6121Q5573M2281m555l0546m6342o1235m7311J8451R9409J33085
30822F9029J06349N6015J1567j8932k6079j6573l6810j15455j91275j71355o6424Q843q908n2679l7373K2699O5343
30805d02018Q9289J36389J96916K07200J36458K1635q1589j38595j34087p8148j5164J3396J5826K4653L1865k308
30789B1718p4493j25357j18535q5608o8628o1173l9142j3015o686p687J7440O9486J16448J37684J30214Q2154r329
30772c4509r1109q4087J2545R5244P7192J290j9556M5393J12700J03652L3537l6354p9340r8854q7995m6115j2210
30755a08576k7002o7787p0207j6958M1480O2859O1721O2188M8900K816m5562m4448R408O8518R8477J07448J08343
30738B91618Q7884L3587k8981n1644j7796L0630K8316m7098j44396j83122j34614n0661k125J070J0389O1690J22111
30721F858J29697P4667J7406J5920N1064M8377k3623j05936j22322p7873m4594n5018o0520j1969O4968J09812J07875
30704A24789Q7903O4316L2104O052R716K3406m002p7278j35357j31062q9986o3460n9238n3692m4057m5963n2389
30687d08198l5869Q803N5132Q1317R1096R3390Q2430M7618p858o2953q7595o0761P354P3970R8575P9076M2898Q519
30669A06944k5142n3135n4459k1499J6030J4860l5474r7925j18062o8039K8172J04344R7350K593j11285j55605r9652
30652d69984M971P7927Q2436M5769K2479M5740J01553J34663R0327k5547j29880j34693m4290M5665N8453J7124m690
30635h1977J8960N3448O6568N8035L2818q557m7852n7175l9040k4908k7509l0933l2797m9917o8276m0614L6083Q9703
30617a53940O2202r495m9055m2596k9460j8306K0615Q6073J31161J25696Q4874L0888k5750o0245m1801J3126M0526
30600A64513N690n3713q0472o0099j2361M2973Q7387J01550Q6922O4220L3431k9662j14104j53158j04386k0075J0200
30583c1144l0252p9433r1163q5584r9532j27667j31164q4338j976O8298Q2035M1194k363k095L2306N7528N8049N5622
30565c71679O1929N6001J9226l0694n4773l1752K2710O8159P3186M6831K9594M2954O1825N3112K1374j1905n3759
30548B339j20980j85388j89334j23194m1141J3224N1834R4498J23714J18976R7716Q4271O7509K7550k0872n2254
30532e1532p4275j00589r6704j0823J36977K47541K44989J54938O5167L4023N2162P1728N6062J3686p712K5571Q2336
30515H43545Q8853J1621r9704j63513j47256q8889n1308o5125j06039j21157q4215k4194J1778J6244J8781L0882
30499G0304L0596J1883Q955M3854Q0296O6493O624m7333o6009o8422p8918r3618r7222q4130n0351J1646R1566J48180
30481a5606J38369O2525k5827o2234l0081K1665K9231j4669n6783n7474m1143m7659o0156k7898M6040R2515O6278
30464A7093N035k6426j7529o558j8042m0008n2748n0813l9346k8547k8280l4915l2582j8994j2787j7941l327N2204
30446c54511J12339J21443Q3604N8585P2245P6122J9612p2651j29886j23646r2850q4205r6469r1846m5914K4975
30430e23053Q1366R9091Q8402P5705P1422O3271L9167M936k3326l3346j9446J4350M4632L6413k1002r0475j17058
30413b08951q4197k6869J4404L6897O1598Q8808R2669O4845L9107M8960P2420N2080k4220r6494j07257p5363o2532
30396a14095q5161j02138q4682n2108k9958j6596r351k1562m4884l2249M1317J26436J51456J10873N9018K8030J084
30379g4570l5008o2004o6908o2623n5448l1684L320J2639j6459l7868l436P0206J26964J40245J15612M5783p9097
30362a0336k13871k67247j94815n1136P3196J39160J61362J52174J04585K4594n5943j10525j42287j64711j69689
30347g25489j29906l4500Q4597J69167J83077J44829J06591R8250R9407P3486K0831j9684k4175j7961l7774p2514
30331h1768p4061l3185p317m0846q5009n2292N0797J09961N2306m8004p0573j5745P124n3513j23549j23407p5613
30314f64694m2856k1593L2323J06723J36926R8677L4221j6085m9608n9442j6686P4253J45403J31049M5677l3152
30298i8864m9660j7140R894p418n7804q8506n0860N3046J66250K17902J71510N0764o8513j10757p0608j7647n830
30281B5759j590N3441J30998J39467O0686j6772k8545k0181n2104r0191o5293P344N1213M2595J9575n445n5272
30264A95685j09882j05783l5696K2511P859m8267p7798n8206j0813L7734O2112M5717J0080K760L3725O0808N7105
30247H9651M6793M9843M3815J6716N061K9906M0566j7588j10766j54010j21423o2391k1985M35K1974N4086J01541
30230A2224J41809J23641L5159m7884m2703K6130N9187J8688m1604p8114j00608r9779k8579R8832J71558J10921
30214C58878k0787j02988j01927o9826m0919m390L8927O5484P3305Q1004Q2991N6159J1394j1315m723n104l0726
30197C75437n1343l5433M795L3144L1405R868o166M477L4216M1630m247p2588r0926k5447P8553J42315J24615M9188
30179F43493j9800l2952m581K825l7187o9905l7452K2380J9432n1302r0982l7670M3787N4002j3914q7940j13730
30162A88504q5840j9061N4334Q3640N2227J4908L1532P8268P8213R625p0921j07742r3981m2768L1173R3103J05954
30145D01168Q1714O9936Q4123Q6706N7650K3330j797m3724j05890j31082p3962K3978P8402N8193J108m2615m7371
30128E19867j6834J3391K34m7932o4957j5231M5350M4262l377k6144j0476j2680o0288j11361j24354j07038p6416
30111e3984k6649L4775O6844M6148M273j5665r891N075K8721N8204N9858K254r0001j50422j40986q6551l7336j3948
30093c19281M046M1587Q8853J09128Q8102N3914K9766p463q2834j57399j63321j01263l9785r983K6283P8680Q1546
30076b79424Q41q2774p6566j1493J3913p663Q534Q8246J50333J32980P7918M7429L2072l123l5958j6165M9596R7508
30058A86204Q2154J5711n6568q8890n6802J9649Q0474Q0327L4941n360j7539j9381l2143n6348q2051j01245j09143
30041a26010j06779r8934p9412l1274M0000Q6207N7064l8387j32185j62499j23259n0737J8386O8433R9744J15522
30025d64120J14432R6377P4461O9025P9897P6697L5765j8811l4005P596O0513O5294J6559k8441j0926O1140J10782
30008C12235O9068m3445j30577j27569p2177m2815m6295j4769Q3844J85341K06144J41217M7904l5986j06838j46058
29992B79224j22136n4630j8599n1668r7796q4890k7401n22k9249o1281n1508j5288J9956O0594J08073J18961N5787
29975B7627m4474j02990r0387m1233J2650O9393J14101J06717M0225k9302m3073n593L4270M4328K6914j228j9570
29958I8375j2371Q331O034l0424o3253o0510m7030n8256o6868j4863Q5104J43709J07884K8112j2422Q521N8399
29941A78472J04712J20716P3560l4514j28732j24861l2092N7179Q5754Q4522Q9782P1704m190r0137j05071n7394
29925B89410m0722r0060j16483l5100R5932J38575N7215m0352n4255j1499M608j4383o097N1977J03378R1614K8066
29908D51824l7484p6172q4230n6441P916P8822J05319O2264k2540r2683j10503q1731m1554k0343k0507k3246j4341
29891B4370J084R139M809q559l3202p5527j22495j33186p8358R142N1946J6287l9562l7137J7526M7486K2684O085
29873c17468N5011J27627J37234O8565j5768o7621r2573r9508p2865j3001M4347P3661Q8743J04634J05334P4879
29857B01231L0665j334j9672l1652l0757j6000o320m665K4155R8944J66740J50599M5397p7900j58835j91766j83275
29840d445j21938j5406Q4515J29705J27077J13815J00768P1958K7939p731k8398n7171j02343j23295p1513L7450
29824A60987J23077J25676P2803L7495M4961N4094K7932j9891o3234j06260j56616j87436j68374j16055p0081l1306
29808b72228K7393R2956J09778N8195j2625n0411n5318m6220j7192L3784O8873N2735J1653J848K7263L5708j891
29791F4301n2434p1675n7172l2999j1867N459J4359J3163J2525J8167J6159l178j6995N228M7592N0888j1232q1644
29773i1355p7029Q864R2502J00800N2658J6417J2979M126l1066n9904n1914k6059j0058J1464O0484R7376M9806p9719
29755H0372j84616j62776k9412J02886J38828P4715k1533p5506o0547j3423O806p947J631P6320J55077J32975P500
29738B21350r6703q3700r569R685l0839l3534L4903Q7339N6578o93l710J9958j1502r0482j28391r5941n9569o5816
29720b80636p6909n2507j8688r136O08M4883R8567J11421Q0420L9166M029k2014k1692P094J8820k4663q4051q6737
29702b72025k9342K5416M8123P1234J11811J33776J10015O4653K4720j9792p2840r3462m4073M8609J19454J34362
29686C60639J03760M6927j9859o7588o3903j0230M4591L9487m2891j49307j95058j49103p4301n7692j05729j42706
29670d82963j13674m6169L192J9707K2470K1622J6634J3252J3948J1223J1263L7637Q7593J15948R5057O2600P1254
29653c9406J13575J37709J19195P4934K2651k5658m0842q80N8737O7060J860q6070j40417j50213j22119n0856M8752
29636a1988J13669Q4179j9254j03931r9749k9227K7108K3455j0161j9115O001L0365L1234J9740N819k0593n8571
29619c1019q2323q2521q8613j18772j38874j11492n9683l3042k7373O968Q0565J41459J43031R2131K3157l4242n4074
29602c74717k3703L0531O1819N8230M7441M2246K4766l509m657L6179P4097O0098N282m0435n0008l1276J771L9649
29584d6196P1561R2599J08274J18113J09182P9039M6839K6681Q630j7836m1007m6427m2552m7394o1287o7772n1161
29567B39286n211N8767J04097R0911K0511n9892j07574j20616j16128r9101o9704m0398k7923m0861p8868j22533
29551c75237j24773m8920P4647J66684J86365J62997J32374R4268N4051M4915O6216N3999l0899j27180j46887r3477
29535H9143m2485k8060j7388J1925L6261L4139J7807P474J1619L3503O2955O7539K6443l7073q9933j33777j71504
29518a21412j58475n3637R2142J69073J33792M2745l8257r0721j05724o6330N930M8959L4816j533k6336m4765n5743
29501b35476l3035J7039L9444J0949j8361o273J2704j0575n7059p4932n8608l4653k652M7780Q5768P0014K0055k272
29483b30143K0617M6975M9214N3688R4001J57153J89608J44150K6793r0045j22442o7439j6241m3445j11612j30711
29467b9879q4804l7113k1997o083L0559M4628j533o9187q6939m1252J4893L0894L505m1826q3475j06404q9602j3566
29449e89181J09478K22547K63011K21460J44296P1756K63p7939j33093j34364j04158q7646p9138l2397N3208J11169
29433d0728R0429J4848o1920j18806j54074j46929p7830K7230J10543J38276J18636P3178J8254k6591l9467j5843
29417i0794K4738N6142O2907M3923J3307j798J9531O6109R7455Q3959M0936J0939J0641R010l0639r7571j42183
29400A76612j34599r0929l8176J5490N9348O3916K1815j8702p756K8629J6550n7550j21136j15160o5892k5318R105
29383b83753O1891J02046O7498l7963j34721j65986j53314j34134r6811j8044P2368J15607R8003N6298J7812j6130
29367d49333k7568J8862J09662J64764J28186M3672p014j6034m0965r5146j17263o9059o59K2794J5914M3700J20540
29350a54947J88119J87123J11228o684j23336j95755j98478j47864r3175p1408p5196o5912j6209N3055P9219K3530
29334e06690o4152q2131J09R4323J05287N2325K6269N5635Q4821P3357M3691K5654K0962L3489O8528Q7913L6933
29317A56323o0186j04629n7673P83o982m9850o1869n4246p4214j04445r2495m7172j7675K40M7943J08571J21694
29300b95882R1647Q5838J12348R4512k132j05003j39926j25274j10350r0549m7323j4372k8421n0922j4928O7894
29284e72843J16888R4878M9665L5912M6256L6935j1953p7959j18362j03411m2136K3208N8035O3871N7933M4097K3716
29267b75270J5186L3891O5059Q2678Q1920O6883K6483l9705q7550o8019J625N0516M1586N138j9112k8345l2904l0273
29249a10213k3464k7812l6366j2491N7648J35769J80387J93250J86148J34769J2976j42137k46383k51465j81131
29234a30515q8733j1404L4680M8819M6773M5875M3733K8627P549j121r84j3195l5032l6519j0077R320o744l9445
29216a08393n5558n5031n4300m2833L112P0640J14745J16375J00236Q6813O4565K7465K281N460J097n3386j32666
29199I0622j64076j26168p8525p5232r2542p5232j9506L5007P3703J14183J50284J44240Q8318K7323m048k6509o7521
29182e679j01552q2009j4857M3122N5549L9942L0384L8980N7408O7098M3139k2161r0211r8862l1323N5918Q9655
29165G4541N2719q681l7265j5590K4153L4797O974j5870Q759O0986Q0299M7975Q356m320j6749o3841j20546j30370
29147a3673q4751l2090j4635l3457p2880j20945j57695j54073r8693j3394O2119R3199O9051J8910j056L5433Q6751
29130d31879R0683M2798p027l0468m6400o3604m9693J5123R2577J29528J20477R5313O8474L5595L415j3802j9040
29113C2070k2400j5064J4410M5245M1820N856k3337k4993j8752j9888p777L6688Q5558Q7473L2926k7382l6350Q451
29095A94554N5805N9676K5631r437l2376o2451j01642j11901o8597q532J6835J8846M9698J05684J14109L8811n5874
29078B28839q6242n4120k4074k5831l4936l5972m5437o5842o7442l3027J6261N6141Q6363J05026R0897L9288j1269
29061A38623k1420l326R83j9029l7719m4240n8164q4073q5559l1382M8606Q2938L7441m2303p7284l7489L2086O7476
29043a33835N4641L1518L2049N2243P4531R6169J13027R8551L3213n2970j02488r6930o9025m3186l658N7256R6294
29026B37400O4678j9049q0884p5626l0066q14j6141o4654j15819j38862j17604n9808J1893P5934J09479Q4329l671
29009a39285j01854j35208q9368k8679j2279k3734j2318K5624M8658L5975M513l2993p7769j07566p9908N325Q5889
28992f34977J07827Q6850P2557Q0816R4593J05267J10150Q5635J1607q0330j29614j23306j05890j02301q0323j6342
28976e17781M6190M9336O803j0698L1973R8766J38097J32865Q9029J6980n3961p5490k7556M8557R1112Q3702N6704
28959B04628L1461m573n9981j06253j07055o9503m0183m5910n9587m0396N784L2067J8092L183L2181Q7709J08402
28942i934P0938J9776N408K4582M4471O0217Q9894J18613R0654k1139j59869k26679j78781o9180J5694M3534M8604
28925c3197O6350Q3963P1492M0010L2805N8661P2607M1687l207j3791L06j3776o9561j18768j17961p6326k3564K6777
28907B4507N5873K3856p5866j67749j54907l3485R5029J36345R3281L1153p030j9982j0072K8263P9060R6862M8377
28890B43515m4707j15328j07379k6517O3552J01194Q4134N5950L6962j324p2532j19128p2240L7385Q8714J6352
28874A68603j01038j39961q4078k2474j7057l8892m1339k9957k8119k2570J2259O4428J01924J22696J46665J66784
28858B57874J46653O8800m0475j31968j59532j01631Q319Q4448O4954j3016n4867k5604J9873K8086J2439N128k104
28841A67377k9596o1716o9643n2407j7918M2650J16734J42462P8794k0727o8953o1940o2505p9470n4277J9064N6453
28824D4382R517n3295n2379j4812j1050k9438o439M9534O5081K7938Q192L5044M3473j3991p7913o5733N436M6000
28806I547J6651l7942o6896o7385n6516l5478p24L4833M9943L7006J1484K534K6970O5938Q1262O5300N4321P3155
28788B64003Q9325N4386k3955q8532j05088q9493o4377l1521L090J7136M308j2623k0228l5715o7110q2117m9629O760
28770b31380L1985R470k1411j6584K6936P8387J09816J21364J34452J55242J49075P6480l8176j11158r9761o2710
28754C12027p5855j16416r5896N79Q3351Q5488M9036M0808M3188k426p8955j03327n2292k692j9888o6524o6670j9679
28736h6143O554k0454n7370n4154j4981L0633P7800J31721J66968J45375P2794K08m0202o7143j02542j23876r6282
28719c1094l4980L420o067k5670j0644K8118L9927J668n4411q1796o9870m3479k4584j1061P239K8410M4553N7633
28701a82688P4849R1719R3748P4231L8288p740n3814p5880n3696n762J9426L56l3719n1535o2379q1627q2240k6442
28683c24905O4534J20661J09990P5064O7722Q1119P0399K0332l3485m6718j4950K2731K7893Q114M286K6148K6387
28666C05322l3633j14391j38086q8889k4092J5697N0282R6353J17231P5635j816n5741o5177n0810k9603n857P642
28649F0067j988k5060m4761o4895r2913j07831p9548j4622M7667P9106P4480L1679m1055j00858r5834k6906M6307
28632c56965P3871O5222N9444O8977P0228L9531j5094n9949p5298q4392j21721j66593j46399l7941O9931P0573k0435
28615e67010q4058n5983M017J9741M564J4709N0129O2080L1691j3914m8204n8792k6404N6477J45134J70047J17444
28598a78332M3920j101k6761n3832n8106l895Q4356J30595R3526J3371l8910l5873l586K2073K6812J6008N301J2902
28580D8468M1784O6760N6552J2821l0361n0823o0870p5512q1684n8611j0262M5266J01902J53358J69663J23741L9253
28563D91445k4647m3049m8418p5307j13034j27754j04232m9072K1712P7768Q1967L1644k1980k3735K2141O0832N3268
28546B09549J1742k6991m0992l2941k0119k1702m3364o7668o7887l6405N760L0585K9707J7120Q383R99k1137o1201
28528a26562r2084p7459j5888M4026M3230l0150j23064j57372r3098L7324J54309J96396J63981J00070L9666q216
28512E5109l9054m3361k7873k1632m0836o0774m4232P117N0088N1749K7755J8881L6946M8084J5029n2843j05090
28495a24937j05545o6967k6328o149j2719m6139q1791o3175L8890J61706J96993J17964J5052k1194r583k9189r3246
28478a56357j28483p5244L9643J38536J66022J14984J2350r6526j62894j58793r5590j8389K2024M189m5733p5792
28462e16053n8869j7624Q347J0014Q877J8241K6909K3626J8043K5889M2503M3931J7374j5246j4989K5864O3728N0707
28444b38728k144l5028j7823J3404J5254r66Q25J4635J496m2407p4631p1215n9495o6223o8568k9105M0176Q3646
28426e36897O8296J6162l2808o4063p9404o4944n96R3221J48152J15379L1931j0909K9635J03167J34318J07177O0620
28409A18437K5315P10j5406j1593J5659M7218N4717J7520o5184j56785j87565j14986J2605Q9241O7543J0484J228
28392i0842L4104M1690J2335J3412P7474J26370O7091o4434j26327m5630R2319J57781J23986N2966j6807r1404
28376C64084j49391j37863o0114N385R617r58L4486R4292J12216P6237L1969P951r044l5515p4234j26382j78750
28359c6014j89653j30124l0144N6021J15557J61685J71585J06039q194q3101p6041l6953k6054l4604j9087K4513
28343c4569N5422L5138m1196j39200j98827j80306j07740l9120J0355P3516J51560J85533J38229N5234m5l3171q6687
28326a55874j46693j45249o0028L7506N5580j6949r8022r3822J1481J43389K11678J91488J24675N7476N205k6987
28310I4854k8558k583K8703N1062O6298O6776L5671j5835m9104n3006n9947q6209r8580p0627l1537j9534k0491K359
28292a90288M2770O0292L8101o676n4114q7518q6264m8825p108J3885K9553N8525Q3880R1450J08042J44282J36238
28275C26225K4717j23796j67014o9767M6818O9259K9878L0869Q6791J11034M1189p8663j50231j27238n5856j5336
28259b1121k9039m9131l1520M537J7743J6615M2971R7485J34945J32436J09677P7716K4442l4862n0588r820L5165
28242D67651M0274K6205K6717K4601j4110p3049j01648q1146l3893J8148O4236Q4817N9938k645p4113j33116j64509
28225A34358j45818p2298J0397M0514J6494L908M6749R8547P4112l6047j36370j29814l2455M8061M8644K3193N1915
28208D4090J17203J27411N2875k8703l9866Q02K3867N233k6298m8072o4111p9046q8116q7938p3983l8767P256L1539
28190a64624K0468M916J6920M1072M0946J4309j5888m8436r6096j38258j29854o4287J1754N5907O9288O8757N4224
28173b58882K1441j6998m2697n0721m7466m0532l5901l3098k0803J0253N1182Q6790J20269J65492K13067K25265
28157C46661J73646P2678k4882o0688j4095O6726R1325J6728r4159j37307q8497k0669K874L192K9158O9186O4774
28140D96651m271q9571j30523j14110p5338n7876p8441j14261j19421o4760K9623J04661J11792N6523n478j8398
28124g3198K1976O4713N4352j4940r6218j35319j14212n5847J705L4457M5048N1527O3276O9311N1367M984n1515
28107g8533q2606n5653K4927J01166J04985L3045m3294n9938k9567p464j4325k7490k9176j9961P152O1143J19251
28090C662J38456J07096N2172n436o3889j06079j01311n8294l0877m3431m9597j210P1496R2302M0046k2500k6281
28073c675K1995M8717N82q4470j07061j7953J15083J76160J26215K7488m5599p2671o3160k3392K6334M5333J5731
28056A85657l5384p6486j00706r7693m2790N3927J29534J37049R7546N0536k880o2965q5942m1229J9121K1004j9779
28039A28520k0655L8055Q1013M6314l9440j13874j50475j52103j20105o2224k771L8718O0197O0805L8783J3026J6251
28022a39965N4343R5858J08995Q6608L5294k9805p6692p5999l6347O503L7206O7328R4801R3282M8330k5249j01650
28005B42841j48972j27351l0282P6301J12103Q3972P0650R8191J00916L2916n1381p5098m4513k4958m8056q9770
27989A77509j11936q6707r053P8391J03225M2761m1777q0421o8730l7319N655N6899Q7351Q2083P2303P4057M0301
27972C84592n7106j39765j07536Q007O8433R161r0865j33451j11737o7465j3366N2668J04653J10250P4417L1546Q820
27955A31256R942J6209M02l7542n5703k5579R643j5964q7828j20028p7672k3699k0264m8568o1028n0751k3833L8216
27937d42791J28014J71586J10604p91n1958j7598K1546j765o3599j02590r6630o2678k0929J1713J7525n097l0938
27920d36376l1430l701L1180N1312N0297L8572L3246M1209N1751N2066M7779N7604Q7245J18929J29959J13159P5314
27903E08115K4799k9190o8558p2570m2884j4704k4900o6393r3470q2223o5539q8270j43548j79189j58245q7898K442
27886f82225Q2157J24775J25106J09305R7927O6721j4951j11599j41505q0658M419M6607N0700N1287N1612M3738
27870a76584M4811O5446P3690L5360l4362r6139j32284j30538o4377N5958J49063J45271Q0245L9699L4267Q089m1809
27853E5806m8827O931N3690L3505j9328m5118m0498k7601K50M4950O1133J2940n1857m7060M0850J37544J73215
27836C40525J45846R2508M1148K121k3851m4595o6075p6816n9100k0426L096j6003o4863j03525j06576q7280p8615
27819a22481r1164r8053p0285j7174K7517N3189P6165R3180O8716j0059r5247j24400q6810j8806M5721Q7369Q3123
27802a99499K3460n1086p3275k5923L2238L4861j7501o7616p1528l9407j1706r676j4483O412N4880R2842Q4998M1826
27784b10183L600j2481k3474l3911q851P8736J87985K34129J82600R4017N3984P0953P0717o819j32414k22423k28244
27767I7921j70156r8070m8243l3561m3039m3337q026M4520O7922N2574M1679O3015P9640M4952j7887l9048K766N3463
27749D7085N5741Q103n6182j08129j23308q2435m668M3946J2876o8793j19078r1784j5094N5681R5176J08457J00580
27732a41826P1251L2618N947p718l2546p4905r2408m1114M7316Q0615K1444n1404l8844N0279J20375J19480P9841
27715A48401L1031m2752j27716j43852m8428P7390J19101P2919K5119J3510l251m1946n2449m933N4333P0544M5840
27698A92861L975n1964j04422r9698j7519P7122J08172Q3841O2932N5163K0017m9421j05980j13301q1645l9328j1262
27681g0457j7474m5169l4150N1563J45741J43229M4400l9371m0713j4730k7289m7440j5188M6478O7250M1948K8691
27664B17319M9102O0728K9170l0066q7665j30598j48321j28977p9081j8724M2200R3956J02981M2659m8583q3620
27648a17520j7835J02608J90530J89927J00831k6520j10543r1069J0123J01841J13253N4611j7567o5959q6108q2772
27632B47831o2594m0616l1392l3628l3265j9692K899J4098q819o1604j01962q9376l7302k772j7835n2354n2484K327
27614c78540Q6548J52539J60949J08653L6670n725j0016m739m491Q021M2102P3230P4571N0274K0607m567k0974k0024
27596C65088k573J3173J2020n174l6064q0249j17014j09192m8301K9981R3226J43049J73640J37819K876j75372
27580C96933k82400k53648j27629M580P6003P6672M2060J5521P080q085m1538o2406m0690o93N120l1800o6662o3842
27562c55424l4358n067J8301M4074P1756Q9224Q3125N0082Q429o871K0908O3713P6402M8376Q057k0308m0558o4762
27544E5099r1582j07742r4647l6945N4394J31443J47897J09136N9135J9095k8237q7348j20576r2903k2378L9815
27528f6344O7447P5487Q3995Q6703O2302R400m0248n1961l0199j4834k8314m6119l7382j4818j5404m4159p0338p2004
27510a46790m9698k672O5496J16947J03847L6384j7797k0779p030j4950k4281l235K2118K038n2975p9028m6590O963
27492a12032L6460L6461J9370j2062m7648n5575j3961N7078J15710J40142J32091R0666J0412r0387j62268j63997
27476a9540j05835m0780j0916j1743j3160l485J592j0055k5285k3171l955J1536J0344O507K5353O7286R3193N8909
27458F795k9550j07591j12932m7632L5888J00307J47291J77453J64083Q9713j2386q1667r0206o0541k8892j1108n876
27441A33149j1256k5337l8587l9503l1692l7237p1456j13378j16000n8770J9135N5970L5865J232n772N295q725o5784
27423c72851j28376j30958m0733J00319J99695J95768J12094J8055m9978r8523j21122q5619O698R5277J24967J04678
27407g0609P1936L3426j7963n5914m5778o169Q866r079j1877K2712M8683J9371m3155q3988r3046j02426j17963
27390d52973j01634l2564N1428R6953R7455Q5461P6553N6865K7765K2568N4292P6506L6183m6315r3052o6419r876
27373a20804J9337J5818K929j4549l9319n4303m8068m5517o9378q7590m8545L8032J06149J21471J13650J11210R6734
27356I7257N1340o03k5030k4136j5669N386M6212P8742O6439K1254n347J0580L9071L9731L425n3226j06466j30756
27338I8204j12210o8770l4500j3499K3433P9945J05347N9601j6497m5761k3364k4489q6574j39358r5758K4542J18179
27321a51529J27253Q6049M2375r37m5583o0736k9846P238P164j0719P5L4512M7634L0838J7235J4239o022l9061l5863
27302C4316J4471M9265K2446j8616k476N4079P0063K4681j2214J1834N3520M1013j8000m4835J526O8024P5082J3487
27284D37666n2863p0147m7802k1304L415L7486O2579M3985q272l8373k3102q606l6476o9539m0934L9442Q1727K5477
27266C14359q9114j73484j83595j44851j08024r8721r8486o5612J6279J09640J58494J50649J20679R1625N0843j085
27250D9596j8965K9177R5164R1528J658r3424j14837p8616n9250q1630r2168m4357K4689L6234k4736q6589q5797
27233d52323n1137o0862j31424j89478j61057n6585M8396R3697P8029M1884K9805N9021J05336J25105J03617P0946
27217c47030N7370N2822L5768K3895N3871J11162J25568N8434l7559p6082l7327K0503M2007L3237L2548N1575O8025
27200B68787O4513M7678K5140j2124o6588j08365r9500m3204J6108M5720N0669L9646K402n3022p5861l0753L9382
27183A10628N9743K5277P77J7056K8865k163m1365l7374L35K6580K9499K5629J2726j9425m8283m3286k1938k6736
27165I6545m9858l9830Q526L0006k0938j02768j38627j00173j4671P5779J31904J27654Q1744N7814R5181J51059
27149C89347J44541N0559p7853j72513k05546j86924j39683q7574m9147l3336m2518p2404j01049r2050k8410O1684
27133f42876J28066J42899J11440N3212o223l5328j7628K4487M8318L7854J5633M577l094k7242o0037o1606n639
27116b93187P2199R1645J7101q0701r2111m214P9097P7746M1839O2923J23524J21022L1730m3402k5373L1477K9246
27099B40561l0064o0551k2271L5302N4988L6361P045k1426m4467m3427m933M9229P4431M7738r080n3399o5271o3086
27081A27680p3234r0476q3440m2641l882p661m6022o9203m2546J9033P3217R3044Q5175P5485P9809Q4934O0890k698
27063B37464p7248j19028j07928n7243M514M8781N3784J8797k4187k9586J9244Q9888J28047J04998M0565j6587l1747
27046B82528j0075J8437L3533L5760L0084J8634J1553K0605L2795J7390k3513m1235o928L4661J9814m1916p9002
27029C53125n6672j3138Q296R661K243k8255q4859j23930r7187j1176Q2316J36089J28340O5625n341k1314K3215
27012C67038N4051J2672n6607o9717k6050K992m567L391M4744N7251l06p4965j02203j01235j19926j30388o2984
26995b06809P0790J67855J54667O0716l8052r4673r5133m0857M0891J02752J22441J20476J15867R3468L9955j4236
26979F00118k2165K1713P5714R3721N4782l4066j36363j96622j84229j29632r2693r2556r3478o4340k0933R181L6780
26962a75068R1730J63021J95960J59358Q6247K7884j0217n7616j17201j50946j31358p5531j6312L2241O4550O7254
26946A53996L9330P268q777k5666o1411q6389n5753J4714N4956L3005m700n416J9643K9320K4186M0337Q3613J10720
26928C62976Q2329J0448n6949q7179r1723j05365j38136j55921j20988m4740K3501N9722Q5283J13990J16007O2484
26912A15739j9469p0179o3249k1200K0642L7167J4671l4301o1698k5806N2476J04280R0642M1164Q812J1515K9711
26895B30917L9260K9466J447l4097n9768o1347l8029n598R268j2020n5763p8387m7488K2703Q7816J16823J04537
26878B49740N3988k4715r8394j24641r5751n1061l1911l6717l3252o036K4256K9088P723j4899k3473k9887m3658
26861b49600m0127J1498Q9655J28613J00893N4890M3915N4676M6916L1527M9277Q4932O8370k8509j49783k26883
26845G0260k43836k11310j25902N042J28327J76071J26155J6086q6796j19426n9872M3684J04085Q2150K4678m467
26829g5071k211k525m454K1682O3004N8051j6281r4388r5560k7056K6737J7030q002K2999R8087J33549R0014K8268
26811B33873K4236O8528R5012Q2289O6780O1636L1022l4151p4971m0832L2037O4360L3297j4860l8343m4871o3492
26794D81550j02913j43749j55771j22880o2057j2066M030n629k5987n0000n9401k5005M7454J00351Q6317K5823k8767
26777d8700o0952q1657p9092l3073L1074O1832N7975P0540J17934J53210J35827Q5876L9101n161n4241q0526n7234
26760B52733j0877R163j325p952j553q047l6839o7769r6159j40636j86424j70689o4806O2052J10649O8033R879n203
26742b85770Q833K0794L5461O2304P6431N4484K0993J2163J1206k9384j06113j57064j45245j03485p7934o6262l8032
26725g06620J3240O7518J09216J36187J51214J62643J79437J90099J63221Q5978j3168r4197j40275j50872j26444
26710B7177q0260l9920j1887L0240R3254J28777R2105J6044k4487j3488p529m4992r3433j05534q3929o0805m1862
26693b20529n075N4087J01439R2318J6957p8514j20250p1935K5645R4647R9728O9777M3292K3894K455q603O124K7658
26675A53115J7606k9040p3534q4157p4341p3879p9562o1251j3460K8653L5687K1598J4654J1781p766l5806m0960
26658b90662k1671j4868l9996o7811o2019k4123K0455N4353O9000O1124M8118N8157Q3461P4852J0190o3131q6248
26641a90819n9487k0766J2869L7853L0700k1149p4824p5771l2402Q254M1343R1227J27191P7780n0584j45394j17685
26624c61664n685Q7721J12633Q7513L9961j7514p3390j17565j44987j38891p3595M1668J44910J76449J39506Q8050
26608a4880O8979Q8061J11869R2155J3323p4338j00134o1970k8989l9391m8963j6727J3325k2710r8209j24520p9015
26591c22134l2902m1230o6861m0452M7517J45253K01167J97947J45159O8799L554k7521l0984l2460m7029o5410o9798
26574C2615n8581n0684o3025q5942q7315m4837K8702R5338J26577J27332J25346J35920J40676J09613M2686k6525
26558E47896p3248j07174j43950j74044j79940j61696j20484m4375N2074J02555O0523j8410l2604K5474N6255q82
26542b12030p9023q0535o268O1451O6786K4018k0230k7715Q989N5354O7449N3674O7555J18494J41441R2496K0136
26525C52042j1265j6091l7633n0771l660O8662P0112j5092r5855j05831q0992p7447q4836o4701j9703K2645N7106
26508i3310Q9211J04739Q8151N2037J9810k896j8352k0882j3614j8792m7278p7311q5657p8773o7799l4839M0780
26491a64775J32447J77127J40355M9643l9108r1840j10728j12912j02980o6592N897R1695J45450J43644J06328O6099
26475C69750L2106J756p912K6987Q8996J12733M9260p0736j57418j47971o0867L6719R6818J12007Q5504J3428r2753
26458D88407j89820k31855k11233j57260r8690m0562K3847R0235J36278J36158Q6835K1528j4300q292O560n762l9488
26441g414n6727l4811R838M2831M5517K6654P274j496j738R535M5516R9968J28183R0426J0315m8256o5795q3658
26423B16162j22060j33848p5706J6070O7068N5031J5568j6990k6585M695P6563J36638J20314L0241o4285j07963
26407A90913j01020o5165j7947J1315j0893p5838j24671j06612k6862O8555J32069J37140R0916L2158n128k6528
26391A02402n3869p6071n8404J053O1196Q7581P9588M8359N125k5975k3339l504n349l3014n0719l7576p247K9709
26373C9946P6201J13169J04243N2224M789j3204k6984n4211p0948n9545m0910l0665j1465K0177L0632J0491O971
26356A50911M6419P2181K0221p9082j40065j39046j25392j27112j14410o5053p666K1931K8067L5061M4485L6641Q661
26339c33248m378M1610J40505K15794J88368O9053m7312q9872p7774o2704m9904j0756N8460J27729J61283J29449
26323D56303K6089r5383j43940r1698j5974N102m215J9819N6948L0600n6684j09783p6247j3616O928l941N487M1702
26305C7497O5179M9298P741k2686j3088K6383M4652N373n8375q0854n1297j7670k513K3664O7479P6847K0724m6854
26287A31500n3399k637M8177P6370J02215J24370J06458L4013n8712j29148j61558j55344j11533m5697J0512L8593
26271d5820M9301N6453M9573J0696m8931q8866q0436l5313J2959M4674N8948N2702J9684k3466l5927j35M3465L6169
26253G5730k7817r4239j12503q1387k8240K9255Q6324J36440J69992J76253J38719M7066p1890j53715j50728q1197
26237E8063p279K9504L2761J9426p080m2378o3037m5503K255M5883O2402N8054M5282K0720j9070n3414n3016j8294
26219F5279K0353M4551O7656J02180J28545J14062N0880l9027j24677j78263j81168j38234q1112m3881l8475n5841
26203b87172p3924n9860N881Q9686J20053P1279L880j3405O796O123j7896r199N0802J06809J02957M2372m0587
26186A04595j18077j60262j39517p2758j9385q281n252J9007L5019J2369r966K7080J03861J38599J04143O8229R6380
26169A75784J59747J72812R9427j1791r0795j15635j09949r1924n2872Q666N7560N4383Q942l0408m3420n8743r3125
26152C8659j05904m8110O1774J47064J53797R5626K2357k7483l9634j7466K1458N2562N9683M3350J4816j3730l5412
26135D23407n1209o5163p5166p5061o9147p4312r8689j25468j28193r9129n6250k4687j3430n366K7928R1250J48180
26118b70505J54302J07463M5988p61l1794m4018k4459R677P505m3490p9341m2233K5997L4543k1352m3795L3753
26101a82520J52835K01251J37227J0122j07114j64619j39827m8955M2349O1039j314p7014r4785m9746P919L6436
26085b16716L4670J8989m656l3016m6386k0822L7626Q7645R1849N3309M776l0240n2637o7122o1852j8654N7255
26068a65982J23266J25068M8464n4010j03035o8820J453L9905K7491o998m1079q0181j23268j38754r7870k0914L3162
26051e02102K9281k919j582N4673J18247J27151Q0308L6509L4841M5272K0911k4796l3794R242N0342L9819p057m6849
26033B7497p0472r2233j01953p6456l0819q720j5830r877K7539N7069M8332L4351N2949P1458L5132k7555k5735N8284
26015d7039J29498J09380L9798P843K0057J8808r383j8323J3435N3186P5294Q8818Q9659M5753m2218j14908j22676
25998C36982q2800l9585n384K4924L7403K0712N51J0187M1728O2500O2938N0595J4124o0063j41663j73871j41750
25981A7528q4762l7012L785L6541L1060k6013q6612q2435q572O2649O0882m915o2388o2365k8805j3392k1169j1002
25963c16997L5082Q0348Q4510N6079L3085L4993N3368O6290M2954l4134j23184j36031m2799O4562O9248k6896j16600
25946a76122j32216j06310q3652n2945P17M3019M1979K6490L8240N6495K9239l5085o4073j5059P0332J19438J08048
25929a31465O9753M1632J9026l1843j19481j95993j96284j10499j55O4593O7265L8931J4357J2281M0046R1562J44228
25912a82046J73156J66616J24089N4222j6876n5094n2075l4464k6036k0570r311r658l6786o6323o2386l2668j7205
25895a03415k5887k7570o841Q790m346k5188j9343R580K6447J1364k2574n2223o4339n3503j8813L0568P6193J03562
25877a57538J12264J10542J01534P7077K8247l4355p4309n6709Q631O0302M0555l7864r5151o6537K8268J10950
25861A55907J29924R7984N0547J625m4200o9056o3576n3817p0657r9738r7148n2381J080L9744P3454J04540J07205
25844B11437P0290K2559j3327n6901j24021j76391j63220r4329k5137J8497N1252P1997N4061K715k9049o472M2866
25827a43173P5845R2557J18561J51593J58318J15978L6581m3058q2694o4189j3134J5094j3874q2793j48057j78320
25811d765j60387r4590p194N4579O8833O4516P2713P2819K9385l0432l3121L6944J02674R2097K8964j2412r802q60
25793B69961o187j920K5280M6275L4304N473j2442k3869m6916p0371o4824k8901R163L3930N2462N7440J9452o1959
25775B36351j29408j24392o1655j3676k0023m2264k0618M9240J19196J55705J72330J87691J78748J06388j6301
25760G77312j13776j24866p3525l9926o6633j16103j22684o6260J3170N8605M5241j973l3482k6497j1259l1132p7760
25743a1548r2028l9663M0405Q2944P0863L8118J5002K063o975p677K399J3346J3666J579j6071k8040k5042j1719p537
25724C4085k5732n8043q9273j13927j25021j05064n3036m969N252l107J6707O4103Q4343M7465n315j5764K0554O2687
25706b64055Q1003P8557O9861O4048O4004O3324M6606O143m2203o6298m1141K9406J03172J20479N9536k8856o9985
25689B73601n2190l1789m3576n1968j8556K5236K1399k3650m5626j3552L5167N5807M8867L6950K3534m007m8885
25672A86762r6168j17813q6082m181P3839Q3100K0616m6666o1179l6388j7969r724K4409R2661J49087J46148Q8133
25655C88585J6581l9568p9750j08146j18446j05503p4985l3783J5716O2518Q2937O7021L9619L2353L7521J6614l9130
25638A60154q4398p3944k1136K0869K4444R398M389J1164J2745P05j4127j1428K0740P1973J12193J12831O7082q196
25620D15458q3295j28708j30926j02688o9525m3678k3302j5271l2681o1214n9165j3651K9251K0746k3874m8620l2407
25603d03550l031J5978K9466L7702J9661l2646q7286r7397m4988M1614J03273R0885J0806p4168j05274p8780k1511
25586e99246N5196J37985J74624J19814J8205k3268L3240J05088R5534O986q1058j07238o7896N107O6980P8642L5091
25569E3786k9751p6389q4100m6459K1118O7060M5844j1282k0733L5428P3733K7998n2722p4470j9964N2656Q9256
25552E1009O2516l9066j75504k43777j77456l7101O6111J10132J49046J88139J70367Q5508k821n3545q5182r9386
25536c1010n8485K7885Q0341O2964M5770R7331J74888J83466J01501r017q3583r5808m8465K5008O9531N7614J2281
25519F12212l9920j00667j56920j57212p9983J4184N1857L5702J2535j0442n2888r2655q4040l5453j047L735J4948
25502f6054M4909N6565K7142j5983m0769m7471m4539k9591j1883j5478m1119n7632m8336l5401m0551m9659l5978J453
25484d50375L6888M1020K987n0362o0672N777J08393J72247J75850J56926J31895P0746k6761r3075p7121k0572M571
25467A28362k33J6862N0613K9463p3773j83896k08446j41607m8831K3235P8087J21094J27388P7032l982o3501p5113
25450a47246m9915m715N2875J05043J22514J02147Q0738Q5357R0124N5327n108l6179j8311J0647J5003J290j3865
25433D45726l4666o2617p8033p2993p1112q1771o4406J6707J19231J55729J02806L3739K6063O8239Q2231K3293o6699
25416E41467j07071o7787k163J3103l5769q8618q9219n1716l1206m5464n6686k9654K1053N2996M6274J8073k832k629
25398H2152J3411L2236M3237L9458J6446k0227m6155l1121K7274R0368J12900Q9982N8460N0010N3125K8292m1643
25381E98205j22456j56168j20804n6285k2078l5158o4514q0541q3674q0434o2697k9370l169n0J46K5111O5397Q6731
25363a41808P6686N0349J9281j1945k5156m477K4212J0662m8907r3248o9062L713O0308O2731K2181k9992o7442p4026
25345b35940m6110Q540P8176J44789J75945J42304N3660m2001j04357j24947j03882m2462K3920L3036k3793o6950
25329a30072k7130M9701O0679m837m9679j1693N0883M8930k0781r1890j18792j02521n5266J1675P7302J27744J74317
25312a1430K22885K40147J89012Q8708l69m8681p5537r5809r4085o5583m2484n2599p6385p1832k8411K5826O2003
25295A65376P5220P4173O2034L2511j8635p8229j14430j00780m7148k63l788n3394r2396o0493M1731J39861J54423
25278A75773Q3863k533n5031q7930j18687j15108n0526K8558N6284M6082O1327R8928Q8970J9313l2342k2569p705
25261A66667l3010m2947K0086R6945Q7848M009n4585m6203j4633J3872N4780Q3168L6481p0237j27701p7847L759
25244A00452K4879M254J4225N0877M3430k9210j03868j16301o9257j1320J9675K6714M4113R4322J47086J41389O0655
25227D42115l9975r9127j12865j10214r8136o6341k3934N727J4495Q603l451j45M6587J22722J61254J21210N0012
25210D18537J9420K4982P377m3593p4997o1350m2121n1408o7430n8998l6954k7575k7120j3515J7169M8646O3240
25193I4310M8200k43o6794j24211j55113j53132j10565l3398L7323N9150M6690N4079R1474J07801P3800K9149J5021
25176A3541R357k4786o5929o4416k1383J7689L4061M7002O1931O0811M4972L7004L3945Q610l0196l0032K7090Q1883
25158B41154O7982m250o8612q6230p2842n6494m3043k2870J1544N4493Q0592O1053L606m0269l4462j0487k6295q0721
25140b6151j10130p4346o157L7519L7603Q922k9826n7543n3013k4401r825k0404j4449L4351P7113N3512p475j8264
25122b02964M0999R6991R3585N7714L2011J1247j4757j7853J5094L5729J532m9421n3664j9043O23k448n8p534o1696
25103d3913j23531j02878k239N9801J2896o2184n5948J7001O4435O0614N3541N9059M3652J0906J6792P6603J25197
25086B09804J02469K8286l8158o9972p0288l8334J7684N7822M6886N588j4529o024j6269p3026j34730j40014q4914
25069b17719j8756K7474O9003J11793J09160J7190j17915j80539j16523p384K3837l8587r4587o6486P431M3423L2908
25052d16277L9855R0636J26050Q5382l863n9903n0311j8590j1518k4510l1370k7817j9378K592L9211O2866N7310
25035a59635N9472J10345J71913J54482M2669o2590o2358K1642Q7440Q0803L6877J3436L0329O9411R3703O7726n453
25018G50212o8682o7843k3487o247l9067p0197n6807k6631k6026m6036m1940k639M2675P4195R4540R4679N0490l2806
25000E98383j04561j18888q5237n1821m8225n9185n1681j6419K1333L0891J3085o46R583K5874K5659K5868N8372
24983B72385J01080Q0116l1308j51733j75191j01112k9990k7640m6943r120Q0633J42823J28634O8752J7514j1778
24967C07122l9019o9026p4342k5549O7520J45962J42046M2881q8506j68995j69904j23345o5729n094N4293R2178
24951B2493R7749Q9039Q2946O6836K8228n453M682M5888N9081J5364m7763q2884r3426j09952j28206j10044m5968
24934a11390J6598K4044j9113n2419k3884N5112J20328J19794O8110L0087M6134Q5012Q5058L3037k3443m2808l7759
24917C72498m2761o2923q1800r7118j13974j18265r8261q2724j06366j36194r5013J7741R1881M3874n9240q0805P519
24900f41931J03309J20547P8837L0204k3408r2747j38774j11868k9375M1222O8455Q0831J06232J30054J25508R5254
24884e7650O4845N0036M5866M2988M3284N3789O5868N1728k556o3325p2403j4164N8512P8006K8026n0984j01149
24867B20717q2216K446R1439J03687K4136o6774q2422l2178K722j9918o3962q2543p3715n8017m5335m2468n5871
24850b60272o5657l0795N4876J39522J69784J44380Q9922J7415o2118j08612q8838l0031P197N575p67Q858J8079
24833H518K1903M5474Q9690J04628N6410j2738l6078j1261J0777J0784J7580L7988L1418k0609o9153o1529j7710L48
24815B06440k3811m8229l9367j0867O577J77k6277o0966q4450q3269o6346m8625k2883K5205P9080J03893R7561Q9521
24797I3364Q3695M9353j5442n9803m8099j0447Q033R578J7468K5586K1588K7629O3102R1753O6274R087j5493k30L718
24778D20714j4760m594M8664P4714J3986r0674j47202j24169o1460p0M7244O8738M7816p141n6643o4601k8219K4911
24760A47254N9338N6323K5434j0879m3227p3344q9336o8325j2425M0419N3115J9980m0476r5158r6769j8859Q8718
24743e8217J21508L3237j00977j66869j31219m8885J8792M9007M3821K1124J2036K8983M4491L2658J1943Q543M072
24726g5952k5558m2331R044R2936J02011O520q9958q4130l033M9084K9200j4367k3631R309N2982O7030K7860m7133
24708C9883j07647j22060j06555q6914n8406j1096L2816M5892M0527M6263N6094L9850N452J156M9575J13532J36546
24691A14908R4441Q298o8279q0790k5327L4513L5917k612r445L3709O4991L3519l5516r1861j27252j52787j48544
24674c22117q7472O690P0691O9539K5156j6150k0850J5453O0235O1721M133o0531o5438r398M6609O1309N4694N9009
24656d6717O4398L8774j7495o5045p2291n0734l6982m6442n4216k6830L3126Q7647J09556J08878J02609P9652K0715
24639B28603n6620j01740q4647k7918K0120L2410K0292J1757J5163O431l6783q8940r1458k9273L5961M0342M226L065
24621i9009O0672J16193J03048K3768o4565j08799r0686k5767N0332J04348J20603R2174J5797q2787j40142j11710
24605c6530k7708M6590R3885J38905J70642J38520L7777o5223j16009j24604j13494p5446j7719J0590j8909o9620
24589b8353r7341j03665r4156m3310M4538R7565O8391J4332J1068L3559J2426l0326j2032N7958P3273l416p4805
24572g4294n0834K9644P3342O3980N8232Q8828J25667J17482M0725p9052j77793k03712j66944j18485q2521m3090
24556c98825O027M4722O5141P9317P9646M2307j6228l8052J02N6161Q5903Q7323O3557m52r2331j54280j47659r5684
24538c33305l6182J9987N8480N1223J6380K6395J03671J65758J36094N5325R627l414m7891j19095j38996q0597r234
24521a25774J4849L690o210m891J0835N2502J06483J27307R0990K4647l3125o9014p9621n7916j7092M119j3346l9690
24503a1257l5443l673J8493J0353j0294j4907k042l44l0532o8373o1219J0608J03976J56575J45659R1270K1628m3071
24485B77407q7874j06722r9519n6539K7580J09178J07715K880j13706j34251n8643K8281P6176R8168R7038M8177
24469B15346k9164o1471j9143L1558J6267m9643r2973q1576m8526l2937l3182j8154L3393J03845J43365J15840L9007
24452B31852l4203o8052n7785n597P6584J41585J31056M1826o4240j27940j38495j07692m5729J7908L5980l24l8670
24435a1936l0842N117J6848j3775o3723j06287j21561q8460l920R5411J58003J61009J13742L4440m9836r2986n7483
24418e6239L7199J15238J10411K9680n5305q0812m9663j2447j665r635k9736p4301j27375j28831n7531Q342j4009
24401c96679q0094o7002M9505J60355J81980J53144J35628J13743N6016l106k0947k5296n6018p9831m8148K497Q4
24384G5831m0996m1755J1706N2800M6284K5532R423k9892r1386j14300o0709K5581P5066O6071K2572j8976k5128R065
24366c211L7786J2458m0426m2639K4168R0442R9869P4389N2328L0058N436J3699O4639R7648O1115o458l8587m5188
24348D87526q1090j36367j40024o9608J6754O5586P8126O1060k952r9678j54676j13870k3839J9759p285l5866o533
24331a42977M8738N2825j3215q8860j13745r3297o7764m5469m454M9763P3502M4647k328k1408o343K5780P2332
24314b32273J31645J71368J51034P2871j8464q0609r2385m4750M4746J14598J06480M0041m297N844Q800n8591j62741
24297A53317k11955j69253q0288j888M8105P0723O6840N5816P2862J19988J45696J02802R976p0657j03977j02793
24281A05314r0277p5844o8012p7010r3428q9091n1732M90M7469Q6651J12626J06021O5874K9378K8899M5245L6260N72
24263A19405k3628j8727p244o268j0K6799N6646N8092J8156n2661j24668j52088j04895j4761M2208L2691Q077L1258
24245a11618Q8685J13047P5526J4489j9889j1806K5665O5891P7583N1494K0995K6134N7643O9771M6549J2766k4784
24228E78141r2960j85891k34791j88548r2192l7196n1036p8862o1862R764J12343K08820K52319K17918J42590R2223
24212E90780P6408M1725l0188p1930k3963O0267O6468l5501j59120k16260k05771j69507j17789m0873M1944R4883
24196i8427J12592J12448Q9942K7137n3043q7606m8155J7207L9759O142m2311o5989n6586k3663J7351M2058K6089
24179A4945l0303r3261j17608q1199l446O8316R8329R0322O8423L6630j7876p8296r1742l3560M9195R0755Q2806
24162E2430O3637N1731L4795J1760o679l6101r9053j59653j40607l2153P2618R0459M8360K5726L9859M6839K5323
24145H9291n558l5151o2510n6147J7320J15375J38454N3619n5274r4446p0178n1140o0262n9088k4000J5782K3931
24128a19982M151j4841k0937k5793l4948k9355P810N0066M1425k8775q9182o4426K0394O3887K3474k9576j7660L2496
24110b31772L6117k5335q3652p6558q932P8286J51703J86488J65274R9508K8986j8233m9296p8294r3928p3647j9389
24093a2674L7116O0372L3141l6932j15261j49415j05741j1097N7759M9458k455k1007J3969M4233K6109p57K1290
24076a11892P1686Q4304N6590M8456O9782N3883k8187j07114j18586r7454j03604j12040n8706M0020R8716Q0146
24060a34000K8385n809m845M0752J23649J84356J53691M0824p6309j47261j75803j59796q4908J3709O4871N6576
24044h1918M3298M1634N449o6020r0808k8502M4198N0545L0450N8484J08557R6445J8259n0621p6695r7346j30019
24027a24610j35728r0894l2753p338j1561p650K6503P0914P8807K6394m8361q2924p2507p0189q8839o7751K2144
24010f16343J08624J18533Q5231P4193N9784j6916j07682j02449q408M3385q620p3738n8637Q106N7177Q9060J29601
23993b19099J48005J02493K4197j8837j5671j0084k2791k7796K571O4236J23389J32832O9847k3870p1681n2145k3893
23976A81703l8567p2622p7141n0942k3249k594J1794J438m0497p6132o6085k2905J7963N1554Q3752Q9901M7181j4254
23958B98m6076m7921m6070l0055K4482Q4622Q4756K4004k8159l1212j3602j539K1677N6341N1914k0117j03274j16629
23940a36560n2677K7290P3997Q3437O3261J3849m8860q4467o2426K953O2895Q1869P2710P7234J07572J21016P3377
23923D76470j1435n6533k2014M9891R1533Q1809M1359j4697q2506j39510j48067r9280l2455k71k2813p5832j11164
23906g5515q8997r937P3800R3925L2548m8001n9151K0925J16982J31496M7993n2799q3482m1975K98r399n2331q3874
23888h7494j01079j32869j74082j72535r8919K938O7045Q6208J02569J27705J23014O9831Q488k0371k9567m1523
23872b70641l1003L0595R8341R0221M72q4315r1511l0806N1222J21794J47536R6708n112p7165q4978q6577j28362
23855b53581j54456r4084P419M0883j288j3070O0579J41753J39502P4139K6047J4553p148o1497j09178j00336k7880
23838c17643O8328J26752J02265O312r1675j23065q1995j8875J9570K6852J8744K520k3180m6308l6928K1235R6173
23821b50918J23826P4332r720o1248o6238o6821r0093j07850q0137j3179M6246O2244M2715K9234N8720J23048J65777
23804b0062J37678N8485Q60O915M5125N8431K7814k3496n8120m0656L7804J23620J25993K0881r8082j23041o6255
23787B13894l0892n7259p3618j8900N9167P7545L7637Q731K0683L9739M2164M4797N0729K5060m5077j11251j21761
23770A61388q8018n6631m2517l2205l1566n6716q3411o0432J6655R2311J26248J35336J39227J14723M4757k6830
23754C52319m2406j0671J2399R197J0803K3540N890o1085j28399j35884q4109k1904J2244P249l7898j07504j52030
23737c48249j19532j9956O6290O6961p61m5880l851R3360J59843J56894J25364J12899J02483M4410n6313j26335
23721B07627j07647k6157M1591N4064L6805L3471M4593K9865k8329q3034p1163k326L8942R76o0146n2358L1683
23704H8457J15676J44917J29349Q4566K918r1706j25965o1376M3926J00996Q4478K2871o3624j57394k05592j61566
23688d9069o3201o411k8140o8479o4951l1366j3693j4121m782J0833K935k3290k0572L0582Q0681O9626Q777k9833
23670b14474o094L9803M6528R717k8838m8706o2320o3514k0117N9107R7587L4937q7150j66815j55753q9793j8319
23653f74214M4951R6172J17284J02087P4670N9051N2532M5208M0116L4236N225n4917j09864j11429n3206K9936
23637c02162J02537J43192J34287P6253J0729r866J3666K7046q48l6772m1614l4176n5197q9862p9666j3070M5423
23620a10100L7104j6814n1178m1375j8029r230l212K4581O7616Q4392L9219n1495j19584j09861m6553q876k9898
23603c63293n3481j7468N5557R5002Q4136O5993N6161J8347n6167j06741p8977j683N0204M1133r732o9723j10000
23586d00732j04072n2579N97J5418J1044L6369R1571J24001J08297Q4433R1535R9633M8430n7357j33927j14158l0194
23569a81691K6772J7954n520J8709Q4505J38811J49962J16123L2141r4930k04196k18627j39761n1960j5079p514L186
23552c31115P42k5003k7479K5990P7705M7690m8860j23217j31582r9259m2999M5939J36772J59021R2501k635o5534
23535c11323q8391p6367k0625N8801J03285Q8451O0404O4214Q1972P8538O2181N4678M1809M427l2738l5771k0802
23518A12743k4993l4804O5Q1661J41583J16310J5833r0424j37333j14054o6857m9181o0733n2912n567L3290J3164
23501a22209m3337p4212o8184o9160r4525j01860n0843M2392J32167J92981K19580K01128J25945J0032r7081j42858
23485E9956j08935k1031P5103J44169J66858J29976L6616p2080j35209j28933q5893m6459j6477J1493K8507K8297
23469F5958K5796K3799o954p1572j06188m9758N4113R2492K3626p5000j08028n9405K1426P5772O2053j8244r5004
23452a45118q0746K0923J04615R4709L8809K4619N0451M4223j4339o3570n4511j5875n429l6114p1655p1567k5264
23435b05839M2060Q6939Q3131M6087J4708J0820K6605M5415N8039N9981M8191K2951j3578n5324q4334q1615n8242
23418D5995n3243p7288q2707k8511M1636M1065l5868q7187k7887J00718J83356J64267Q6965J8227j9178l4647l4794
23401B00919k4773k1881m0323o6462o8333l3144J6196M6357M6442K8795M986k4752n7427p7913p4182n3667l2968
23384b32130j6149L971K5337L1929J2811k4328o1332q2000p5013l8174J2223M6476M7841L0655K2521K9091K6502n901
23366b45670n1899o9872m2225j273R151q852j2075J9583N5455O7480P7352J14314J51240J35515P6180M1528N9021
23349C74953P5935M5347n430l4647o2234j23306j81606j67415r0948l7861m1632l8216K0969Q2037O9327L609k5980
23332a37098J7549Q9388J41795J69232J70354J25914M1272l1138m5655j7798J370j1368l7785n4769n7637n0925l9383
23315B73318l2087l9294n8618p4414p6916p5299q4929j04525j13194r2703m8260j982L1562N4711P2033Q0539Q1225
23298b08833Q3834Q3781M9684l7193j35032j67170j07203j1132N1096P0113P9576Q7721O5446J309o4364p4522j2655
23281b45544Q0220J38689J25919O3736N899k5479o1286j25543j76433j49124n4889J1622j5249q9731j14459n5812
23265f87464L4362R2117R6497O0519J0360j9869q812K1167J9345l1210q7170r5076m6835L1342J19632K03236K47544
23248d0315K18276J31887N0672J4010L273r210j0563J9809N2770L3459m0724j12487j43007j51410j56261j27560
23232b67381m0604N6609Q7288M5657k35l620J6100L0127M5703P1734Q6982P4818N2176L2549j771n3491p5253l0969
23214A26419L7171N9017L1710L596j7781o4417j16668j03464k4243J1675p2724j97384k13986q9544O6159J41334
23198d23130J24330O5845N042m1938o4449o1924m7681k9415j351L2760M9235L5354J6132K8565P3716J13133J15418
23181a0358R1456P4183P3069O5705L6287K427j2645j8978m1636o8352n4360P017N6319M0985j0337k6131R570M1301
23163B55522K5750j0830j5363K0960N7316N5130J6089k8333n3310o3221p8145j00718j07134p7160k0714L7002Q4284
23146b875J21234J42272J41241J24420R6900M6586l2039j07146j34173j09018o7230l2920j442K6813L3319J1791
23130B57733k0418n1490q5628j15468j16798q3554l7835M939M5623O5704K9054n3445j04260o5520K3171P4269N9595
23113a74328K8704L3576P2906J06314R5346L5321l2256m8658K050P4835J18907J25945J06091N4968j8601o7833o2111
23096D51176m1499o2566j09338j19870q9005p2993q7860p7586q351P0620R9484R1105R4984J11216R1423J5637p1008
23079B85569j04871p1384k1060j6217n7703p9882l7763K3872L0592q995j3519M5508J00436R5149O3729N3985L7016
23062C24462l4956j22126j32684n4995K0217J8502l6814p7341p3891m5273k0308j6932l6452n8361n4606j9791K5018
23045c96331O0978Q5026R1795O6262P358n6971r1666q4489m9536j0420J6794L3998N7770R8388J42286J62650J42975
23028B76867Q1602j5582j26373k02328j96318j11420p673M9532M2180K979k0618n027L2728N2693L4801L316l51L5164
23010g3828Q2201J05297Q6363K7633m7774j00819j06050q0177o3970p5186r6381j05166r3350n8272k577N4025Q7311
22993d60720R5189Q8877O3649J3887k6882j1313M5623O9469K9368j5709j0696R168j8958p9490j05151q4631o8583
22976d66903p7618q0721o9507p6152r6393o9983K3246J12628J33025J18613J38934J82202J74957R8203J1097l9755
22960A5873o6488q2846o3806N612Q4432J15176Q6448L1327j5331l5975k8754j2526j8360n3318q5728q5996o5696
22943b75956n2543m3566j4989L0098N8351N1396K4652k429k6166m2058l8362k0122j2633k1522j3078L9482J07431
22926b52014J35752J13464Q1906P0908N9806J7058m5934q3413o6681q624N4795Q9555P7339K7413k2416l4771q275
22909B05868K7351M9332N4638L5680k2809j04743j51412j22172m8684O147K9135N3303P9885O1017j8760r1013p3254
22892c0491L2388J43233J83241J38818M5425m5122q8456p1586k1860K0730L8399L5141J6917r012k7592k9494k1583
22875C09096q994J4691M0275L2596k1057p6765q7513o8228o1808o4910m8106l1296o1162j14251j08551l2098K5955
22858c62126J2159o044M6596J25424J32437O4187O399M152K0074J5329k099j5216k1680j1512K4539N7366M3166o320
22840A26831k9239k256K6108Q114m3081q5268r6425p2125j6961L5431L2788l4192j08516j29017q8272j2312P5822
22823d12570J43520J44044P2752R6j172N5089R8224J02303J01345J07641Q0228j276q1876r1757l6983J0034K936
22806B92578k9478l1208R764N3546N8513K1167l2606p7547r9522q9639n1126j4038j9077o9121j10647q7360j0301
22789b86102M9110M3030K248j0074J6475K8915j6087r7855j61206j73879j34994n3369M5798J07566Q9590K4075n777
22772e32536L4379R3974J17357J10507R7462O4255Q82m4460k6627P142k5008r7928r0926L3976J54632J43611L3132
22755G3824m1901j8470N0907J01525J23111J21161Q1873M202p2539j02711q1931m7652m1682p4609j15704j18335
22739a58931o7067J612L4695J4473l1556o0097m0341K9633J12529J48211J04785J2336o8259j02119r2076n0748J0000
22722b02920O7108R2813P8407L5988j9210o9405q6384n4226k339J5943q806k1619K7012J05921J26512M4682q1693
22705D7784j52193j30370o8815k9208j0649K1332O5925R1352R2192Q8057O8495M741o9830o5966L3628J21772J04308
22688B12555L2009J5699N5332N3383k1058q9442r4720p4937p5720p8543o1721n5458p8532q2393k3580N3950P4641
22671b38535L7887P287J6625M4658O6725P5271N9186J4972k7003l5042k8810n0256q5069o8496J8558J07614J19803
22654C5375N3300k5972n7417l4476Q19J105l5026n5200j5515N6198R0166O4130K1987j692k5010o1561o8549j615
22636e8953J03054J55169J16955M0078r146k0149j8215j3293l123n352m1717q7520p7283J4299J18489J31086K3658
22619C68037j24469k04558j70001n4353O9379J34507J15049M2612k0298m1685m4425n6542o0790k4021M0178Q1113
22603D9733Q1776P5910Q2847O9854Q667o5066r1985p1771n7543o6739m8325L4322J25801J33335N1631j7331J1306
22586C06422R8914J36787Q2563k710m7877n0616m8345n6162o5237p0720o5799l2419K4501N4891K0298m0551n1657m61
22568A91822N1403N9330M2805K8505M055m1075p6992p7395o6706p8006r0542n9970K145L1133l458n4952n9816j4866
22550b12580K3354O248n0345p8274k9759O2595J14592Q5930K4840K100K5152M5511L3552J1305J5770N6415J05825
22533B42231J14239M7871o1964j26456r2274j3521J0995l6436p7954n1995J1977M4774K0019l3211o5584m0154L6502
22516g0941J03442J00565M3979N795J1713J4539j2256k2931J6225N5028L5642q339n892L0017K0045n1503j06528
22499A58600q4142j2763M7198P2104O3012J9824l9253p2983o3731l9104k3683j284M8007J01743J16238P6474K901
22482C69158p5089j34910j65292j67606j39114n7981Q0216K08109K21351R8085n7104j25805r9754n4233l3374j7797
22466a51140J1716L9593N0271N1933N3591N0754M3094L9274L7299K5105P368Q142L7830P6420R7892R6068P9073N1052
22448G05335Q187n0374j09401j38631j20566q1007p0515j01948j28227j01758l4064K7536N9291O6713N4525K9429
22432A4525J4752K1458K1477p160l1546j7145p714p2830j78136j99534r3117L4432P0985L8052K2553L6047K6951n530
22414c11480j772N8320J20098J30050R2516L9327j2045n5035q0884q2597n6729o579L9253L2606l6498j07014j14116
22397c52579p3516m9985n6363m6466o769J6040j597j5424J2350M8486M3535R208j0689j8010n2724j16374j53724
22380h24601j20409l6738L8064O6562N8236M5834M9508O8461J01345J52784K02922J94273R2603m2290r8326m1980
22364i3752L7451M2058j7561n6754l2281K5596P3357R2487P4804K0004m4795p9040p1078m3611j8812j782R126K4267
22346f0316O5020J29220J64418J20472K6045l7230m2126m2100p3588r3487n5386J988M778m0173m5556L3098J25497
22329A80574J24907J4600j09090j36035n2593M8805O7141m894q3146r2746m5959q276q915j5120Q969N2210Q1520
22312B1952R4061J14467J42330J32705M9620p4030j56301j49175q2297j9012Q539R084K867O736L0317N9508N9005
22295B50376K1845l09M1051J08266J08667J5851r1062j26637q9808l1719J7239M8667M4846k140n9046q2463o9392
22278A04232m5184k1360j484m202l2263l7766K2786J04746J10150J7417q2119j00780n6230k2267k0875j2347K6726
22261e0820O5511O5537L4487J6580L6192O2691M1993l1949r2473p1016J2469O3162K4950n2909q6429o7182o2043
22244i1249j08208j50237j04941K9021J55208J78724J04357K2851J0459O1798J16670J23782O9024k8156j21185
22229B67918j59952j38244j06869j12693j35093j12186k1630R5648J85817K23664K09802J64288J23542J06746Q3691
22214F74449J4940p4310j08895o5885j2709j6828o0903q4039p1287n4949m6019j4621N5984J28969J43614P6523l3510
22197D50524j22241j60598j69456j69916j44284p4358N393M1809M0164N0703Q0103Q5187O6840Q8537J61948J92468
22181D22823J05266l3608j00532p7923n1132o7169q5719o8454l4041p937J4506L2115K2064j2298k3723J7877P8703
22164A30818J02309P5078K9928K028k422l294k0890m8704n7763l7331j5966k4446n6398q8013j12170j21970r0214
22147c39420j1212O2102P8159O2904P1986Q5801L5344o6940j14378n1142N1987J06020J12064J10083R0654K8485
22131C12497m6806q9538j14938j62281k01887j57816k5052J04464J49113J19386P4967M5027J7097k4991p8713j23783
22115b03254j30291q0471L947O9024P9966O0914O9160J26674J87469J84337J06364J2893l9110o1186r9441j47701
22099A39294j40822m8679O3554J01598M6430l9567r5446j13569j11437r0434m2100K2969P4311Q9419P1524L8475M504
22082b9976j9889k0882O338L9647M8680L7235L7620N0020K7930m3009r2654n0358M3016P7050K0749m2410l7998J3081
22064F4190N5531P5942P7828M1993l4777j04666j23354j05575q2914m5274K4813R5557J21594J09733R1947N8258
22048C20826j8465j06627j34792q7860k4752M923O959J1j5155k7384q505L9708P2489O1197L1533J7505Q097k7961
22030A11747q1804j00441m3438P0745J75667K10802J68685Q9664J0214o9981j58719k27639k26424j39360q293R8946
22014a19629J30299P4746k6124r7511r1750l2537J9026L6441M1949N5266O1305L7792o025k9934J560P8143J34473
21997B67490J04203k99q8439r7241o5523o2857p8480m6281L3954P8630L9215k9225n0540k4219j55o72j5499m4923
21979h0861r5559j42502j40759q0273m65N6533Q6120J08297J33287J52510J53260J26821O5463k7343j12921j27403
21963G4205m9577M8822O5509p143o2724j1852J08621J92927J92037J32043M3814n4980j22099j11635m5933p054l5786
21946C49195q3832q3932k8723L5442N9524K7230k8109l9856K1643R7613J05101M8647R322J9614K0597l4436j04399
21929C90641j27433j03875o6578j9774M0020Q1649P2272K7310j6377n2547r0259j12529r4588m6080J735L3746M6100
21912c6567K9131r099k7562j227L4534K8029j7510n5545o3250n7866n7670o2582o4981n0895m258O2329J00052P8880
21894a76057L1770J2512L0162N7623P8435Q3931N0517k7854j01049j09068n6916M658N7380J14769J53380J19422
21878C23615K0686n4431m5024K224O19o1151j13803j02660m7557l362Q605O702k014m0710j07685j35872o6306M3560
21860c74564O1782l8103j15107m0571J21749J99705J35220K4184m4959p9457r6467o2014L0455J01894P7819q201
21844a06635n9360l4678K3891O0043N5156K4819j435j200K0937M0699M7127N1562O1371O9523P2248O7078L4946l4062
21826C92030r6087r0152l3242j6978p9684j42630j18791l1354L2208M0380K7946J8454N217p028n406m995k3853l1737
21808a65702J3712Q2854R3596K6490m0869l4798L1327R5971J20396R4167J9551p0682j17004r6063n5527n1796p6531
21791a30908p9926m4445M015M2923P1113Q8328R3398R7985J09668J08110P2548K6112J1808K6452K4784m708j9710m14
21773D97133M642n1813j35876j68688j23509m2878K9580Q7948J30936J31250O0290o9874k00546k62252k25794j27307
21757d66758l2700K9156P7733J20249J22994P3516K5075K2916K2421m3186j33763j34601k6103P4789P8258L9861
21741a50143N7671J22301J44578Q8317J385o2168q7413q0252n6121l6917k2026J7098Q0298J12389P7999K2797M072
21724B33865J041l5759q2773p8088l6298l4329q5608j20767j02414o9072m6788o742N7748R6444Q7540Q3626J22305
21707a6069J53937J12694R530r4727j63441j85675j50016o8182J0731N3400P6046R2024P4430J5649k6610j430N6251
21690e1458P6766N0888J6166j4444m3829m3013J1468P0815O0533j3563p6188r3444r8589j04584p1233J5689R8465
21673b09555J16885P9908L8760K4213L4822N6789P3702P7662P9215Q2370N4754l4255j42782j77927j09524j5553
21657B9484J5035j5456m1495k8096N056K8828L0826Q444k6078l8181k512N5300P4795K6615n2690r6278o7300J5828
21639g7875J01196J44342J33281Q2229J2295n2363p8852m1678M4081J21792J41947J06670N6698K2196j293l3562
21623F81104q1100j30128j60506j64074j52628j47293j55675j59727j31300o2440K2754R0510J29129J51119J63982
21608a06273J53339J06609M2298m098k1005k7772m0469n1556m7069k2822K0025P0856R7302P0129J1936j6609o63j826
21590B32332p0644j63619j93050j35139m1176L7928Q4342Q5890M0379q932p66O5713J25094J30657J02402Q1146Q0497
21573D53054R4927J06417P2118l5163j53706j68178n9395M3679J7966j00733j84680j86056j56582j25770o2982L2699
21557d12385J00570J10807J12844J45038J58300R0297k4805q6547n1474L0038R3272J22350J28955J17181R0799O4751
21541G89991M8250L4877K1688J6732J4252j3397p6438j37097j44403r3386l0868r143m8257j27356j86367j51337j973
21524i4232J78633K59114J85257L0150r1910j36146j37045j36542j33338r4980o8J27263K18018K10213J11791m771
21508D91407p8831j07988j10201q1819k3772K7989M3594M5676O7204Q5182N3125j3075m6743l1289k4619o2685r6047
21491A37108n8552L8156J14726J09016K8924o1864r7229o7161l0155m4864r1703r9982n3969j8769m2543q7773r3703
21474d20337n7918j0621M8906J29559J87702J57803M6619n6668p9621l9973m997p495k4933k7279j8237j9102k5788
21457b22380r651K8281L4569k9030j14310j33881p4945p509K5915N8006J08602J25009O4979j9982n1343l0879j2814
21440b61363n293K2073N4521L9486k2926o7579m8919J9490J07197J85180K03433J25009l25o3118k0804N6289Q5360
21423D07711O0349J6970l0098p4942r3631p5684n2009n4960p5182q6023q4462q1676p7939o9511n7440l4408Q424
21406d54511N1027N9473M3678N1762Q6857Q6742K1594m5103m4778m894N5l6579n4739k2661L4262Q8085J28437J30581
21388A19288O6452l7038r7929o0571M4984J32378J32372M5722n3898q0288k2079M3968M7823O615k1233k4726l0564
21371B11276l6416k3255j5784n1611r3729o0467L9879Q9691J7353r9020j36156p9934j6895j0079m3956p3535p4266
21354d56904m6150m937K9920N5206Q0818R8178Q0512L1070n579o618n508k7178l1793K1656Q8209Q3021L683o1284
21336g3678m9812R166N8323P7411O5190J7013m0110l8064N3752J64887J88227R9213k7053j08827j27778j09082p7664
21319H1114n1881m7220n8269n2810q882M8980P2274M6519P979j285K0752M3119M2384K4307R959R969J2514m748m5329
21300A49446p7687o4496j5670R181k7248q2429q1698j6814M4585N5574M9715P4670J05426P7748l943n2738j3575
21283A30047N4799N3858k1076p2474l1661M9435O9861J2373m5877m9031l0403m1381o4395m7816J172K0900j1018
21266b2687m6710m3364j8417p312j0377j1319j1045r505J3545O1070Q9305N9589Q77k5623j3251j2419m6324p3089
21248a27056m9403L281K1825k3724r5158j21992o8339L1101J03474J10318P9845O3309P7363J00910J06525P5980Q444
21231B96703o0749p3795j7066M6168M7069m194m6192n5057n0787l4315J0175N1449K7403n5534j09136p8808q663
21214a15329M1259P2871R5229O0900o2850j99103k24807j21075J0358Q0416R6995J07524J19740J07586N7262j6646
21198A10330p7032p8617r121P4106Q6835J8056m5615k3021O0139J06090O5711j0456l9728L318P1056R5879N0714
21181D58644k9343p7864o0018j1199j767n5633j17348j14901m3592L4559O7609N8213K8411j8392p2219q6242k1602
21164f2684Q2908J33087Q5478k369m6548l4246k0669m5505q4689q8045m1796K1789O7731Q9252Q7528M5925m0825
21147A46322j20509j18157l5261L5502K9801k463J6155O3544N5864j3180o2104m8580j4411R541M7845R7431R4724
21130A82064K2301l2089O683Q7612J11772P1110K9982J0385j8524n9321p5688n5424k0566J4903M0712K2245n9129
21113B79028j50048j71930j15793l7167K4057N8096M4902k2473q6473p7451j3598K9104L9763P4752J34027J37394
21097A46190N2059m8746r4104r9450r9975q2583l8551p052k47M6620J70790K80035K46438P8465q3679j40006j26057
21080B00147j27668j62523j75945j22257k0110O9442J06540J04861R7636Q8724O0378J6287j9393m0173n3352m3293
21064b0699Q546O5180N9425n809m7012j6660L3929M3539K7480K6318K8490N373k3325k3205q449j1330k1622j6155
21046A04014j6125n0083q8013q1618m8672m4581o4031m8644Q220M1446J4631k5875k3573J4174M5100N5776O3831
21029a44023P9925R5193R7059P9457L8293l3247j32279k18714k18224r3798Q2456J79649J51442Q0243N1013M1652
21013A36097r701q4002j03676m7089L0941P7917Q1946M7796l830k6717J871L5034J4002m6359q6175q8115p1083k9066
20995a70209M1390Q1150L4702m0332l8411K5571L4473l4946o9886j4738L1970j1039o3907j9472P5165R7323M7581
20978F385L5959R2705J22273O1968k0632l4771M87r828r9480j91158j90192r8512r404O662k3674l5445j8273k509
20960d07439J5446N9660R8119O7539j3833m7875R17N3959M9144K8593L7188K8887l9922j03547p6514Q745O0423P5060
20942a05450J09931J42234Q9170l2094r3279l3744N5614O8323J2625m1785o9494q2673p5484l8929k636j0530o2587
20925a70788j07280q8247K524J01604J16671K7215p0560o8970J1604N3881J3912k2770J8106Q5589Q8203L1986O87
20908B3367K8000N8820L2502m7529j31293j71964j51405q2611J770P0681J06395J00124N5150p9k3625J363N1935
20891g8399R2549R8772N6457k8330j08687j22574o1625J2158L9706L1285L8524Q2869J35163J50714J07640K6997
20875D73219l4241l3635K483N707m0211p2755m5108l835k4672r8974j40856j01715k7628O959j2765l7094j7905L4419
20857a68607O1842K8982k6510l7017M090L3284R645k9406l3002j2216q144k3170l6285n6566j00271j32917r7870J162
20839f22976J00868J56975J69275J37601N8449l1395p4751p1252p3749r3787p7794k069P5853R8029P8820N5929K7675
20822h8299r943j8245K7489P5195N5670k1389r1024j26196j42596j32714o9517K8351J03018J32218J38823J28082
20806a1077Q3643L1070K8325O8984O8139j5388j06366j14695n9485l1067o1972r8243q5313k8115L1730N5991K6921
20789b16918m0436r9870j12329q0754l0532K7038Q4238J11308Q4872L4217J5065L7189O0481O5044P6110J04100
20773A18823J09230N8777j4547n0254l7296j8550k8505n9194q5431r5024q8654p0305m6376k4073p304J56p035k1163
20755c66725r975N8148J67578K48675K35772J33387J4705n0885o2915p5656j23505j76872j81066j24517m6965J5587
20739c45229O5859J15106J43884J19269M2890m1106q6186p6976k9104K2085L3899j2599p9259r1369j6042Q9911
20723a44967J34172Q9065J6702p504K5443O3949O2375K3710j6063k8231j3531O439J5334J8152K6765L2810J2386
20706C17006l3579o2929l8729J6399L7701q423q7637j35377j12878k6820Q1149J57132J71581J46988J32092J38996
20690F92672J26517N7937m7548j37710j79298j67090j06072j7275N3139O7553L9773J7004J8517J6976j6231p0270
20674C48594j07852j05310p3515m5140m0655m5619l2746q880j5517o7193j16028j04548l3575N0184J11115J36035
20658a50650J15124N8301J1278L652j987m9225r2800m4771Q0771J57682J11704J3231l6699l5152l1010k0871K3708
20641A12286O9604N4799j0540n8926p4744j07270j68259j97035j55096q9761o3768o8616m9795J3775R5397J64201
20625e33748K05299K06930J62227Q7858K1449n606J1120M7952O3373K0401q0274j85758k26272j79217r3496l7327
20609e15089k4914j4880J5980L2032l56m1914k4162M5336Q6253O6492M9750Q3913J09698N0856m8929o8877J9284
20592a79527J11594J18924P7534P3480J14564J33990R3363K6377j7410k9389k9862k9035k6415l9285r7016j87325
20576A14562k32237j60690p560J02457Q8595m980q2985j09056j04044p8360k6920L0637O4453P7848Q4006N8119k2164
20559b08319j02385r6859j3292M7369L2277j466O831L5637M7880O7190J21272J65225J34434L9835n2969j09211
20543A13449j28652r6183l828R2011J10457M9004j3621k5755j9522m5877j02358j47631j52740j17569o2162j8001
20527e68978r074l0304n5623o4831m8199O39O6789J01956P1565J1483n614L5052P4282O7837M2157L6925L8849J4362
20509b20727k2737k5872J2238M5881L7949J447k9982m5933n7185o6559o2893m1553j4560O406K7152N9271R4285
20492c03372J04476P4082J6503m5460r8475j24998r4068K908J16824J76788J63901J19857Q1681M6433J0041o017K316
20475B43420q263o6927j19614p9864M8719J53224J36601K7489n9326m7489L9212J17710J18904L3534q2522j48140
20459C06668j26219n7721j3115j4743k7631k0891n015k12k372m237k4008p6628j26618j08741n817J20307J90355
20442C362J83577J37919Q9925L8666l0317j06655j55554j50690r4691r126Q0141J42571J47895R3667K1190j9895
20426C71985k3198j9263j9653l334K8636K6284m5508j42432j83785j49273r0972n3213k6507R328L9237L5910M049
20409b41709k4260k9196k2575l0727o1693q5556n6426L0691J15769J32213Q3417L3127K6869N8890J10090J67032
20393B05956J93990J42714K0735r1762j27055r9154o0520l0858q544j1979n1266q1438m5944L7706R0524P3658K8287
20376A85050N165L023j004M86L0626P7318Q8212K4674q5400j55369j14220J5545J24803J19826J2240j05247j59639
20359F6089j52599j27360j12786j03183p0791M849J04317J69827J59878R8302M7029L5574M3110M5001M2512L9627
20343B89396K1485k6212r0185j31243j07979j0029J10937J56275O7051r5392j88833j28454L1483J61442J80384
20328B40126J09364K8538r70J4969K2425r587m6701l8213N360K3543o624m1751m2494k3950j1586N869M1045O3106
20310C32469L4878k8974q4515j17928j36462j20942m7230M8963R0528N6308P757j024J2012J3566K5001P9400J37333
20293C01140J14872K120j02596j04467k3119L9609K1620m3329q2291o2262q515K9171J7163l6512q4854q3835m1682
20276a47767j0559j6535j8787L4788J23858J64591J09379P546n1270l4476J3927L8110K7375O071r926k8476n6900
20259A50949p8213o1623M155R3542J60727J70938J19316L1314n0111q8197p6355l9997j2457j2051l8932p6567q9108
20242A07330l9989O2228J47493J43624N5753l6319o7019n1508n1972r3686j33756j13001k7759N7035O8610j128q9012
20225f3076j26410j01413n2465j6809l24J2365L5885O8151Q3588N0472k9925j10658j42788j22540p7986k4812L5394
20208e83351Q4380R4019O8217M5634N1375P0749P6863N8967J8111l7980q6496j00849q0331m8995k1728M909K8413
20191c58093L8508M3318O2547Q8195Q9973O8262N7489O2875M5309m385l0254O023N2572L3811m0830r2842q0505l2097
20173I876J4150M4163M4612N403m1872l8495K6506R2180R7515N0628Q462Q722L7609N0715J7064m6352q3499n7319
20155B40068N743M7903M7937L0379J6190J538j3700j5326j139J6862M3700R3797J38271J07886j6536j51350j91376
20138D00847j27323m3664j1126k2988l9032m9352o9681r5075r2114m4457J4213L4670J6069Q361L9672P1134N3233
20121D3387K613k2675j1611p936k7664l1767j353K2193Q684o803Q671J7093k5396p6468o2917m143J2075k4015j9544
20102b07576P1797J64943J61297Q5043L6582N2306P6876N3598j5166q9302j27694j09064n0799r86J3071J2165J9134
20085A46225J7553o775j9841R467M0903J3927n0325p5645n4112n4901r5237r5492n943J02471J35400J00326O5546
20068A73547M4432M1o4882j03970j04360r7532r3435o6142r951M5616Q2777J05462R8194L3464o4053j16128q1627
20051b18547p364L6356L3506J2053n199p519J5155N4794P4627M6880q434m3092l0455J5935N8526O0089J0853n5244
20033D2920q7279o9621l1923o477j856j8427m9586n7896J737J09778J77876J52647Q4972N5772O9789P2818M2543J974
20015D89761l8161q5122j17740r8561m0302k817r930k3715k0363l3732q6843j28737r2113J1875J06722J44472J37468
19998A12162J01421K3896q7305j66873j48299n0032K9929J6369o4220j17620q1925J9449J14983J54417J36831Q7516
19982H0699K6418l7067r1093j20793j26059j24238j17940p4019L0087J39548J52444M6019p1651q5622j7457J8836
19966c71888j6322m6487r732N4284Q0748O9237M8439J4870l1600m2642J4515Q1208P2877L551l1521M944M5385K3627
19948c6507l8173p7512p6458o3209n8964n5044l0787K0646P4864Q5697L3889l3188l7528M5297J56467K11812J73803
19931B95105P1578k6453o3196m1730k3424n6302j12273j21379n9712K6120P2916M8477l8831j35463j60094p8916
19915d03577L8165Q8891O5917N3974R6554J37797J21021P2442M2431K4222j0677m1474k8121J3817L1344J4733K338
19898C19797P260n121n2787r3086o8775K1044J14780J46996J05488L4651j1222j5150j65K845j9995n9824q5473o3447
19880B77816m579K4136k4982j02766j13805m4581K1607K9635J8868L0465K5568l8003j05067q4886J2559Q4336P2739
19863G9060K2931k485L91L149p795l4921p8949j20762j24778q0051j4222M4213Q9650J15249J00178M5248k961O155
19845C9300O8347J28272J40617J12445Q1428O3988L9580j0660o7877r9331j07277j19508j31748j05982m2710k800
19829a3916j9422l5260J5665R8225J18522O0067K476R78J9596M411l9784p7165r3809q6864m1648L9917J13467J30023
19811A95479Q6080J6380m4129p5401p3982n9146n6336o0298l9945P231L9428K9531M268l801q498l5408o2833m5449
19793a86829J3179N5155L8717j4226m5049j7917M3423P0509J8810o9520j02072n2930j204j7056n5203k5012O3947
19776b83278J08482O1618o657k0013O892K1538K2053L6378N3581L7788o776l7752l6281k3416j7009j1566m137m749
19758a03304j2477j0294N656J5866P969l663j793Q075J1449J0395J6745K6191J9319o686k1946M311N4903O4776j0918
19739G4574j31853k00088j62841o6214J0073M5978P6473J12900J21100Q4701M0266K2340J2101k0599n0739k3785
19723e5613N6582J13583Q4889o943r0476j27271j33066j31893j20879q6598l4924J2411M4539O7867Q3124P3849L3584
19706b17235o809n530L3921O0568M3650J5776K2638N1580N0495J1444j2714Q356K4943k7060j22607j58384p7920
19689c04888M9770J04322M9353l9666p9665p0600o0114n4826j8954M6712Q4348O1396K6778M4983J04342J36733
19673H0024J11247O0339J9837q882l2990m8441n6800o5869o5550m0217j1080j9162n0937l5380N0989J27557J12040
19656A26725M3400L3534J06657J57860R0870n7246j64387j64061r8354m4372k9101k7529j6846m844q379k7684n1938
19639a35695p3148p9811n3077O656O0092O6710L9566K9698N3591P3156N8029K8512J6037J7082J4059J0897J5776
19622A48130J5420J141m498J3893K1545k4344j02034j42782j17350n9752n869M1774P7276O9611P460o4731q8156
19605b13266n5423j3454o289k8574l4773R636Q4379J25972Q9946m085r4892j32768j00968j1355R1446J41594J09907
19588d2967M5330K0755M0818M5782Q215k4256p70O0173R6980P5217Q081o8542j18796j25890j09447j05944j16702
19571c11963r9860l3801L8185N5975J7459k4696k9234m77L6577O6493Q6619R9639J07780J07050R0790O2249K9595
19554B98380j7028r7979j94629k35168j68061l8820M6632L6637k4075p1406r7669j25255j39962r7145Q781J18806
19538g97961J66930J42484Q2932K5637j0820j1210L4296J01292J30415Q1647j5047q1816o7791P964Q6903J30870
19522F725J44113J40542J02274q615j81953l19570l05297j30555Q0888J96587J96181J44061Q4204K0579k1867K22
19506A48519O6889Q5347N369j01240j24195m8659M1154P2328M6383j623n3796j00828j19262q9526k8673J6854J7160
19489a67799r712j8247J3771O2206Q7581P9221N7547M1735L3631K8715K0213o971n9201j05554r6091k4552N1241
19472a2266P0928L5581p493k4979k0374j1837j4482m0206r0878j45898j68009j27966k7235R5712J83411J99590
19456a06401J57793J02132O3791N0637O4278R1143Q3590K888j06547j42670p5665J705j245m8862m3811K1465N9251
19439A73472K1405m1516o6406n0999j8320K7106P1574P4168K2072l2912l8010j2308j1532m0904n2513k3505R554L611
19421A4037l6346o8743o1311j7927K3026J2902o3267j56174j83033j05393L0557J39874J74422J43767Q0568J4837
19405e8204k1508k556N7195R9343Q3036M0206L7063Q0687J00348L7071p7335j54655j44357o9873J0069M5226J2281
19388G4037o9518j36278j27277m9328K8323N2415L4874J4077n04j7806k3381J1052P6891J20328R6747J6627o9158
19371C2121j14117j01828m7503J1655M1007L9772M2381P7595J31950J62731J38611N8814n2252j50671j88482j53317
19355g1533q8155m2674r675N3193J38048J72901J13848O216p7939j22207j44450j34081p2985K118K6697k849k8061
19338b81588k0432j2238k0312l601O7010J44515J55132Q5214j2809p7522p7459k1524M1934O0962L9148L3184P1081
19321A70695J08277R4300M4883N840k2712p4398j46938j95665j91707j46769q4887k4252J9784M6463P5496J11102
19305b10488J17489O9423R926P326O2256J09560J12391R9226R7168Q3479K9978m3894r1428q7620l9959K4302O5904
19288D15039N5678Q354k6854k4268q048p478j5246j3698j7202n3935j14099j47402j16594l5874M7739R8041J10094
19271A54247R9025Q1430O7926O1528N2600K2515l1135p6287p6438m1097j6931j8943q032L7720O7915K1771p7170
19254C20644j41335j28355q1032n5457n6536n8890n1841m1102l0232j8913n535J6265N0112Q5974J12381J32459
19238D8607J45571J24539M6651n5163j10566q9524l2047O002R389Q46P434L3049M5460J660q6812j35926q3904J3848
19220a10886M7558K130l4917k1568k3093q5123j35141q7494J3514M7418j1253o2108j9868Q4747J59530J51325P2315
19203a2914k9454r7442r2713k3884N5511R5621R3016P7527O5127M0214j0411o0285o0996n8P8908J23850J20887P9819
19185D42323N564q2736j33088j11955n9523l9506m3571r617O4434R9310M8158l6478q2523q4840p3501n3676k5737
19168a76962j7672m4996p4564p3999o0375n6329m1771k472J7349k1743p1381m9557L9808J13046J24262J07769J02415
19151a87172R9771Q0598M8610J0771l3744p1374p7618n5368m0355n9380j05082j51335j70698j44007q0151j8454
19135i54988J4400L5811O8378R3010Q0614M8014L3517L4656K4674J6266M5475R6687J10165P0983K6688K987l4277
19118a86940j07918j76215j84720j31518n3771J5069N2186M7456K5692L6632R7640J68919K00192J76715J11892L0706
19102A22017k7030k6759J7182N0781M8288L4541K7334O878l0876m0504R586P5410Q6541L5870k2206m8494n4247o7985
19084A96327j02010j49055j84357j73028j00285K957Q0451R8651O8502K7214P897J9238M3543N4702L8823l437o1630
19067a35497j08130j03147l7404L9498O8753N5589N3353P8462R1904P2068M9333M6642L9671R295j4177j647J6373
19050B20939j2828r2394j78607k31582k29448j60545m4765N6363R3156Q1146P0085P6862Q2859P9845P8775Q1905
19034b8234P9075O4525L3623k0630q2912j10849q4916l6750M649N8848J38511J86764J40864L8423j8341j280J9317
19017C80687k946k7459j4196M550j0929l5699l4434l7858r1539j57735j49487o2100L374k7730j03039j12445k4596
19000e03581Q6545J35729J07044M1085k0739n9660o8991m9570j8249l651k2960o4003r0789o7301J3559J13005J66184
18983c06343J38714O5938J9976L3487O9560O9107J3141o3282j01809o5621K3838R3676Q9714M1221K1134L9399K8541
18966B10391m2609j01668p1786P946L3657j4420n4599l7067j3268m0796q4932o8818J3955R1527J06024O8154K0408
18949B2099j3851l1645l2553k5725l7742q0107j10919o9595L0938Q8262L2887o2304o3679M0146J23149J09569P7426
18932c644J11768J47625P1646p2975j19876j6310J01618J03633K3087l6712n6980q1328j05459q4267k1760K6986
18916a2948L6494L1440L0515K5422J9136L5903P8985J11284R3401K6008m9098q0957n0737P306L8851L2827K8692
18899D02524M7161M9830l95p2120j04659r2078p7616p9258p6111o1691n0269k6769M3511J33880J50252N1162p3256
18882A64098r9161j9754O0043O7538L5703J9388K156o1675j43772j50088m6958P4197R9584L1872k4945q976L2376
18865C1626L4003R497R111K3446n852r0456j69762j87112j44349p1595J0351P8449J00732P1809K9445J0777J2803
18848b47077J6053K1274L4587L7751P849m1859p0471n6726j6028K6067N5881O8422O1520L6287o236o4238j20905
18831b57849j42184j07301l6088L0189O8130P5840N0407q480p4446j05104q6241m3787n078K7923N6113N9657K1230
18814d77069l7241o3408k4130N9196J23556J14246L3727n4733q1833l4452M4052J08349J43398J44993J05838M0039
18798A44528r855k0244j9755m4713q1599r0388o6802l4308J3779J03094K02592K26480J44060L3631j7662k3020m9529
18781D10289r8226j04039m5957J6920L4008K5855L1631M5542M0434J4509k3231q0177j50589j86246j45507n7196
18765b71980J0523L5181M6545N5502L5194j5855n0187m1397l0378n8879r2087o2306K5108Q7018P0152J3213k0184
18748b64817k7010m1158m9084J0434J45478K56860K32213Q2810o0867r9523o5252m3656m2876l807P6851J15037N6877
18731B78510l7071p3313m5466j4516j873K4150O3040O2216N996l9696j4731M5453N6809J89o0914o9330l7703j6742
18713A25008l3236p3753j08079j11824p6145j1253N7400J00923R8897M7660l2121r4963r2427j5193Q1544J12411
18697b5151M3946o0252j00963n3478J4537M6268O9331J24851J67468J15403q631p5656j6887Q3811J09305N5184m266
18680D84820l9308p2611r6810p4711j8585J1152o94r53M1115Q1296O8494J6044k8258m5685m8435m7353m7005n2744
18662A29769o1748o2977n4940m2756j7891K6401O1369M9951J1344L018K7208K1443l2406o3676k4259K6271J3444
18645I565l4377m3027j9735k6137n1563k0922O8407J18334O4153m4906j28060j60573j44610o8548M8954J28979
18629c04066J08394J8402n5000o1112l087R2401J77141J86918J01525j4234p3499o1037l1651l5161p8941j40608
18613a73615j74275j28685j2366P8885O1487j9756m3016K4537Q8607P0104M549l7693n3555o8655n8009J3007J01725
18596c26724J27818R2333P8282J22068J55075J00286k7660j49491k04265j75871q0950K8445Q1159M9595j9081o1944
18580b10925o6585n0573j2071N0263R7452R2818O9119Q4430J14954P1158n8749j58890j25808j499Q8250Q6546L8297
18563A08187J299j0029k403J5854K6890J7659M428Q271J1770j8033o6168p6767l0873K7897N8248O6809O8420M5529
18545B56988j6392q2123r5932m6840K4071P1936P7957M1823k1868p5636p6524j9759M5861O2677K4315j9445k1101
18528A30008J2539L8159L5282K2515J2896j3679p2809j37749j71120j75606j75600j62032j02781r236N5841N4680
18512f58692K3441K3690P0188J25114J44129J13525N7994K1269K5478M9973O7158Q4528J15014J21717N3927n7941
18496C80512j14111p6962k1949j8318k9437P677O5969P3828L6912K4839N4130P1205M8659J6388r658m9953r6168
18479C63563r9926n5091k3639m5041p9442p7355m9629k8767j5795j0923m2109j06134j29781n8824M7842Q4939M0104
18462b86008n551k047K2058L7632O1119J01050J24410J08261P5346N0474K8148J0869K8704Q1951J09578O3311j9773
18445E89532o7536o7631o0357o0805m8777k5157j5200j3668J2266N2422M4426l8541j38211j79994j52746r1565k2540
18428b84082L6080N3450J8218k6133k3675K5304P5277J01397J11292J01430N4086j6304o0088n0879j3533J5517K1074
18411A38431m895o6070j30312j35979o0636M3822J10612J25260J08461O6715J540n5972o8655m4301k2906j8795j6339
18394c0019j8882n1430j03039j16171o4177m280j3148q5932j38480j07816j7001O6333J05018J06835Q7050N0246Q939
18377c25954j2306j0065j8534o3955j11091r1469N223J01378J18278O9456L2777M1142M6000Q99n9638o0625J0857
18360c27627Q4532R4842N6133K7042K2940L093n4769j07795r9492l1849M4677R5886J21048J15080O2968j5453n8747
18343C2509l1107L1350O9410P1932O6257N9308L2408r755k8981n468L0589L7079R509k5336m9799o6408p2484m8757
18325A02256J1709P4656Q9318N0061J3031L0605Q2411J00886O0167K639k9133m5808p5386j11043j29042j32483
18309I4844j37435j30552q1344O078Q6574J20382J03286N6780J2679j022J3744K1759L968o215K5481O3106L8487
18292B90600l8690p2551p683Q9246J13298M8212l4279p5350q0668q1840r3999j19267j56183j86931j75921j03393
18276f85399L467Q9294J25432J34774J49930J56475J07345L734p2014m0679P1373J55396J44661P4756J4143j8134
18260D14554m0411n4083m3923j7126k921j2188k4104j9264r311k3847p1612j20152j21621o6263k680J1600k3689
18243b27041n5513m5097k501M9536J06818J57699J63085J03043K4106n687J3030R202n7482j31998j31018n2699K0937
18226f1580L1182J0484J9702N2020M8983K472k2216J2016M6347Q849p4878j16896r0301m7294k1775Q211M7496N0830
18208i6348r54n4858o0630m0347l5936l5179o431L1896L9366K3177J5621L349m9051j12320j06033j4317P7045Q8577
18190c33373M2436J4748K9794M3494J5997l6095o2544l5609K2881O5679O6876L9423Q126j7274l2941k7142O48K2250
18172a72626J1769j3527j2615K1088M7727K9313k8750q2014p9471p362P8048Q5410o014r5276o5513O7273J68629
18155e3911J52150O9419J5208O573j003k3315k9852Q7M8570Q4202Q8286N8442O628m6325q2861r2082o6200j4433
18137A19583K2965R554l1200l5432Q182L0260k1373r6082j01062k3113O0295Q0194M0944r167l0931j7481K725j0726
18119a865n4540o2500J6020J27293J56460O6315n7651j16525j03874p7269o9019o5481m9912k7097j3413k3327n4429
18102d10814p4643m8163J1108M2852J9603j1349L820N1668Q8680J15400J51395J61698Q8722m0858j20199r5667k7248
18085i3995J3955L7960P8084J05519P2136r60n0073o1047o6891p1548n0223k0911l8807j05708j50963j23204m4864
18068e71540M0302J10872J36942P8441l9269j07964n4068O6106J41020J34950Q8912L1974l3477p9040o2066N368
18052a12537N9144O0894K5164k6168p9937j04078o8382l156K4705R103J4166O4153R4174N3077p690r513L2623L4543
18034F0285l1826j02559j10490n8358L402L2103J5459l1082p5733r3439q3081n6607k2260R274J9675O480k281J7667
18016e03371M9849O0889M8282L2043R654l9423j03665j35131j07032m3632J9121P1609J13542J29040J04041N3015
18000b41169J0028L720M7121J28539J99474K00102J22178K6657k6162m2154n8459o7850k9289N0452J00625P0244
17984D94057j2515q6147j24081j29741j00636m2397J904j2574o8091r8141p1988k7031n411K553K6964O0333O5783
17967a27159L1817j0852k7354j3975O846J4215P721L102R719J6300Q408l743N990L9449O3341M7960j311n9632j08543
17948i7701j34834j27582r3931n7969k8984N995M3563N1483K1448Q54L3958R7010J31720J19022P7731J9400l9723
17931B1460m8360K4354J11749J07382R878o6001m5531J1834J0564n4315j16207j29605r2801k2380M0688L5846m7285
17914b48730j27307j13915j6725P7223J17520J28263J41662J51341J38969J01271L8697m5458j21509j42233r5532
17899a6463k8551j246k4812n7338n6097k5604q938l0727o0850n1194P43N3122Q1144R8381J10272R2419L7156k1108
17881I0309n6690q8018j27259j36919q3933k156N0842O9361P7308O2191J724o1949n2851L1228J10428J30919J16325
17864A30860R7960O1244q001p7509j05183q6503m0017K0005P3247Q9197N8604N561m4680q1128q4272l1940N3419
17847C0864J06602R5944O0704M4748L2333j1277o6107p2399j0472P0201J01725N8185k9529j03882j29463j17278
17831F0899r4165n8780L426O7362P6242J5851o0564j00070j01287p7424j9702O1830J05851O6808p486k1770M8538
17814c4441J30940J46873Q9641Q570m8661o6300n6847m1679l1277k5245k9950n6185r0204r2784m8009Q300L3319
17797b03939L2380M3498Q1448J22307J32086R1251P515p6188j07881q3446n4002n3827n3884j9988K1282K5841R654
17780h5893J7693L3575l626q7971j26747o0289N3447J08476O6915k3503r4624j09197p1200j6961J2163N037j6383
17763c99088k8909k4599J163M6891Q5721Q3431M8009K8853N1240Q3212Q5314O0579L2261L901k8292m9830m8748m2579
17745a1470n1199n9714m3750j6746j0015j3012J7096P7299R8868L6042n8182q7173l0480L4339L7616N357R805N4907
17727a0412O0844k4521j38558j65563p2227N5566J14200Q7968L9522K2467L1926L3905J5637m501o787J997o954n3254
17709a8745j20762j63175j40988n9585K8877O9730N6805L0686K1051Q896l5596r6480j27197j11648o8994n163Q2561
17692f49727J47015J12004j2514j06799r0144l0301l0155o4207l1238O5694J14103O5995k980l0663m7875p6711o2354
17675g30857K1103R0663O8865O748n65L6920L9808K086q803K7002O5364R5649J50745K10615J97971J00417Q077j2873
17657C68935p351m0768q8374q1946k3078K0855J5019r945k0296k3283l7552n4181m7025j0098K6784K0910m1004
17640c2398j20305j52368j01773O190J03293J25552N9558m0582r4135p2914k9126k2298l8794k4100K1593M1555K1310
17623c49742K1344P8588J32443J01133k950q8248r5542m5495J2551M8055M6123P063l4706k7246M0053J13437J29410
17606H6271Q2963K8597J8314M6278N5474L85r6215j57321j29155l5640N2687R0182Q0771M6604K919l4965m8981l7546
17588E1622k1943k0197k4320j4483J2053L8089M8262M1511K1398j2766n4464p6072m6720K3323P0088L5126n8275
17571A2232j14816p1740K5443P7916N1376K530j2649j1694l8573p7666o6822N613O7819N3205j3482n4653m0521m983
17553b11465K7022O8603J15391J22593P6892M2770P9209J39915J24006J6097r3190j32495j26032j22167j12990p0591
17537e6432j4848R874j72j2051n975J6904N4123Q8381P7380O474o3561n5021K3925Q4491O7525K301m8953n7399k6972
17518H9994K6031P0738P3427L3198j7658n7667q9734j04449p3130K629P4143J03942J04570R2463M6328m3936j20868
17501B10021j12082l0723K8874J086q4581j52053j57376j09725m7240r375j2354l6382m7115l3581j1854N144J7844
17484e81472J9754j586l1370k5290L6203J12518J48323J39190J22209J11479Q1516K0836l4685m4679j7236Q527J9161
17467H3398L5450O8012R6650J02006Q9997O9948L3038k4981p7631r1921p0586m5875l7435l9711m3306l9731j0329
17450I6993N3018J13312J14434N5012j887j2760p839l0307o0066m7793k078J6303j4440m7125m0483j5515j0219j6183
17432A42377J703M2633O5762M4756l322m5650o6488o7319n4464l6596k1684q193R585K1665M662m1498p5415n8452
17414a45938j0484J0166j3386l1645j720M7555N6444J8157j8864k1691k206K2484N1819P3282N7354L335m5214n4545
17396e097l8248j8459J2929O1489R4536Q2976N3813N2304O7969M8948j7316q7550j26243j37516j28284q8479k4647
17379a96875K6788M1271L2493K0771L062k8042n9536p1399n9534l4554j1659m214q356L641M7783Q9564P8563K5535
17361a04698M10L7362Q4874P7439K3083j0851K4006J15122K00680K05233R6683o6722j75639j80859j35295j04838
17345H5990q4235m0846N811J1193j5337k5208j1725j1421k6067q110O1535J33967J51591J08614L7388k8434o0554
17328B84152m1539J2512N6288N9182L1189R95j3373j2339j4389m3089r1068j11405q0513n0480q2404j38018j13448
17311c47747O125J06884R9358L6042J7563M5835N0726K0555J2323M3020N9918L3238L434P827K1999J4074R545N0097
17293B90816J11711J16647L0368q8147j46686j14155m2383j143o144j7852r97L5072N9405O0262M4510J1179m8357
17276B94106j26011j92729k19156j88576j00014J8375J06558J16224O4600K0928L1787Q0668J24810J42033J27635
17261C01238P5616q159q8922j27472j20225r8356q9545r3483r1931p1369l7187j1361j0370k1257j1725K8354P1045
17244d05109Q9096R2737J05294J16597R4362M1501O169J8238M1267J4452o6097j33099j21534m3043K4263J8627m2320
17227a48599q8223p8845m2034k3543k3010o644K7817L8402K930l7090k4485L7690Q7338P6807K1502k5767k8283J1496
17209b22541O3797R5777R4289P4730O4140P2313Q3219P4436L8365j4372o3027q8179q5175o7044m5461j3081L9066
17192A01252Q8356Q8469K0637p9706j56456j76830j37488n6769J9440L4499j9078p2457n4084J6511N2846K1715j1350
17175c20493K1389R2750J20198P6269J3640j2821o838o125k9471o4870r1392r5777p5627l9404j962K5608M1550M9446
17157c03930N2772N3415N2100N1615O0760Q5605J08284Q6853j367j16704j80922j54681p5585r261K0011L4024N3326
17140a83685P2765Q1025P8149O6991M7460K8247K6063M0362M4936K2712k434Q667N4826Q5153N1686l9199j30061
17123C53663j59260j09940k7756J3336j8092p5196q8709n4521l1341m6449n2542r247L7285J4163n9759q3603j0655
17106d08623Q6218J12537O6884J7852J538p094l3026o0013n8985k6419J7139M6595M1714m304p1568j17970j10655
17089e08180n5044J0406M9065N6795N8771P4654R0598P6112K9845p804o72L5130M7679J2225l9879o1053m2842j8633
17071a92827j5031j6888P464N3297P4556M3581l461p191L6613P1593N7545J7774o152j3515k8068m5434l6021M852
17053B687M3545M9843K9337R490J0510L2498N7331O3355M9346L6843L4808J6803l8956r6870r0043n398R0655J24118
17035D19902Q3304N454p3349j31024j48955j22734p5042l2701M237N1225J04107J35923J25702P4435l30o6248q2319
17018B71587l4558L2010M7679l658o6301q6513p3845o2345m1783K0860R9213J08277J2719j10627j56709j08884l1381
17001a84259K6667O4383Q1016O2604K7218K1193M5244M0850j4597n3712j1402P2371J04122O1489O86l9044o3473
16984B41356o2778o080Q3081J17334M9521o2931j32081j36505j12381q8681p1066o1082n3067l1025L777K3701J6308
16967b82599P734J9317L2318K6157J9362L5967O1800P4603Q6836J11474J15360O4026j0353n0177o4209j03049j48892
16950d325j18861j575R3555P2862j8867p1362n7247l8559n2139o3645l9402k633N872j3637k7084j4543J0492K5788
16932c15310L1221M7129P7777Q5206K4003q9393j71095j59684r0218m2961l4899j2498M7954R3656P7466L6124L5907
16915c59615P0684P6150L8279K1759P0309J33584J33605O9609J0280j296J1914J2305m511k4325m2724o0055o8285
16898H7667n9129l4563k849K3426K4936q637n6751q3497p9972o9461o8413p1066p5765q6787p8710r105J03474J64323
16880c80879J15229K3504l191L7189N4944J6300j0903K2222O3437M7095J663L048N5672R0142O9902L6205L6071N7224
16862C34874O0196M0216K4734K6840L2719L1566K9708K7582O085m4489r3714r5288m5781K480j05m3639p5810o5469
16844A52705l0663o629l756k825J6589M9217O8646O1274M6678M7479M6766P674o1463j03747r3519p3014p5676o2857
16826a7121O189Q3039Q7770L6264K0165O0359P5907K0798m4035o0566o6341j09260j45172j09478l8531j9484m5525
16809b65022k4473O8095J41826J22427M8751r64j7300m4244r4976j32634j19664n5098K6393P4986O2899J7519j454
16792a92933K7216O0880N5411K6660K1933M9494P0999N8931L0976K0855L3862M0241O655o6976j39550j64565j39401
16775a99312j08002j04455j07379p0047J2234R1748J29940J43627J72243K15902K33228J99472J40126R3983O3229
16760I06537K3692k6000n6828n5944n0672o7064q6423p1097k3333J1232k50m2601p7020p7166l4632M3886J24770
16743D41087J51927R2896j8274j02859j08409n0412J4749M4925L7386J3960m896j3201j6715k1667k6291k6211k8462
16726C79533n0132r2475j24198j10365o0063k2566k3895k9299P768P4806J10680Q4180L0693M278K0365N6322Q4259
16709C39891Q8456O9198M3575K8512J5844j5797n7897p0000l7300j625r939n4046q7588q3477m8447j137L3601K6601
16691A78425k5642q5640j18711j33102j42774j16654j8243J17379K05708K12165J72815J14672K4860p9445j21384
16676A84429n5334N6129J06627N9918m1070j47065k31262k64190k20523j19961k1142L7967O9042R7530J22282J20524
16660b46099P8810J4458k6573k298P6903J40475J22936L6561m3256o4676m4607k3333q435J2654K8911J3126k8324
16643C7233m9163k4733L766k4116j04092j60317j30080l1034O7666J16073J05478M6427l6839r8521r8134m4237J4161
16626d10462M3945N0927M6625K7353j962j6530m850J1719J2500P915J4650K1757Q424j8225l0411j9634o475q667
16608b71401j3331J1786P5751J32126J09115j740j02464q2230M1959J30573Q6669l7143j26524j41585j12111m8963
16592c49513N6901J62774J84310R5806l2264j13211j23377r2927n9049m4617n1747n9797m8006k2656k300J5398M2721
16575d41554O8759P4950P3294Q3137P9473K3327n6041p8056k6888J8497J711k9730n418O4749J24419J56215J66350
16558B97194J27206J9432q8198r0136J4973J07928R4855Q244o3810r0917j00830j09469j04486q3426o3756n4017
16542a79213m4081k7224j1579n764p114p127J731K6028O7330J12691J35244J12103M4591l9557j04784j28717j07196
16525a62638m7289L3150R9953J14739O8594m63l7284j9931K3831M7075K5378k5272o1612m7392J4360Q2412J15935
16508B23546J08671Q0767M8266J4258j8481m4789o4978p9869q1542o5731m7551m2079l3461N942O2714Q5101N3915
16491B04699J5120J4262K9128P332m8495q1352o3799l4775l8693o4528o8137l0947K6520P3956R3653Q4571O1782
16474A80297M5758M1146L4627J9386L697j5655o3345j43959k09259k00197j15151p930P5549J27129J48853J36703
16458E7649J01443P0808N5565M0422K0081J2472J9905J1623k9421p2932q4799p6256p3918o7682l4715L472L873k2127
16440f4537j3804M5478R2523O8000n156n8380o0838l1000J1663O4626J16321J36672J04977L5649k8211m7002k0722
16423C46259L824k1132q3437j16956q2607k0779q9l3168p2759p8568n4413k2881M286K5933M5962P0654R0385O9388
16405F9902j3367j11320j39476p4294J0269L2355k665l0975k8480l0405n7059p1159l0010N1143J13334J15729O5138
16388a31340j245m1874l0618K3761P5541P7441K5225m0838p9807q6271q2089q3439q3264o3139j8557L0467N9711
16371d50335P1173Q7762J07776Q6024q685j24722j57755o6093P3456J47299J21696N6390K4576N0056J06782J41862
16355B67262J04439o752j17498j37966o5719K512j4565q1634r1075M606J35840J90692J23072j5772j32978j72687
16339h223j51595j26506j26956j25043p9308J614O1110O2218K9161Q436J0320J3982J6165L7159P4145Q6874N2499
16322a63948O395l533J6069K0635q60j7749k0496l8188p6766r3003o3271l0000l1351k6072M3920J38689J49627N2512
16304a37390m3859l5845M5448Q9468N1843j0640l4243k1404p979K936M0811J05720J37097P3754n6289j43831j22086
16287f6489n0203k7565m9154j7342R8823J96660J71644N2759n0420q9490r8166j00157p4357j4538M0427N4542K9800
16270F774j8805p9776j20532r3126J122Q4992Q6293L1704J7174Q2816J57762J49921O0678k5367n1503m4266n0192
16253A95669o6230o7195o4115q0633q9329l5237P2760J52387J46387Q0216N222n9843j04645j04058o1390k6125k4527
16236a30686k0121J0439J8491l4451q7740n9918J9404N0462J6908j554L2203O4971O1989O4173R9193J22241R4693
16219C20697M9139K3035p674o9156j18391r7596k4168L2867L9887J3317k4419n5226n7149l1860j6545k8148k7992
16202g9382J1931M5197J5295m5904n6625q418K2555j2210p7827j20573j24480q9416j5160O6633R7433O1472J1593
16185b97886j613J0822J4803J1751K0917L2640K2181m175j3935P819M9210R8123J45271J62095J11668r92j09071
16168B59628j36235o8967L0326Q1146N3119j6483o1882m4282J8800O7718M9453l3837j24530j67857j65459j53931
16152d13273j39452q9856J738Q8788J32302J51178J73833J75728J20711M1364R381K7543K1391m4863j09528j02561
16136D4424l8505J9895M4110L9174K171n9726r5753n9015K1314P0407O6142N2044N1808L3451k2265p4072p6031m1030
16118b1457r919J3082N1315R8317J12808P2811N485m2783m9157k5506M36J3920K6415N1480O8723L9864k6414o3195
16100C16225l4052J51l9969j23127j29496j4973J15788J38140N5863k8031m8008k4009K797J5255J984m6111j03052
16083E5375j13934n6741K6652P5098O3970J2118m1030o0119m3175l2133o5648j18039j21622n7990J5217M4480M0695
16066c76826L3228J4368k5240m7921j5485M1846O7237P1752J13149J77058J59754Q077j79323k44171j39506L0063
16050c11940J24949R6871Q936m1901j9969K2377J7919k2092k0488N0975J15520Q7758r027p6800p5874n8749o7675
16033a79210o8966k4294K7921K0735l6767o3433j4932O1477R6407Q3759P0993Q7615J13152J10777P2582K8261J4637
16016D00714L4712M8721J7460m7090r4500j00812q9958p8579m1043L4075Q7230M7296o1800j35614j19155o3946l5016
15999a97305k1498J7948O9916Q6802O6453M8867M1278O908o1366j06819p4421J6746Q7033O9364l4307j49551j82503
15982c16455j03323J8558Q6880Q4559P3918R2874J03296O3308j191l8837m8101n9611p0005n1618j5406k266r722
15965a93142J0226O2905Q1297K0590o6023r4043n6516j3380N694K7560O9427J05679J12911R8533O7264P139o4388
15948A81733q6219k6920N9354R4068O8040K9285q5l7004p6357q2311n4704m6430q6150j28652j16891n9254q346J0536
15930c66307J0977M926p954j6856q81M4625J03591J55447J77243J44488N8937l4060q7206j03998j18325j28981r7195
15913b61529j5481O3113Q4165M9508m019n4186r4539j08663p9188j8009L9259O9843P5612O0995K4443j9822l3351
15896b21849J2853J00591J73479J83462J23137K2054p1641j10909q0405k1386l436m8571r8894q5238j3155N2772
15880h7136P8278Q6434R5106Q3296M1933P873Q887J1498l3014j15947j85219k09548j88525j24904l8142J4490q132
15863e62772o0793n5644K0054Q8037R0025N3871K9006J6940J950o14K5964N7370O3370O0056P9641J05262Q5072P665
15845A04460p8800j25920j27481r6631l6705M5513J19181J46144J16054N5399M666r482J1742M0003L4686k8431
15829A74398j29284k06574k04192j22758j7806N6465Q9515R7249Q5959N4569J8451L828J9727N3079Q6897J06130
15813A65653R3350M1076l2472r4023j15678p7819K2119J38945J86204J16626j7457j23394j70794j88318j79274
15798b35256j10819R041J12054J48407J32769R6530M9255N425r593p141l4041r5159j31527j06431n6830k4467L246
15781b54537L9500M8010N795l6882k4448J8597L4474K3639K2282K7617K0100K5647P3274J16432Q5009J505m4631
15764A81383l3977l6190q4515j23023j02572m7261N299N4756R2479P6280m59o8996o4182l820N0000O8887N8831K3330
15746D6250k7491n8810m6574j4230o93p978q196J4508N2477Q5760Q4661K5197p4364j54591j74222j45422r2901j3733
15728e10352R0315J73947J88053J43211R3446O6349M6616K1850M200n1j1720n5204j25810j85539j87052j10832R217
15711c49356J05719J36940J19735R6063Q3277P3531O4024O0766N9343M6995K2275p607m5944r9765j51662j62343
15695E1991j14282l9569R656J3765j155K6K3663N1177O9942Q4787R9566J05864R8919Q8568Q0777O3298K6703j5919
15677F97777n1565r1639j42887j70136j32552n4843j4266m3233q5615p0830Q58O9057Q2856L8278l1095p9067p8221
15660a57123m2083m315K5279N8721Q4303O4839l380p0534r4471q3563n4577O119R9220J71116J70029J20085Q7142
15643C76807Q5409O8998R130o8330j20975j23937o9849K0152Q4254O5984j5382p7732p0738k3179J3316K6782K9797
15626B10507J7715k3107q0056j15842j04447n3910J898K8913K0759O852K1220N8099P2964L6429k6161o1429m6663
15609c6259j0235M153j4414l3266j2659M7384J01916J07541O7678K2836K491Q78j900j1875j9669j5069L866K8976
15591B32373M3082K8273j8703p6585j07936q5204j7837M6586N9377J5680m1688o4985m2497p96J8564j4682r2086
15574a19064j54449j31581j7975J04067J41338Q5588J4289J341M7849R9897J11692Q0734L3935n156l1082m4928m2233
15557A74262k3533p362j1268k1218n757L3324N2400K2931k7701n0976l1766J0808N4102P9895P3481M4186L0413N4385
15539D50606Q5542P8668L4068j3206m8504p8194q2649k3591Q3860J50690J01553l3704j44664j53110q2736j6141l79
15522C08109j0157k56K9922M3826K5614r97j0753q99K5403N8763N5988l4830j87910k84171k33873q9952J0475K125
15504b93573n5248o6594j23R7493J47772J08727K3497j7036J4421M2851K722n8038n1207J3514M9308L0601J5373
15487D460L1930M1833L0733L8821O9625O1281m799n0472j4333N2827P0239M3666L0750M1570M7993N2874P3903Q4462
15469G07363M4657k1997m9224j9490K0920L0559L612n6790j35139j75787j23917r467O4735M2874j8988l4880J592
15452B70633K7136O840k2682j5385J2101J260o0834j10891q8587k0113J7862N623p81L5461P4276O3019J1663l3033
15434A73568n2232n5162m4952k4175r832o500Q228L4038J8410o9918j65115j68173p8970k16k379m2398l6846K9348
15416d93276R5831J02433M7831j6102l6475j0170J8657J5526n890j5989j7158l1200n4896o2238m5753k7152k8883
15399e64904n3956q4907q7528l6967L7907O4886J7370l4613o217R1027J67999J71079J25025P6259M9343N4121P9608
15382F5532P9508J6872p3200j14854q5956k9585K5526R0384J52736J59719R2297J73o6798j08609j27127q9677P714
15365e345Q6563O0870m9348j32358j12618k6819L3272K6221o258k915L9927P3026P0164O0850O7635N6093m806o8967
15347A65187o7781j7503N185j4450j7479J4384K8456P866J0088N4728O6716l637q3883p9493o893N2929P7855R5213
15329B87488R3898M1195l5871p3622o4222m8891l3830O373N0165M0513j6426m2480K607O7289Q6115N5977J2857j8458
15311D10677k8355j5268O260J9476L2104N5676O2523J0580q5844j59448j72340j48491j18451q5886o1018o6782q4017
15294d28604m5362P4444J99594K27243J40885J9704m8753m2516o823r95l6658o6960n0654j3922j4749n6426q5618
15277b36170p5684n4303l8783q435L4847M5203J2459K088N9792J24506J02082m598j01837j21105p1395N240O7858
15260b58235P5905J9041m7185n0818L363M2296L6509M5549J22574K20973K40732J46587L147r8055j17457p9640l7140
15243B68146l1740p3259j37288j80614j69182j03469j9198M3994P5522Q8013Q4244N3107L793k5949j7025L36o795
15226a47364j7093J4317P7160J06419P0633J6012l82J3737J1303j4896k0189K4491Q6604J07296O4175j4404q3357
15209B94462j11837r0544l5416R863J53o1884j16417j08679n1529j992J4092J7819K0676J540m0586n7298j3259N2419
15191b78417P1545L5742l349j0184N622L2345P6331J24868J30861O1016o0115j69077k11715j70597p1322K7222P1525
15174c37699N7078K3631P974J8286M5236O4995L6773n5397j49823j48810l9119P5957J01051O3291N5649J00192
15158h0735J28692Q7001R59o5304p1432j5308P2796J38579J39209Q4270K0238k6566o4200r5460j03468q5367o2746
15141A158m4419j4537K5245L9835J4048j1019R949O0664Q5796O4525K5549l315k4638m8596o9531p2997m9106L855
15123g534P5512J43131J85257J91016J50986N9796n3834j25900j24106j01261j33589k06250k14636j01162N5295
15108b07279J24974P5720n422k8709R04J1936l4924r8006j03344l0055O5596J15097J11159R7960R9379R0329M5415
15091C30730j6482n5394n6530l4949j2461q457l6420q7926j30481j37052j07243n1437K2695R2560J18407Q5817K8019
15074e6604k1237p0494j30474j59265j02123K1767J24371J46139J07922O2875L7672K9113K2172R38l1781m6954k9903
15057i5866j3676k7242k8453M3250J51401J83409J05221R370k7284m3619r1460j19776n6983M8647Q0437K1024l4754
15040A03646k9259m207m70Q725M6797P1573L5754l6773q0251o5477j9798Q001j3599o8050q9313k6222Q2309J38210
15022F1596J02865L7582Q099M499r297j9954P076N6909P9019N6776J7520j6892m9575q4884j18362j44499j47824
15005a59346r9127P858J25410J87751J71373R7913k364r6872j44017j30459j05323j24180j60335j30134j8463Q1980
14989d98335Q8647L5526J5437N1685Q3605O5116K0255o967j0849j0168q067N222K5426L7568M1813N2832P1039P3346
14971A33131M1385j2227n3879n8627k6095K3273O0941O7738M6182J0460l4747q8493j24577r9519j1642P4200R4999
14954D2503O4174L8231K6139j1894p5562r9209m2140M6260Q7841O5056J4039l6283p5576q9715p4045n4264n3229
14937b27674m9770j1052M5332O5715L3445j3056l6088l4690k1251K141L4525O8800R8398J11397Q5081J4735n9869
14920A06119r1758q5508q1227q5536o5551j3717L3493N4554O9117Q4849P0849J7730k3643j0507J9587j096o7372
14903f9617j03176o3586J3879O8440Q6024R1815J01523J05092Q8040M9758K192l7375n1059k9977J0558L1742N829
14886C00102m4889o4250l2021M301n704l8191k4868M5625J04839R3295K6933m4793j02903j48238j63529j32082p8141
14869c04514m6517m3560k8805L1525J20981J83437J69194Q0145k2619p0746n6387k9485k3877k1745p616j1002n4182
14852a35773r3765p0283K500N4682N9358N7600Q1075J05352R6201N5461N31o1071j12689j20380p3375p262L8628
14835a23210O3699Q1310P6695K4457o2809j34022j45941r2119L917J01315J55592J47958J04699O9027N3416L8917
14819C62901K0908K7213P5767J34397J47108R6060J7771m3468p9243j05470j25266j25329j05523q7596q3928p5642
14803E0660m1350P63M781m1916q8677p1232J2305R1101R2998J7263p1009j10096r0182l6016L3336J08861J69507
14786C1097J83986J41099O3675j2260o0854p0515m5246j0256R98k1200n3285o9875p3553q1458r1247p5983j5853
14769b60730O9615J24946J04017K1276n1377n6380j4319L578l8587j06898j43832j18085l1598Q2429J61102J53231
14753a01612P6623J250l4062m7313n0020j9910L7797O8890N4964N6331J10079J45802Q3198l3234r0948p0900n0921
14736A36014o2222n4097j3057n962o3032j09512p1130J8860P3680O3280K1291j4608k3384K213L9184M5414J4963
14719b105j3801k4093m1221o1465k9718O2985J26502Q5535p132n1500n1186q7522j63844j82090r2300K2576N2329
14702d58050o855o5183m9251L5594J29519J74974J58365J12358P6531N9112M7244M1578N3705P2179O0716o3q5642
14685C56831j49039j60458j26357p7624l7357l78M3948P4265N4582m696m5299m1790l8528p1071r7873o4850l88K3307
14667c62775K296m96L7515P0288P3143Q6064J35456J71342J25864J600j30313j96172j65518o2266M6394R6380Q3146
14650A1948N5483M6323L7488L194m3601o6924m7074Q179O8716R0443M6686l7935j09039j41470j47610j30331p5136
14633d30660J550M8913N0290M8849P7349J07867J04494Q0924O4282M3752N737j4327K5148R6729J29603J02245N7706
14616F00451L0270Q282k4647n7883p7883q9870r9315r4472o0012L504P3961J10767P7247j6115j01861j19650q5634
14599G7140o8655j01675j49282j62554j31259p4791j3405L7894O9899Q6620R8176J02614Q9276N7608J5092l4219
14583a01521p3808o1542K4382J28823J60274J02187L6718L6001P6549R3155P1669M0840P984l7570p5557p2284m4738
14566C11562m6843q1649q6052k8103L4138L2617j1959k5178Q593K8402p266o1470p7707n8292n1098p9047j15541
14549c14893j24425r9213o0830l2671k0740r811J9634O5031R9148J01271Q0000N4812L1608J5454K7162P1033R6535
14532h95M1175p8191j63800j51364q4182l6992p117N7885J44152J61595P1081m1684o6427n915M1050J8825k2180
14515a22984j3328L3291N1290J7876k1774k6438j2365j6133l4499l3433n162J7821J0682p924j917L5522P6184R0360
14497C7069P3794M3472J5604r405m0108p3488r0667q3020p3154q8891j17391j11074m9358K7760O4070M8585J5694l83
14479d10891R806M0134P6837R8627Q9489N4974J4896j6378k9815r824N4956J45099K10088K02460J11075k9850j53253
14462D58430j94619j42747n7387j4258k7527m6124k9687q81o083m5559o9228l7690L2148Q5542Q3368L5055j5091
14445G662l1914k1885k1350n2719r7222j13711q0363j5109M1198O0130M9588M4600O8462J02185J03401O0890J6263
14428A20106J5941M9793N9962J3383n6589r3232q1878n0814k0440J3929M4045L0104n0916j54340j97982j46786m7610
14411e53324K4297L7125J6362L536J4223L3179M1728M1659M4655M4374K3125o556o49M7820P0669N333j02017j36603
14393c51064o2803L1639N8430L1221Q752j732k3653l8595r568M1769N2878J5433r824J6953O3770Q2040O6584L9366
14375A1596J1386j3594k3002o731K8041O2855P6227M8349j8630q4939j05692q2971n9700o0370o7080n5923k4952
14358c65130J6073M8302L5663l9569j22995j21643j6823J00191J35333R5128N0865M1013N4218P6686J01154J02214
14342A90680N3612k9057r9176j32692j42220j41737j27115r1421l5149L7074J09820J53873J51602J17347P2655J7476
14326A05572m5745p8981m5320K5234N4197R828n5200p5915m7518l662M1933R3082J26831R6953m397j12861j43372
14309e9341p5799K3532P1378M9519P053q543K460J7288K9860M1270L2595j7549r0778j34405j18338o8043l0671j9412
14291c47924l168M7942J12538J26818N9191l1350m3975M4527J40389J38548M2888n1315p4849m3378r054Q6j4713
14274I3201l9515n1089k6068L7054J13356J70580J84654J47826Q2273L4993L0955L7032J870p2725j31638j34456
14258D78303r0469k9005K6316N2740M0280J5901J4663J8856k7139j26751k07159k11838j69242j34133j05967n3592
14242e08236J3096N3130O1202P3486J09896J50482J68408J53546J06411M1700k789O058N2510P9886N2174n918l5576
14225E69466m839N4182O8336j651j07112j57411j26099p4496n5188m4826j2066K969n0705j28251j31769n5444J849
14208b53055j2039k6263L1376J09890J05275J6724m3504P533J27621K05229J73538N7744o3059j23787j14605p0273
14192A28345k8630o341n194j5796j0539L5477R7397J02843J2304j18960j91686j67279r2668k9099O767K6445L1692
14175b24922J4874k1448o5198j04917j24027r6421j1833R2209J47578J24138P1757O9014J25904J64447J15874J4973
14159B92002l8027k840N5948N9759J0726l2435m1359l7643l6747j8117L4641R1554R7455L1869o2198j12124q1079
14142B11385j620N9571O9495N0529L5159K3166n1k3051j6045K4809O5640P1303L7593j4726o3206r6639j13859j13505
14124B05948q6632l0243K9494N0353K7347J1030M4817J00621J12408O4864P683j9161l0550n2715p4118o7702l9378
14107B54066k6244n3319j06505j43680j30215p5492l1914l7820o5751n7495q036K8777K7568L2132P9529J31621
14091a82778J28854P7919L2514J0429j1247l0412j4496L0895M6077m442p6538r4677l1002P8115J67476J81983J11030
14074D19700N118o3458p1616n6245m7689l0703O583K5823j5956r5216j40145j12480l6325M5765J07895J37186J36574
14057B14811J35680J60607J83829J42658K4476j01629j61450j53623j25617j04706r2179j00880j43663j87023j69551
14042d78260q3152N638L8394L3769M4536P6253Q9556O6646L0777K426k1524l8081k8242N722K7566J6811L325K1039
14024a86801M8872L8080r621l5269n073L6207K0362n3281j11384r2737k0392K5901K716m9263n8769j0320M5976O7237
14006c47559O7896Q1698J02576R4619M7380j1123n3264p5738q4963q4126p6901o3910l8178m604P479j5936l1432
13989d86086J7312J10792J61414J24712N2140J0843L374q16p835j7872m9364q7487n8985O3790J71374J26237m7443
13972H6100j80348j71084q4755j8017K6473P6262R7520N4510l577q267J5285r036p8816j16854r2733n0881j6275
13955d74493L7225J06462J33770R8728O2822P7558J08377R9098N9135K9836O610m1253r8097j11236o4657L882N1952
13938H5719N9025J7333n8311j16957j10723m9898J0137L0134R168l3102n8388j9291P9052J45365R5548k7363r5827
13921c8379o0740L852K7639K8159L7354L2088o478l7724l2645l7747r2197j34996q4455K5497Q3830N9732K6454L0671
13903a70085L4016K253l4237m2772m1376n2581o0978n1434l9570l3335j3975J4360R561l6859o6129l5845J1191J4747
13885e93048q855j165M3269Q2135J02708J23602J28633P2314l7137j22330j28674q6151n3385l7545l251N9825J12629
13868c46426J11853O3227K0700K9455P3977R7361P3937L6879K0123O622l0375o1138k8743N8250J15861Q5178L966
13851C30707m6213l7397j1793j4403l6912l5582N373M2520J9519n6870j12079r0212k1537K2317J9506Q159J8885
13834C988M0378N1753M8749L1079j012k8390k3122J1792L8996L0982n309m7555p2136n3288J0045O3696M3941l1931
13816A12656o9955j8198O5520R5329O2480J9481j661o499j76J7690L4000L8336M2848M9351K0555o5533j50301j45364
13798A00559m8716M8191P8578O7992O4137N7435J4019n0592q1959n8427j3844P096j1647n6641r6071r4685m5271
13781a19846J3325L4701K3226K4425N0980N7180J2796l3609j4027N2436P2357O000p6283r5144o6343n3113n5115
13764a66054j6412O8180J28413J13680N2422n467n1221r0706j02775o7409o866L7729M9534L0655j3724n4319l8556
13747a32896M1194J09857R3436J8552k9774l2429m7530r7690j24331q4031k6051k3550o5920p3568o046Q8958J35387
13730b56432J06495L7283j8637l4287k2423j4604k8695n3637o1867l5827J1295L8753J4212m4039p3443l1429N6377
13713d10905J28004J51116J33050Q1204l589r0707j22622q0624j9502n438l3680l9083J4446Q3724R6386L5033m4083
13696a27270p2463l5426K6790O9028P6057N5109K0965k637Q680M9163P4038M2780l4631j08916j38706j13292m6710
13679b57441K5598N7181K9293k1450l8016n436L9474N5126L2783m610k0166J0248O7382R8044P7900M3202K8662M463
13661B22237p1145j59062j72060j00721l2997l0751n6537n1602j8272J8438O8678J37018J70267J16251J2362m8847
13645C257l4473K675J0413k159O46K7175N7127O9764N8385K9161n240l4044n1132n2740m4084m4980o6717q3241n7088
13626b17295m53K8364M827k7834k7597r600J520K4697P4177J01182N5587j7750k2250N3283J13545Q5195K463n6471
13608A65590o1365k7924K7475Q8197J18734Q5803m524j06425j65803j51628p5869J0908O1038P1500O9662O3977L7996
13591B07342p049l9949m2396l4081l7875m3973k8295R202M1311M0708L164m7364p5611o7771m2991j9545J4944P1561
13573i8668J13906R0512J4882l6365k2258J0008k208m9784p3596m9129j1135k750k9091n9966o1156k5204J9756L7929
13555b34317K6304J4578K3378M2927N8521P2510Q9139R9502R4097P1062K5012m5149j07932j14421o3132j6711k4975
13538A0393n9857o0715j9157K1933L6619L7180L2165Q239l6497p4774q0956n8967k8805k443J6207K1677J2053L8P265
13519b18402M0955P8127Q3505N0942J6492J4204K8826J7772k5639o4230p2584o0560l3817K0518Q6532J07967O3350
13502A33958J1355J3465M5751M3131L900j4983P354L3376L7806L3916K2391j7462o5541n6405K7162J10582J19301
13485D89057O8899J9529j5301n7430r5760r9539q7805j14215j73778j89370j17121j1590N2422P9058J19304J66640
13469C3000J53327N8505l9960n5717J133M9786M6005J6253p563l4492q0285j29112j57195j66251j63996j34587o3014
13452f74163K4965Q3395J01522J06097J10860R8277N7119O666k8291m1795l5597q484K9248N3676N7656O4218Q8597
13435I3966J03035O6756j3891q1224q8504m9836j8984k8295n9475p1390m4645P916O5993J19193J55134J49822R2268
13418C97839J3376l4277l3108j8952l1217o0101o2809k6412R368K067l6411n2946k1982K0981K7180j549k0912q354
13400F1781J1560J1151j528m241K855K663j4434m9345r6297j24906q6345K7643J49949K01202J75973J26152P3180
13383D67013n653j01629j51472j20529n9598l8184n6262o6073n3572m4094l7548K954Q1298J32676R3164j3753r4248
13366f5510q5803j4358N5284R5067J14772J10889O1913j9984p9432q7180q2518j08225j33183r3846j293N2776Q384
13349b72247r0252j51618j30551n0750L1296O7578N3948M0018P6537J44392J71215J28512O7568M0449L6795L2821
13333A95711N2310J23462K06099K22292J50903M4657m1639r8416j39249j69525j81839j59141q7246J3836Q4781Q4142
13317C01138M1152K0687M3908P4501P4126L7590k0046p5790j02038r1929p9656j03779j53572j82501j67933j23592
13301e07734o3675K052M4381L7370P857J1265M9646O5702L2185p729j2406K46J559R720N1578J01442J07736O0885
13283g920o268o6393j05085r9164l6748M5558Q8501P6697M6631K9471K1374J3420J3337K4104L0907K6458K6494M1871
13265A63245N2418K8798k7569q1848r9848p5523k9328J1653L3431M1210M6034M6090K8395q711m5097o0042n7026
13248c3718n4935n7586m9014k4756j1292l6829q9041j21627j06011n9595j5425J9660O1356J11839J45443J32716
13232a88815P1461o023n5032n5116k8796j4065j5644k017L8944O6025L3355m0340q3609n3685J9265P2812P6090M7391
13214a17799K4261K3729K8121J3042j2025j3066J0521J3727j9549l0555L0480J03212P7168m8617j45582j16908p383
13197a87223Q0330J09343R8429N1797k7495q8695p3413L356O9248Q6336P7264O5332M2036K372l1421l7297j9006K044
13179B23337P9m5406j26293j94448k00592j44635o8169o630K7341K9765J0865M624L3588O9801P0407M7091N4362
13162b14913J06604J54132J52543J12212O4287J9201j9935l8999l3722k4933l3976o0787r1387j00739n1178O5379
13146C789J74394J65626K5894j22111j55276q6394k0335j0253j7952o45K7263K8912k513m1408n5844l1780P892J2898
13128i7843l9706j03755j05941l0026O7399J24587J28162R7149M9053j508l4950l8341j5637K2188O5745J01005
13112A87581J10127Q7424M4018p167n7004q7641p4761j5697N8232J10943J32916J31573J04680M6531k2597o0310
13096F88848m9852k8520m7586j07969j57640j57240j24062r5565p3572l6475P615K3827R864P531L7407O3777N3862
13079A4250L4558M7597P4576N8215r464o7331n7822J3083Q8137J02211K3576j08843j95913j71271q2768l4094m7893
13062c19196m8601Q588O5876N7331J0135o859R404N452l7073q1276r5616q1789m8220k897L1455L7512L3610M4598
13044d17566N4297L4941J2286M0286J09467J46925J24946J04623J36704J75088J39523K9516p6309j17622j04864
13029C92241q1927p4384p8233p5757n6839l2682k2950k4621j0233L1711P2015P1657K3643m7732j12535j46697j35616
13012c08939q3445r272P0564J38915J60460J07951J7637k8108k541K3645j8117r1865j07092m4439K7922N2367L9693
12995e4664K8753L7731O3085Q9117R3305P1715N4506O3940O8516K0755o8094j37892j58105j45702j09043l4363O2731
12978e3709J30371J42111J15189N5914n1188j75144k23741j44756k014R2066R1730L5573j6908l1309q274J9143J5596
12961i350j0957j8122P093L1658L5464L8206M8338L9772O797j3840p277o441j7952O617P4609J03183L7469n1052
12943B94215o8115l5118k7295l3751J877M5088J3201o1405n5719M2013R5649K8279o2165o0362l21O862o4569j44437
12925h6073j65774j09041P300J23317J64509J21138O4243M7746M4022J3440k3391l5624m7802r2152j38676j35638
12909b48456q5715k6291L0934Q5092J06863P4291K0723o254n384N297L5080Q3441J00409N4058O21J0911N7842N9599
12891C53061J0077k3642k0571k8428o5395q9937q2970p7545q5546p0566k0110K2391K5104P516j0006l4165n1458
12874b42190j7890O8675J42343J52420J22918R5303O5519K0361j3229q387O422j5191o5049r0639o7789k8789k1094
12857A03714n6291r5214q1620p107O4538O9429K9877J9658M9684N6703J4234k5772l0259l8318o7111n0305N0416
12840F256J40684J00927l8151j27293r1551l7N4899N9101M0866J0821k8996o4129q1457p3734k7474N4786J22418
12823E7936J16241M5479k1189m5238m9544n6569n3936l7887l5149n5310o7032m7033j2137J9034N2956Q6808R3290
12806i280O8205M8180M9097L4914j1352l4496J6395R3130R8311J6498o8086q5487n5455l7769n3828p8459p9807m8510
12788a37799l133K5092K4977J9748L2011M4203K1877k9097o3655o0114m6176m8518m8344j3058M6019P6965M8664r265
12770a19603l6982j1081K9219L1799J145o027L7810Q5664P9004K8866p843j4490k1643l2311p556N1649P2036M370
12752A64026r1754j15888n5240J0718K2199j507j8815k8877n3601q8006r5549m5371N2738J42497J56865Q0012k8761
12735E686r3286r6231p2895m4466k770L9152L7643j6350o7626o4657k2009J7832M7691P7009Q3895M6308M503K4683
12717i5888R5463J25034O5270j5414k1124M8098J06265R2314K5475m2098q3880j01120r9210q1876n4144j6061L8189
12700a4707J01871J42181J23002M8701k5528m1904R58M9573N8842L8715K8721M2462N6487M5150N483m7543q9615
12683E22849r6508p0157n1900p8915j26261j28709o9264n360J3308J0918L3924O9277O5879J9775j6885j1258J5503
12666I6216L6987N7654Q0540P9424L4767k6537n7996m8346k6580k1812l8551o4538q2771p7362m4554k034K1313R723
12648g4457k4036m5298k5130K7995O8504O1545K6434R381J5736M938l7320o3563k9632L8127P8114P0028L3881k3158
12630A12089j02116j63423j46924n4476L8715P3085N9480L0055q880m3517k8705M9758J27549J33730Q4225M7549
12614B08194L9971J9237k8606o5916p1714o9092p1004n8445l1141k0980k9889j3206M2153Q2536P4973P1678J25454
12597B04203J87951J68710O8272k6702o8489q7564j05944r7563o2032o0757j27432j92365j55300j3649J27859J69760
12581g1042J11273L6552K7497Q5071J27099P4968n3295j56634j63468j02075m5861k3234j0734J1465L6583N3983
12565f1852O0350M7522M537o1578j18887j27931o9035L2815J09931J06533M4469N388K8260N8441L0606l2266n3818
12548C485j8232J2825k48j7891J2628P7893J17882R9705M2249j8468o2506q9006j03179j01671o8388O327R9176
12531g419J60393J56494J00203L3730r560k5345l2811n4160q9205j05779o6208K9049J29207J68260J12970j2992
12515D86827j38689j87696j34987l0394M5795N2894Q552m9273r2940j01954o5097k38N2639P3945Q1034R0515Q8721
12498A79654O0085K4203J7977N1387J02595J45154J55918J08372n629j42031k22702k05253j21961l9092Q563K9972
12482A47212L9509L2699N231k4648l2414k0939j7502l2048l7776q322M0292O6391N3619K1218j2271m5540p0436o4610
12464C9665k6147J0663J7641J0796J9044L1061R389m4121p2607k9643N9185J17775R6217J5667n9063q1075n4070
12447F0377j3927Q286J703k8251n8528n0945J3752R7164J28020Q3396K0860N662K7567K3239l0950q7102r0097m3349
12429F6877K28n507o0113j20497j42139j23481j00864r0637o0664J3430R0149J09096Q2318P7753J10260J19392P6276
12412D1877L7650M7174N2124r399q8847q5489n30O2597N1535K2432K2188Q882n7447j22389j11289m7959j9869m8919
12394b45678p3529n3655k1793j6450k4096j2280K0827N4960P6571P8806N6467J8748j1273k1975k1946j9894j8701
12377b34891l0749o5919r6529p4398l721M1709P966o0172o8519J4347J28781J95152J79182R7913J175n1405l0154
12360e0232L6041Q8915R9259P8691M2931l110m1708m0724N300N3577N1432j2420j01837j65756j71024j19424m5191
12343b95280J0865L3004L4447L2106K7224J1416j7449m6541n0652j0689N9970J15987J21182Q3287L6871O132J945
12326A53825L5005R7734J44289J29097O6358J5299M305P069k937j9030l4966o5470j07667j21736q3923l0799j6898
12309A69555m8197q6784j03201r5698p3277m7354k8771j1589K5541Q2370J21050J09878O2019O152n4828j19826
12293i2960j48163r3411K2412J11176J06693K7730m8794n7745O018Q5660J11372O9913J6322q41k354l1611o7865
12276A3552m2775N5143J48315J62621J09907N1409J2845k8062q5359j31525j25852o1024K4179P5689O7966J9324
12260B66353l2376o1218o1000l8081o226K3397N3628Q6774R6957M9967l4916q3942o1561k5589m5683j01081j16223
12243i0820p1852j4276K9476P1066R8831P6163J6522j4567Q74q13o4668j42105j56320r3478Q352J12258J83458
12226e1899J84093J16198L7259o521k9029n3279n9166l0980j3446n6536j28819j46165p5670L5956J24551J56884
12210C431J33818Q7873O3770O5685M5242k3412q9323r0798m1179N186L5808O1856N2349k5753j16893j19754k7215
12193B0691O1106P9599O6606P1102P4876N0822K6788L3937L9777j0573j12376k00776k13884j35059r95J11784J39413
12176A02838R0838L1292M69j5666l1483l7604m2606p3044j06010p0934L9698J26522J04433J1646o0719r3862j24651
12159a48843j47962j20266m2351L5842Q4881J09193J03609O0972J5856J7176N6885Q1036O8074M0335M589n2900
12143A66126j08782j08216m5270K0054M4667N0338O8427Q6075P3124K3530n0103j27061j70143j48430q3763l2702
12127c42129q716K9079R2225J25572Q8292K2614l249J4808K7027K461m8687j02158j32128j17138o7356k6377j5819
12110d61679j592N2600J23420J56846J36689Q6446K6209k7981m3093k096M9286M2441k3530p8096p4804m6014m5148
12093a30096p1713p9853m0838K4541O7048N1880j1773p9071j11233j03532o6957l268P7728J34240J25514O7934K1822
12076a27627J6574K2982R853q273k480J9286K4060N787m366J6515M7099M4751l21m8402n7202l5094k5313l7183k5473
12057a64827M2506J27307J56836J08914K2145o0411j18725j35984r9459l0444K3259L5911J7453k1003p5381j16563
12041b88466r8496k1627N0098O2152K7231j4021n2097r2369j13011q8084l7369p277p604q002N004J0952L869J6404
12023f52713P0872J31407J35377O7589j7955n4860l2494r95j1645n9263q7206m6006N6743J60098J98002J52067O8088
12006G7106J4357J1596J3104k9364r5031j20555q7699m1085j3568J6542O9897J11450R1926K0082m4610n9300k9964
11989i5116R712K5464L008l3266l7434m73L0178J6103j5223j7090J055k648k2300j1343L1411M7290O062m5534m9763
11970a59907j0893K4676K8066J594l9606p3905p9974n5451j3881M0194J03796J40158R8151r175q8639o6367K7172
11953a33991J06445J33180J25370R2554K4071n9529r9000o1108J8520P1908O0172l795p0597q7004l6311M3079R1468
11936B15432Q2936L7007j5336n4467o6879m9037k3185k2468n0269p7332q6513r0902r2905n9309L0758J34066J78302
11919a0101J43556P5508J9079k3941o2054p8569n9411l3152m3316q2351q9206k7315N9832R5087N9215J1368J6482
11902b9289P3000J23182J19768O4657j1807q5301j40751j58852j23796m6958L3591Q5096J01520Q8321M3624k8469
11886A07536r7284j22718r4539l7955J8482O0953P8615O3245L0309J3086J9516J9966j947j3385K0584P3323Q1470
11869B19257K9640k8113l8331q050J7892J5927L996J3352M8809P3952M2581m4081j24221j40030j02195o0788k5456
11852a05859L9702J38962K11720J99175J11878Q984o3759r6404j01475j00821j08952j16029j04890q6455q4359q0262
11836c38844k5671O9299J15034N5475m3006p3458k7785J0057o868l4342j4575N0273J15595J42448J17012N7460Q640
11819A76744n76O648n804k3253m373L6516L2715l7605j15561j42353j20420p1703K447Q1066J02286L9296m3394o7932
11801a55256m5965m3409o8000o1514J753P3627R8726P3403K9447J377J5530O8567J10281R2313M1637L5881R0967
11784C59365J28264Q2812o883o0325o5309p2917j07748j41131j45888j24082p5793J1358J24120K09878K23202J68362
11768E07285Q4894R779l8043n8527o9907q9833j05553q2137j5855L9736K5843m9714j14050j04648l0860M1345N6335
11751F090J7639k4154k5170J5134O8965J15381J45518J45532J03218L4230k4736n7047p7308r5229r8636q5995q2240
11734H1192r7917j03580p6855m7840n8376r6471j13579r0970m3925K3653J11495J75231J52605N3607l2515m4882
11718b09127j5973k114j434J6189L9449L1670l477k3648j0363J1396J7862J6956K4267K9798M290n9908j17885j00521
11700c52573K358R9847Q5158l1944j26509j08686j9983M8350P3076Q3794Q2769N4540K8462N3755J15902J44271
11684B32587J07779M6540L330k0740l2014j9752J3368L5676K0022l2990j05961j65860j62475p4894L9846R7313R0116
11667G1891Q5737J12181J13307M4291n2641j09241j17456j10882j03230r1722q7263r4851q9968n4679j1265J7279
11651d78512N0053J08325J60684J57328J00428L4125j7641n4947o0058r049P5396J33445J37784J13981Q6933M7895
11635E86170j4846q7776j47974j80041j69086j06489j6734M5552M3508p247n8990p6444n8680k9965j4169j3072j2128
11618c18411q995k0013m7494o1898l8467O601M2399O6706Q9707R2258M6851k3308n3191j2922O2594J29532J79260
11601A31209K08738J86438Q2407q2287k38629l16029k82919j65003l5949L2583L0463P351N585J7427J8935J4699
11585c84981K2326L4593L0191J2344O750K4236N0938P3084Q5237P3473K0861n8518j16329j20186r0171o4866m6902
11568d47920j2426L2501M5723J3954j0972K6862J08202J56191J27874N5158m967k6055j2415J8144L3115r19p5350
11551B6700j29745j10334k7402O0291J01478Q0412J6506m0636m1191R968M7762K4976k5625m0144j2042J0103k578
11534e1501l3373o1253q1158q2959n3969p889K5223M0056N1814N4466K7099j7374l8804l3113l8546o3534n9711O098
11516d18428R5944J48268J47601J17300P3785K1233k8772o0122o2682l0652K3753M9172p327j18044j75149j11216
11500c35336J5766R7596J01997P6432N7487M0685L0573N3288J01537J16765N7781l7693q8757o0767J294L1044J6453
11483B76145j090k056k8721j16563k09761k07066j00460m793j5004q6202j04583l7310M8076Q9914R3777R0692Q8764
11466b26241P7364M5250j0074o6127p6971k2765N1576Q2168O1392K9862O195k4567n4008l8555L5753J17531J42334
11449A30117R5765J2042o4298j03888j03645q3196n5100m905P1717J23777Q6457k4481j09789j01135l7051L920Q262
11432a55431K3369O8922J00215O8838p010n3610k4700L8568N0623j1313p3248o2801j0401l509n7382r5710o5157m129
11414b73866K7164K8200L2455M5014M9216M4305L5440J0758l1778n3430j0787Q4106J67678J82857J19422J7024n4791
11397D18987m8280M562J3668o0021j47975j63817j17756r0135j12713j36596j13839n3411J2434O7013R7030Q3162
11381c47687K9007k4480l5986o286K5031J9737j8418l6771J5299J12567J58595R7441o075m7067j9785p418l7556
11364a29852l4077N3566J48915J40378L0989p1423r3420o0354k5162L515L9856P2555P4664M5375J2587m431j5348
11347A88333l7500o8692r1829r8406r0665o1199O254J02473J80319K01243J80076J53646J17334L7515o9397j21858
11331E27647o6821M4699J10679Q7088J2032o1296j14472j47226j49426j09832l9311K9274O4849O1050L7194J4951
11315C01079m212l1209o2982p9844o9132l2065L1512J12819J61736J12804k0221j14345o1115R0721J75691J03401
11299F14638m2126j15724p7181o675J4886r144k4057p36M0237O3724N6329K6152j6480o1988r0416q1135m4793k4548
11281B20963m3131o3986l5947K9860O4581K9341l6132o8415n4867l1135k7399m4473o9802q9484q8470o0654j9054
11264c88204J7982M7460P5669R6597R2146N4345j984m7253n4024j6510L7678O6833N7134L2306J1085k1725p7882
11247a8347j22529j08573m5452R533K9373M1038O0722N6422O236m7757n1161j9854j8303n9305p6723j5287R0827
11230b89140J58570J53956J15591Q4861M9453k1627j06932j37101q2966o118J2531k3316l9055m081K5630M153k2128
11213a27719J7010R9627J31279P2789j3745n3235l5987O919N2706Q3659P8396M0377N156q425k4615o3223j00542
11196A60427j10323j09590j23245j32270j02715m3061J2909N7098R1238Q7049K8005k6750M60Q4194J14300N3228r410
11179C1544M119M7603L6728k0356n4253n0293n0532o3607n3404j3284J8923K4496K1231J1980k2129o4644o3229j2985
11161b72092J4977l3715j16864j49690j08696m0034J4797N7145J00337J38077J52419J34884R5318N9376N3575Q0623
11145A80437J09617R7984K5232q9284j90571k15143j39410j1815Q1365R5331O0336L2226L1917M5178N6132N7266
11129B26798M3188J8923K466k944k4975q2299j38767j33803o2884M772M902m6804p8040m6233K0181O5475O9640N3410
11111a06994L3044j290n1179p9150m3489M1300J10082J19237Q7122N5111L8036K9801L0991M5159O3056P1862O8297
11094E10996M8686N489m8325p3926n0218m468K3789K7887J7324j6046p5770j26326j27607r2168o3632m9626k5859
11077a19800K512L206j7489j3014K6878N8196O0638P0066J00960R9736K7019o2848q6959m7223j5369k3087l2307
11060C1115j4278K218j8774o0841o9792j2409Q7785J63749J59643Q8405K6070L0241P7177J02611Q6025N6724K8257
11043G63926k2229r8520j52673j35421n8797J2879K6094j6727o5633p2035l7028p761j5839l3631j7041K0561J7470
11026A07595m8942j23521j38616q6853r851N6776J01616J21768J17046R1297M3497k8550j02173j31108r8465m8887
11010a77371l4443m1322j1522O3331J16092R2677L0708J2787N6374R1560N6200k0731n7373k4642K0744J4166l6538
10993A50697p1305o0673l6043l6653n4967m9260L978Q2380J34397J18640M0040m4425o9343k3538L7421N0151O749
10976A78246m8183p0556n2702j7040O470o12l0584n1109l4868P611L4117J4702l5683p1172n8384n613M7178O5780
10958a22402M9734K4062R832J1885K9968O1313Q6863P8391L7036O311K1469N6687N1295j4244r6063j41188j35801
10941A5148r5628m1672o23J223k9216m4882j1359M6811P7942O7792M2428J8093j1553l7110k6741K2155N8962L8268
10923I0038j7563m5451k0850J9652L1120P422k7449n0535n3989m6246m8099p3536j06791j10748o4925J4955R6621
10906d06374J53533J64477J17407L3231l1686l3044J3586M9051L2644k2618o8614o1581P458J01192J57309J39105
10890C45076O5007k1535r6788j49138j46296n9405P1890J46400J05192O14p0339p8505o9659p4393o3152m108P4277
10873b4862J08823P3487J555n5726p1291m7210k657L2741K9321k0625r0860j39404j39369r0047p851P8419J28872
10856b36684J15686N7508J1621J3520L8355M2228K5290K2091L8112L7695K571l7769n3591n8076p4853r0719p6507
10839b23522l7139m048J0614J5365N416k7375n1435j5269P0073J15223N6278n4889j05818n4784L2490P2114M8341
10822a48365M494j5467L009M7172Q2780P1475R044n7265p3563m3585k4589m9511p7103m3875M5621J11417Q8057p42
10804g0996p1296o8883j2201L8916M0073p677o2133p0735j5193O6684J15128J09028Q0108O3156N1543J7196l9334
10787A63384q0482p1181j1064P0812J36659J55094J16302M4761j2538k2741P808M4888N4099J6781o3562j54522
10771C94498k03742j77087r5302k2023o741m0644o9668m8716J5435P0597O9266J5312m2094o1854m7820k7073r854
10754b87510Q202J6992k105l9010n4909l1589L728J7429J2525J7656N0551J03213J42167J16979N315j30053j71560
10737b21979p3849P1481J42057J23377Q6569O2198J9892l5369m3232Q657M3824O259n4402o0842j8318J3149J5835
10720H5307J7992K5944J6700j1633l5312m5456n0093m5358k6061j2209k1146k5786J1729P4581J08567R7874P4038
10703B39678N6425L8023K7271M4252O8351M6418l4160j28832j96715k23472j84364o1493Q0859J19222J7385j11038
10687b02190j37432o4432J3287M3089M5807M9650N9029P1153P1834L4284l2957o5325k1552M5985O1335L7942M7319
10670E6826R0888Q9703J1115p5157r6168o5075l3997j2029K0803N0937L4843l7478j12251j14320k0097J06708J62925
10653E8176J08105Q201m5721m2967l8046m9504l7272J4358N6776M7228Q390j3990j1542K61J7618L4532K5327k1103
10635A18827p1197q1321m3528K2239Q9685J17281O2156n4186j29852q5692L6063J23966J27152Q2086L2353j0340
10619C35692k9948m334M0164L2753m9655j37161j49698r4923m7300m8184o2636l2478N2661J42345J73365J28315
10603B48978M7559j7636n5193q4362j08856j03709n2092K6491R2980J19856J03501O3235L2161L1961N1864O5759
10587D62497O7069O4922M8121j3812j20067k14894k34926j68265n7264M0727Q6469P5117L7910J5242J4839Q119k3041
10570H8763n3537m3783J1155P4703J02360P5691J5819l1119l6638k0691k0684l2861j9820J7953K6415j9385o1945
10553G2396l4332M5507J03108J07346Q8540P2034N3299L6905M0074M6541J2519o0686j09029q7696k9026J0952K4078
10536C92530L1603K9800K926k9375k9173k203K037l8514q1157o8094O600R1231J23289P5374k8822j31630j82386
10519A64036j71710j25447o8045k663P1387J35585J57533J17205K6067p4576j35038j31457q8631n9268o7259p8602
10503c30883m7327J3230L4489j7682q4454p8024P655Q9734J03255P4104O6709R5967J24423J22231R0630L8868k2637
10486B80288o9395p8787o0365m1185k4608K671K7155J6500k3047m2927k1396O701R471L501J1604J7910M502k547
10468A6046K8743P6224R0897O9882N4267O1764O8933O1098N4661N8657N0273O289o1174j11024j05086l7736N1156
10451D33870J01865R2118N7008L3869J2435k7925o1426n0882k2056l5710q4718r0278k1287M7623L2954n3669j36321
10434B27470j65440j38037o9569M683L0176j2558o9750p3589k6289J3099J0189j6586l5389k6370K1015R1088J29391
10417a06466R5106K6650O790N4300R7885P4779R974l1664l5583l9638o4772q6390p8480n5385n1520p0637p5379l5960
10399c66390K1935L8399p570o7225p8289l2970L0039Q1481J17132J29738J07008O1700K6806R109k0278p3160j12270
10382a34805r5400l0205L8644Q0359R2590Q0248M9895K1505J8718M1635O6601P6370P3921O2260L1269j9742o0510
10365C93353n5868j4441J2218q804n0404o5688n1874m0777l4895j769N5669P5397K0598n1815n8434o15M8436N2446
10347B22733M1503L3070k001o9639j14260r2784l8349o421o18r39k2632q0786j24720q6327R593N8858J7466l9782
10329b96035l0346K4785M6396J1775l0488l9438k1875L062L1875N7414N6515J7037m1931r2654j26071j40080j15148
10312f85207k9911R4820J91277K03033J41105O5935J8099j1349l9057m8853j8286L2824N7202M2871K6302L4140M6854
10295A21799M0311L0123M1186N8842N4929M6760P3761J13832Q7474k6307j35059j43634p9275m4117o9255r1814p3050
10278F506n4834p0863p7460k8087L6025L7484k2070o3580l7557K6992P6618Q3833M5005j6988m2564J4762J11346
10261B4568J39707N7790n4853j00441p8346n8427p5035r4482p0882J558Q0300R8131K1107r2990j29490m6490O3949
10244c14326Q7068K2654m3019o6859p5485q0935n7993j3791K794j2981m35O4705J14166Q3175Q674k7028j1521K72
10226c20865k1481n2619o7207o4215m4277n429L6354N9330O7968P9760Q6602O7988L8200L6012O3881Q1796P1175
10209A12973N9314O1413M2837k6785j12367j45405j03309k4756M4678R0351J13272J08284P1948J7812l1403o5203
10193B13654q8894j01473q0839j2941O0083N4312n7541j78736j71860j9563J44929J90360J25357M8657Q630k1890
10177A12245n2112l7116M1466J19016J16258L4806n2215q6025o5345j9045K5212M5020L0399L5r885J3434M1358L7213
10159B94719r15m0918n4192m0952j9330j820R609J1889j133k4237l6963k7466j3741k3424n3036o7748m7372j0919
10141a47949J6979M0669P0692Q5451N2337j6080o5072o7736n9064p9067j08289r1823j7122O3515R1564O2270K0578
10124a48147J2739M7144Q9990R3936M2746k6691n8889m3660l0959o7426j30923j53103j05193l2704O677J3665L1629
10107d59169P8365J28393J58672J72335J65660J10687J914j03497j30640o7342K8161R5058J17498J08510Q1187M5403
10091E31195R104k6141n5169n9122l2474j4318n0659j19574j42585r0398k7629j8635l6678j6557M0525P7911P7169
10074D5965P3393Q3222Q3162O3609M0950M549q1492j97375k51711j89297o7158K1117N4460O8927P4879N5564K5820
10057i1416K1087L0137N309m8616n9318R380R0207R4383L0489j0012K1221O5856L8470o0856j44485j42412p9791
10040b30367l4287l6808m8248l4364k2133n2928j05518j08934l1058Q0475J54037J64186J36668J08065R6882R9209
10024A34877R6855P5460M0195O469k2420n1541p0021n6700j7409J1301J0432L957J6235L1520K4675P150K838m452
10006B39421m9981j18236j47325j15142p0156n1255k6227M5379J24181J26011L5757o7836j05600p0906l081O1793
9990a93203R2552O2235j6746q4642r5608o4748k5965K3735R2524J35749R5564o647q2799r2117p8512p4323l7789
9973c50740O4502J67569J69405O0591o5867j23467j01053l2942M4178R9451J18918J19545J20858J04794M2349m3778
9957C94313r3085q9776p9173q7839q2140l2879K9316N8554N2014K8570p701m1395k8452L8926Q7642N1308k4336m1137
9939A32730K16o72q0798j42282r0393K9256R7862Q1659M8783M8871N2468K0544k8289n3215n5371o4085p3479l8005
9921a14200N4616J38740J34818M9193l0900n1565n5563r8967j49082j29294m4035K1962L6533O5635J47445K01197
9905A76533J33994j3089j09178r8349l9365N915L6485N6172L9417j2421m6093k9395O76J181j2996j3164k0116o5583
9887i376j18495j11800l6114M4133P0639N0372L3038N6634J11373J36408P0348o5014j56057j17921m366N8694L5288
9870D7784M823K5069N3572L6912K455M886L4846M4041K5777P787r135l9800n8237k3298L9264M9756j2656o9994m7886
9851A15966K9100P8754O0735k116p1903j21302j26552p7961O71P0323J14937J40585J42682J03014K4086n7757j04668
9834C18594j08453q3280m3771j920K6225K7667P196j2409p823K6030O9866R1094O7552P275n5941r0783r2809p9001
9816F5309o0448k7796L0285R7243J28768R2242M403p8036j06368p3685n071P0060J27638J44496J05478K2273o3003
9799D73788j03829q6658m6841m2576r9892j78561k04452j45168m3620L3383O4265P0694O3556L0910j7805m0504k0635
9782b93945j996k7544o6641n0856K5834R4302J05324Q6110P8876P1153L0521k3540l6934k83L9515M9791M8455N7951
9764A86093O5309N2697L5621L8957N2618M1716m960n9123q3398o2715j0698L9680N4635K3602l1714p6078q6242n9885
9746A16115j3507K2969K5219r21k5725l4196m2004o2810q0294p0142l2219J8183P2700J20701J35918J01576L8342
9729B89905j7580n1282o0466l3005K7524P1111M6749k3350o2858l9612L40N086k2930n4015p4601q1399o8047l9379
9711a87809j0478K0994O7051J05716R3140L7767Q766L9835P7569O7195L7697M5557P6219O9442J8216k3848k2702M746
9693E25073K8923K6228k4478j07738j50653j01293j6097L104m5671o2984J057Q0616J03357Q0570M6255j3611j08295
9676B64363j79566j63448p8520P374O5566J04740J15043Q1334L1998J0046Q028r431l3369k7650r750l7601j06184
9659D2973j33076p6059N17J9016l897M993O4056J18102J17785P1923K1606n000r195j4107l9556p1621o9929k4733
9641A3798J1105j8763q9882j12210l9254P1099J22780Q2966k660p1097q7217m3953L9772J13988J25199P0389N931
9624A91991j5033Q98J1367J336p605n212j4898n5516j03542j12123o0197K6000R2704R7158M1584k3733m6262l0130
9606a1213l2984q9876j56950j54136n7115P4971J60617J63533J00709J1717o3282r1675o1405N546O2880P5580N0333
9589a2750K7143L7635P5033J07883J14144R0799L9674l2945j00171j22669q8312l1436m27j3318m8880o7058l4810
9572f0465M5021J18326J16866L1259o9901j11746q6233l7725l570K142k6975p7572j03124o8533m175K7492J7930
9555b90983J9901O4146J15635J27110R4033L8142k2803o4882n5679M355O2790O6762J6450n1707j09698j43037j38608
9538b68073r8600m8905r517K3532M7864M0367M733l892M9250J10880J04669M7604L2031Q9040J39822J06241J0626
9521C77672p0526j07017j26242j52309j75851j73220j29192n1851J7584L0801q905l5616K578P3599J00884O1650
9505c65961J1214J2038O8460J32919J51483J02371J4806m5957l4912K4266O2312L6963l3222j01942j35122j17206
9489b17490n1180L1205Q3263Q8063P5875Q2034J01600J02650P3046L4893J6546K3638L5500K2614k6768r0891j32032
9472B52566j32609j03108n5445P082O5713Q4107N4746K1981K7067N0373M5021R876j8550l7403q2009j50386j83119
9455a44097j46798q6468n4993l4551J6796P2438O2858r263m9872N241J02290J41139J00528M5332K4725J5278k2540
9438C8043p1466p4963j5487N6502P8275L8522k5803p6658r7593q1443k7978L9445Q0149P4820M4389K0403J2351J5196
9420B6704K9544N4659P5016P4832N7169L0762j0012o9106j22459j36089j09531p6580o0618n1144k7648J3948O2979
9403b37574J03223J15181Q7133L1680k0786m9771n7524n6672n6776n8582m8575p962N6432J03537J05024Q6492Q8072
9386A82552R7533O9807R370k4603r619L05m3769j13026j49169j45142j31484j14035p8671l9815k9735m1778k9287
9369e90566L4675J29106K15542K64510K54649J82631Q0628l866m9953o3433m4272Q488O0675N8479k227n8997n9894
9352D16175k9030k5714n8010p3615l6244J9089K4547l6769j05562j13831o3939j7415r540j2296L073J0694k0541
9335a28928n4837k9358M2930P8412M3309L643K2929O7025O0644j323n7967p6710q1570q7566o5242O196Q8353J19299
9317e0761Q6241L7604K4401M7186O7014N7360L0146R596j779j6079l1478l4765k8636l0216m1116m6727m7705n7056
9299b6770n8155j1677P0102J03441L4263p4014j09925n1782K2978N3396N0589L4608o520o3117p6567j8141N0651
9282g6640N4747J2177L183N0742R6712R6253P2355N8895M3803Q14n8909j00020j03929p1392j1200M4189L9889m0688
9264A10981j30189j39209o3824J0676J9160j3490k8291j5469q331k0577k9158j1454L1388Q4932J28858J35643Q9887
9247A51533J6967k8037j2501M1056P9366O8081J6404l8194o6626p4287q8183j14578j21892p9885m357O0169R5683
9230i9281J19190J34408J10159K7521p4157j25633r7044k2159M1761O3290M8761K2432M305K928J8301M0417M5777
9213B60976J3794m0421o6205l4392J5798J7080m2524j10393j42959j45100j24945o2055M2690J25953J23225N2933
9197a16545r069k7424k8538k8375l22O3823J11597Q8928J4772m2063m7279k6352r905P831M1689P4728P3591L8735
9179A79822J2055K3873N0237M0674k0815j01560j59972j75375j42832p3387p505J0656n769J2224R3976J70073J57411
9162F3786P8007L0721N3040Q0054N3217J676j8997j3859k6443o5640j03217j21531j20273r4803n1410k8139n2687
9145c36498q8294p1297k908M5802K9957j4217k7532l64L4862M8412K6819k4151o1842k6495Q1714J71974J56562O0524
9127C028j1780j1895Q860k050k0153p31L5534L0943j5769m2302j2346L6056M9409K9397J6252K3163K1132j2165n4328
9108G0255o0531j4162N4211R6830R2799O2002L9484M0228M8139L4117j5458q1104j19352j00309m1342Q768K5570
9091A40145L0257M2653M0144l558n9386p2154m4609l5349o0213n7359J3807R4292J02817N2362K0773K6574J2318
9074B43514m6524r4024q0829l3009N027M1021R4864J28672Q4076k1972r9294r1742l7564o673j3726j9848k7K3137
9056G5079J5206k0744m5269k9650J3664N5217Q6170J09706J06789M9702m1706r6883p3336r521K9579L1802K6473
9039B82278K0579k432l2405l7341k0583j8916l3774k1774K3149L6498k4693j02552j08315m4400M535o970l1653m656
9021a23425P6119J58929J88855J36327J3895j14582j73859j50731j03373p9450n8538o140M9904M9574m608l9075p638
9004a87816M5548M6879j0955o3531n2562J5402Q4035J01937O1869P49l3155k0326J5259K9693n06n7138r6500q9448
8986b10566m7542n056K3788N4273R0611R9756N3402j8184n3623m1989l4234n9382p3523k5105O2063J15409J06813
8969C6911P3638M9206J6679n3181j46982k10858j98294j11403l912O0146O3698M6173M3564L8607J71m7204m3727
8952c86768J5288O2693N0067P194j4627j2920j0128J213L8334P6819P4354L9184K4529M9901P1406M3760k1456p5445
8934C3398q5696n6038j2994J4453J5146M556L392P894j022j9658j7816J8795O5386Q9856Q8494P6102N8235L1079k312
8915C11250l2158n2589o2294o3049o5117p9814r4341p1309L061P9586Q5808J2351o5092o8919j1454K1601j9262q1350
8897b53091p4906J0096Q6391P4492p296p8046r0912o2046k4292K884M242k0684l1391J8812J02343J21498K9786q9091
8879b81211j10422j4817R9636J38294R8831M4524L0608O1723R2427O8717p685o6345m8884J4318N1632N7237Q5765
8862C14348J39584J40820M9755n6355p7927k0491L1045L1754O746j6993m0824n9586n8638n4172q1971j31803j43746
8845b8454r1636k4804N81q973j7495k4917n0953p3798l9905N8718J57184J85334J39926P4294L4274K4084K6272K9848
8827C69580L0058J8442o025k1512n229K2547N567p4677j55597j57674p8204J5745P4068R2781O4274k6411j30086
8810C7647j35719r651J18866R5638n5975j58586j10706l686K4883k5624m9733r99N7488O0394K3746j301n022j0234
8792a48574j6211K528M4892P0250N1915J7015Q548K2979J7082k4220n9916m5628J1739O9757R6760P9602J2067q4950
8774A25635j46178j14025j4136O2168O4213L4980M0801Q4000J13798R7681M8866k548l5280m1514l1706l0260m5728
8757B10767n2164k2143K7738M9753K4000j8527l6661k3425j211J2601K2315L9000N5767M3789j8107j06820j61014
8740D5658j37395n6426J8248M0850J5609k1374l5412j2629L5348P9578R2884O4362j96p9681j38184j44560j03608
8723c36928n1542r887L2761P8023R1161N2426O637J1186M9499N3490R781j9226N502M1020L3278p236m2820p6084
8705g8959j25739j65385j47727p9817j9980o05k066n202j8116l5989k2601L7614J01005J10866O3533J446m2389o1977
8687d92088n2012l023O8836J16792J08593O4171L1723L3354N0256N6971M8746K9814k838m5573p3237o5236m2264
8670a67015m7189q3233j00663o0816J2593O8776R3906J09052J19521J05464O3309K1638N341Q879J5830K3241L4058
8653B22692M2782M2451L5334K7570K0598R621j9665q6535j84170k55026k31843j18744l939L0897l950l0674L179
8636d99422P7002J29169J17020N3745k042o182J4944n527p4754j08041l2869J03273J76880J28574J5803o7136p8129
8619e7692l9187k976j1843n5048o8286j1279O4825P5961K0979k4504k7423l0046m7294k4569N2723R3895K6218p9462
8601a45008r8888l0371J7500n281l5064j3739L1882N8184P5267J09023J47512J63879J55270J32985J07203R4414
8585G64768R7460P0095l8506j82635k32958j35634J218L9003k1592p1340n6196k6425l1602n0117m4252k2848j4322
8568D4117j5827m017K3602M5444M4999K4631n835m0339p3157q9926p1441j5218M9838Q4397P6687M7481J9800L401
8550A48637N949K7919M1533J1949m7527q0583o6284m8577o2201p8902o6110m7969n4335n6047j7660K6442K7322J7569
8532c18875N7389J08865P8912j1364k7299P3075J55493J01756j7907n7908m167M0304K6714L197M583N490r281j4089
8514A94888M45P856j460q434j7833n9898j22824j46829j10597o4144m4890k1078L7308Q6045O5800j735m1412k9873
8496b78665j0239p862M019M1183O6998M4222q702m5631n2668m8637m3120k9539j4273j7652l8493m5118j5981L0318
8478d69840O1647P2605P7913P8696O3906M2908M4769P3536R1194O6797K3747R829K9093L5234l143n8479p9014m8647
8460A12751K813L4290K2394k9552q7602r9660m0420N1823J08176J07587R5577J08661J12514N4766l9087p9306l1677
8443D04048K9745K2984l0147m2553J1607O9192P5949N2523M2454M4496L3095J1888K764j498l0880q6798j31691
8426D77178j34475j01846o2432m2892n9313j02856j27292q2742J8531R4610P9116N51n0890k8534K8375N7698M6033
8409H820K1818N396l998n030P472J9452L438m1775q2275r4254r3869j01440r9886o1859l688K8249K4027K2808M9692
8390c96902P8495P7186N5853L9420K0076k2610o7582o4261m879N3417N7694K3915P304K4533L7233J3050k7237m0586
8372a35881k0684q1J732L338K4803N0632N1015K7091J1736K8614O8086R9962R4668L9549m4496j07452j14122q1363
8354b853n0730l2700q735J7793J5896j9474m9356m4109k0173m051P487K8754N7184Q6236J14939J22499P1892k9210
8336B61289j09547j17323q6428p2010n7982L910Q7743J08915M8250j7786l0980k3775m1429n4777q581P8131J21171
8319H8791P5801r541m9294p388P5073J24261J03169M0130j4679n1460r5928j45404j50818q4536O685N2489M4732
8302B083L4437N0454O2520L4808j7745m9266m0401j1230J5176L5056M4787K5813k7074p3052n3339L6641J26548
8285A96216J43574R3299M5407M4977O4223M8139j3548p6122r4364p3042n7426p6664j06898j01363n1544J852K2923
8268I639K2381L1326N3162O2229L8466j3391o7647q8666n7860n738Q720k6036m8599r321M9782M9317j3279o1381
8250f6896m4584R834N2217O2793M2591N981p702L1092Q3504P5337O304l5693J646N8685N2801j2365p8710j26171
8232A10664j69268j93078j61137p7717J2642Q3116J36543J64886J43230O9535k1935q9397j04735n9493J8597O6761
8216g0786M2844k2246n8336l8155L138K3378J5019o532k4592k8385k0658j4949p391L2250J11993J78154J67142R0059
8198C71947K2424R768K6506L2271K2061M132k9812q3107j27574j27014q0460k8318j7672n7448r5963n4840Q6086
8181a27013K40750K87014J92605M4935m9281o3867m5022l9321n3826o7215n6643k0609J3103R379l8982j05018j53121
8164c2132j57877j08203k1076N1848O5806L8818L4246P6570J17278J02583M4188k797r292P956J8971M517m1386
8147A90018j03096j38975j11926l4432K9992K2069n5479j36863j52030q9120J570O2228P4853N4561K1796j70J5607
8130c49397O8355J09672R3029L7921N256J2087J8136K300j995K9744O3306N3886O910m4332q9150j29173j45796
8113b59241j21114p2745k7869J9867Q5209J38746J30824O7426J3799J0232K2393n705p5347j29748j15335l6422M4848
8096c10182O3712J7094l4347m0855k4443l9251q4468r8260m3845L7419P8228O2704K8420J1663J8837M3092P8737
8079b35745J10600J09661O0366q983m2814j9347J6581M728n0793q4866o2091k5260k7041n0125m1398j622J9096J0822
8061c18231K2587P2357R9698N1454k8566n1397l928L9228K4227j5605k1943J177m97m8184r6796r0887k9145M1267
8043c53184Q0105Q5965Q0215Q1288R8187J28410J50106J32176O8539p314n7038p7804r4015j20649j52611j77033
8027a34657j72920j13252k93J10367J58994J51058J36302J23493P4378o208m4336k630M7510K1487n2232p5462k7151
8010A94448J4622k556l9949n0083n1976p9296j06691q5133k4032J4558m053n1005p3441m1286L8749J26598J68954
7993e1572J42569P9347K9875O824j3879m2051n4426l2937M814K7646K7390K0465K3900M1160O3464P3234N0443j0647
7975C85619q4949j23832r2858j0800N6239N4376l199n2662n0070r940K4435K3721j8636q6762j35237j16974m6634
7958b88163k708k7744n9460j5985P6155J13536P0669L8594Q3412J45522J33103N6744K113L485J6089J73l5995p8971
7940B30569j31788j74246j56946p1071J1918J4783m4802o9454k522J02229J53148J37117J20922J38252J32088M9326
7924D39523m9942n1668M8250J19495O7394m1567p9537l1180O043k8295q4752q6254k1327O3343J18810J21891Q0122
7907E90349K9163O050J3846K5292J8398r674n3429r6018j06884p7911n2816p7831j27346j27170n5966K6388O2301
7890a3258N8226M5675L1092J2536L712R299R382n119j5787j9947m8826j07850j39115q9454J2310R1302J15681J04436
7872E4295P0040R492n6424q9943q7677q2428q7470p7300l3082K5469O4526O7047L3267k2637o7630o6828j9636L5966
7854c30953O3680O1698N2594N4168O3729O1369K9980j9367n0187m2225j8380j0772j4449m401J2702M900k5637l4927
7836a46478o098J5490j1546n4081m4835J9071O6784N1712J4884K1077O1617O6123M901o8269r0946o7118l6018k097
7818b05827N2712J05031J00700L6519k2683k6120J1199N6399J01835J27403Q0622m4472j50128j31686j5407P2223
7802A48320P0063M3834O7045J12144J03656L3198l2984m5671k6934k7078n4081o3233j6170N9655Q6405K0113r2729
7785C85553j58914j31492m4112L6152O7585N1841J9612L381J0515K1563J9219O399j0789l3187m5884j7422M9036
7768B29056R5593Q0271L7638K0822J5184k4779p7104p5160k5149j0731o1989j06111q3684l4026j5182j0696J9963
7751b6084N5208M8162J1121p909p447k3121n1982n1372r373L8033N8292M5574J122o0947r5383o5847k994K6592R353
7732a09002q522l527k897j7015q222L9802P6063N2662K245r852J0613j0222j04531k04204k13159j12714K4239J08199
7714d90044J04361M0915k7866n9755m3608l01L3720L5928J7991J3188M1694R1902J34307J45383J19571P1316K8347
7697B57049R131K740j4172l7006l2362J0584N1877M7707R613j1068Q563L7646L6268L532k6820k6822l642R100r417
7678C22501l8813m0988j2719P542n405k8484k8345o366K0476N3779R0721R5294M6299m094J3031O9076N6078n7540
7660E52043j62522j48425m9152J6164O547j5663n971L346j8116l7208j6529J7578J8064o249j2717k753j5798m8424
7642G4215m5418O899L7213j6372j07435j32143o2384K5715N3746K0616k7497n7073n5568k0957K5445M2638J6541
7625b21819j5240r184L2271P6690J06641J20912J12129P7253L6234P318k2943p0893j11389j05245o5331m8890p8348
7608a79834j12148j06719o9214l0275L021M2430Q6286J12582R5324K3315p9531j50925j36021m9322L2675N4269L4442
7591d29645K5373M2367N6360L9395m672m7321n9022l1406J6616O0001R2034J14783J15380Q0799L2041N283m954l8972
7573F4440r5626j15444p0402k0008k9073o8184n6902J5160P4861O9870K7410k56K702K6940O7451J14055J38563
7556A45557J17071N4831k0658p8338r3920o3666j4623J8149K9579M0260N3190M3844M320k9755j6233M4276J09566
7539C43450J34044R9200K4421m2335o2959n0877n8877j13941j80658k02678j65556j04134n9819m4470l8217j3157
7523e36563L5096P7943Q6068O4907L6955j084o3512j18035r8603n35Q8528R3525M5877K3606L5470K8681j1078m0328
7505b53082l6814l0257m1940n0875l6994p683L5677J06536J85371K11350J53230N2941k6438o1484n8125k4798J6596
7488A33211L4210K7875K4222R007p1298j99971k57523j70526k8323M1840O0727J36136K46494K37748O3423j15043
7472A72209j41787o9092m7164r1408q2680K9440J42395J40942M1145m5052m6253L990K4858j4674o5488o5146j8219
7455a31984J7972J9549J8937L1952K3500j9378m1078k021M1088J5366m3206l5057M6862J03285Q1343M4921N6989
7438B29040P7594L8687m2883r7759j10218j21275j45290j49857j17149p0125k9661J0120N1309P3015N9289K0967
7422c24196k3226o4523r1489q5809n1399k6011l4253m1459Q109J03140J54236R6133k3424q9873m4658P1072J83057
7405b84573K44466K26647J14377m7605j48356j12398O267Q1831N9461q193n7680q3295r5072p1426L778R0633J22342
7388D1204P6229n711n7569m1543K2013O6562M2797k0956m6779m084N3562O2463K2736k4451n5878o8091n0532N40
7370A2512N6652Q0699O5077K2384l8212r3617r5848k8332M4813M3004k1120n3546q650M9267L8582l1265q0462o1260
7352i9322k999L6053L3497J5838K0509N3202Q6561R8609R5391Q5525N5387l770o2085q1112o7650n7586n3753k9892
7334A22403K255r708p2129j11138o4055L4850J01135J01560O6696K9622K51j4153r584k189q793j7672j2347j2763
7316A24241n1749j16068j52273j30902o9072L609N8809N9741k473o1520l5797M5630N4175n8149j64576j21813L3300
7299e84887J37703J22510P4861P8709J03013Q9281N7036M8793L2382n1189j67234k04367j20140L183P2716R2250
7283b15380J14062J34317J02948K1997l5056k1957J2986l474o2092q1562k0030P1153J17904J07420P5324M1149k473
7266C57236n1210q4048r8591j12910j23549r7830k5183N4591R7368J04944J05201J03890Q6161N1173J3208k4200
7250C56251o3878q7497o5700l609N0531N6137K2625j1304k6870l8753o5543j00793j18053j01023o2996l2215k1395
7233c14085k0666j7810r535Q555M0550O9438O3557K3713j21L1370Q7752J03796O2043L190l9342p1623j00849j07547
7215a87614p4359j2203N8542J24730J62598J36277M3647n6511r3711n3774K1536Q7244J20705J07678M3680l9901
7199C88564q3012n8121j2450j8284p5916r7491j5000J14777J58523O5606o6096j08786n0300J8359K9889L09k5943
7182A64628l2772k6655j9454k8194n5744o6580k2314N2581Q6490N5336J4241J4142L4283K8696j944k4703l0742l6170
7164A05125m3333l6271p641L0116N1288K7111m7455j28388j55026j20429p4872m7775j4016L9128O7422L6164j4008
7147c32860k1199J0903L3495L2615L3460M5127N4570N9630N7294J7491p3897j58184j51960n3052N5243J07411J10338
7130a73575R0774M7139k2132q3732r4736m8449J8149N5968M7371K8459N3024J20942J67834J46276Q3520K9597r139
7113D57290m2344m9735k4981k3526q9772j67638j67018r4768k9710R424O3830J14165Q6475m382m3408J2332P0046
7096G6280O4119O1018J20329J63924R6601k4824o8761k5209l18l9009p3760n3613j7637j3636k4890j3788J4690K3967
7078B65483r838p6386j30062j16853l4136M7708O0306J9365j0511j2848k2795m3891l1339K9701R2045J16093J16998
7061B59040J11549O9042l5282j47549j73590r1859J3322M7561R843k2772n00M2039M1933r647o7622r4929q8138n4331
7043a91890p685J4397j5487n7098l4816N2495J11915P9061M115k8518j4523q350k9715n3054o1037n0952j2962M4265
7025b59839P4260N4395L4443O1603R3811O4796K955q973K4854J8156m7995q7705m8124J3622L2231K6511L9274N8285
7007A46560N3068L1950J0852k2051o3284p0340l1330l621k6728n0266j5497L8655K9510m0035q6216o3640o450M1577
6989a27286O6511N4438n810p6495r0921m2580k770k3447o6425n9624R801R0859J35646J40980J31992J24735J06048
6972C65652M8573m7109j32940j57005j23624q2599n7030j6778O1912J43742J70309J30534O6605J8849q890l1889
6956C48312n7628q1749r4320q4160m9441r210P678o782k9531l6295l3375m5333p4077q9218o7622k8433j2051k8686
6938d71921m4720k3811L2326R1657J28818J41181J33110J01536M5299j8834o1089o2627l1552N252K2188P905l1438
6921c6720p3228q8420o3228j3675K7353L8389K2230j780r922R818L6414K3000m5310j08027q6474P945P0475L3125
6903b58035m6799o8139j6921L8441N5435N2639M3051M128o5857j18914j15716p2673k2325L5463J07634J63750J62604
6886a22234J13727P5805Q9770J34770J54709J16010L5746m0930q5379j00619r2830n1671J7417O2167K9919n4852
6870B81525j06713q7005n0290n7902q7839p2181L092Q2822J17702J12494R5824P4553L2612l8082j15549j57133
6854B7930j35372o6259N317M5179M1990q816r7882j75373j75381r1311N171M6013L7696K4249J6669Q07j4394r852
6836e23619j490j7645l6846m771P8320J38877J19415M6886j0787k3132o550J5546K8999K1660n711k2974P512Q3052
6818a13258J49097J47280P2945j9274o4926m0420L0461J03449J36307J02456J4155o5830p0017k941N2115K6379n4072
6801D03906j07755j00441p4149p9332j11354j21193p0181K7979J08473J07977L2212m4339o7515o8216j01154j44750
6785d09832j26260m4010J0547j8358o5458l8509N0742J14156J16950J06332J14426J06199M8467k6076o3510o1023
6769a85217n3247n1193l9901k3878k5746l6299j1895O0327J30615J44703J06633N7408J6865j9265m4735m8228m5674
6752f8727o3430q8098p6103k2010K5304L0730J6215J3183J2281o433k9031l6360m9161r1866j26509q3110L6097
6735f07028J35229J31061M4582l9290p2920p1848n8024k3924L4189P9542O3497j1950q5018r7045n0063P634L6415
6718e84961L0782R553P308O0223J62405K41617K21356J13048O095m1506n6735q2625j10658j13665r6806p2458k4792
6701c31819N1445J10341J06783O3856L4844K0932j3645o1361p3494m1353j2787j7278k8028j3453J7548L6968K9248
6684a21253q241o3726j04603j03359p1938m2399k1542J049J4750M135q152J2599N3066P4086Q2017J10063J35913
6667e7535J02078K7565Q807P9532J53702J49119Q9673L6709m175m6736o4465m0841k4499n8879j00368q1979k3367
6650A44341k273m2350r8410j28502j14573m1052P2222J40650J00122O139l3249r159n696m7600n8138R072R2785
6633a5671J20105J00194P5467M9612J8375J1555M2203N9692J7072m7852o1764k4158m819m2943j04888j41100j34671
6616h3591q8686j3711N6322P5173L4931j8800m1228l5807k7781j4316K4674P4927Q7027L9989k3196m5859k5420o242
6598c1594j7896m9437p7487q6848o4879j2338L5909M1516K3706M2778J03127J27054O4107k4100m3405Q483O0969
6581I9665P9712P9241N0379k9333j10111r4416K0501J10395Q3170j776l1907L426K9839J5193m777j0836k9020o7172
6563A92173q7717o6151l1694k5465m7610o7734o9566o6826q0950j10797j24261q7605j0347N3063O1710L5094K1728
6546e12955L5158M8791M5001L5774L2825K7693J0832j2258l3355n1660o2722n2565j2513M8495J09475J46944J42572
6529e4468R6901L5672j1931m0713o1693p3333o3158l6401j6081r427L31K1175L7518L8864L5437L0235O311l2930
6511i7691m0033K1300J12797J54374J16523M2927j7326n7324q2615p8677l7428J2354L4002K6486J0614j3681o2348
6494D4254j24614j59599j41051p9691L113R3956J68400J85508J30315M6289m401j0313j5853n4807j03019j10442
6478a31955o4223J94M6516P3285R2447R2873N3873p677m0363k7985k4389p9516j49911j38519k8645P8999Q9853K7319
6460a37824k0232k2789k0393l5334m1949k5476p282N380L7906Q8785J03384M9241k2171l9655j1366k731k9318l6993
6442a68817J626L3749M416n6406p3063k8737J9511K6249J0052P572J7143J6696R194J3433K3318J4776q970j6995l723
6423a58976o483n0428j03976j15759p8547l1126q477j3450k8381l1699r434L0145O0053O7593O8774P1756N1438n859
6405b92836n6375m7279K009K4675R554J1288M4134M2764k8003r2365o2098K7255O0990J1158k5632K8553J22380
6388b19828J46513P1334l1088q1808p1468m5100m1758o1159p7620p3011n1335k4764M066L8479P2520Q9143P3521
6371b83363K5403l5148p0541m7727K8299J09577J45813J25003O7698j494n8551p4513l9454Q992J2252m3548j08358
6354b39660j22581p4304K368O6457R7698J01048R5981R3556Q0630L8701k0078n4999m3440q652J0073j05k5274n1275
6336e3856p1888p9645o7869m0170m506L8209Q4068J07961P8401J708o4219o0521P872P2019O8350j294q2695j26800
6318a94875j20351p4204j0168M0156N3618M3944M7054O6324O2596J8014k5424k4823j356O11q111J3468M8656L6958
6300b7913j8405l8603O519M1271J986n7587m9891Q769K8139j7324o5272o9462m3266J894P6493J52219J60392Q7520
6282A77479R451q409J0958J9007K4946N8910R4628P6036K663o7648r1802p3272l4542k556r617o2615j18443j31227
6264a26053j12182r7255p2034Q058J24326J90127J57968P3853L127m0638o2699m1995K8660R3965Q3592m201j04026
6247A02593j56008j47264r7544l5494K0528P8490J52379K12333J93525Q6474k2918n2653k7910k3922l8767q304O2250
6230B97788Q1744J5644m3461l978Q9700J18227M5187n3574r8863q2117l4276J8661N2572M1980j1087o3138o5437
6213C05572j1498N6762Q6769O1224J3079r167K965O122m0128j15934j55411j16829k6158M9303O2191K1151k6943
6196A63070m8382n2300o2645p1136m4447J9091P2055P4505M1331J1368l786j0689M90L8658P2928N7632k645n3580
6178B01518o3043n4919o0097o9492n5384j3125L8484P9971R8718Q9690O0902K4054k4901r3764j57283j64373j01106
6161b64150j9937J7989R637l483N503L1091N9120P6010O5158K6968l152J0921N4260P3509M3823n870l9398n4912
6143H3087o7445p5980o7091l6802O211M8773P4874P1560M3882J4492J385N994K4912N4183P5721O4660K6884N760
6125C55060K6803N3875L1227m1742j10640j35762j26273j03425o8271k0320K3335M7341N2740L7535o267n3265l9460
6108g7509N8645J63104J69777Q0515J909J287K5444m360p2206j00436p0451m1171n0813o5584m4621m059J4238P92
6090a5499k7084n9069q3047o6247Q950R7854J25947P4572R72l3463k3025K257K0798K4180O780k2423l5726j8893N142
6071a7024N203j8800m4874o0224n8862k5827M1914J07892J25032Q9493L4430k1672p8291j08470o8721K7032R4500
6054B2731P4972P743k7834j0035K2997L7318K4116j8152p0784q0991j8056O2750P1093J797n2619k4413M8878R1697
6036A63208Q7831P1809O0370L9704N068k6378l9241l2400j2660P589J4514O668p368l1736p8944j28895j25530m6470
6018g2861M7696P3862K5722k5510k6260Q91J46m7176j08577j36377j05490k7861N9637J24222J54744J50869J09988
6001A97665L9661k7951n5788l5649R761N1511O7532M4144r975n4986n0082L851O8136J09627J18542Q6825L284j11432
5983D54676j87274j54358j9552J18081J45775M2205j00100j68417j38952p4183k5412J4935N5218N9179L980n8543
5967c2742n9337r792J8942K387j6145r118j02j684J4522N6764Q0923N7735K2825J6357J6051j8175o5410o7290j4482
5948g771M2489O2153M5596M863n4334j09632j22419q0178j4580L6456O5609Q3767Q9747P1215L0714l718j472L6239
5930A74744P0264O2055J8803j3716q565Q734l754m9460r3039j07605j02548j02273j10621j05183o7068j1253K4812
5913d15673K8347K8323M6109N0246M8p5970r7664l6929M8353R9700J20510J26458R7824L1886j3349M095L0889p106
5895F6097q1061r7533m7106j8126n0508p0028n568J05359J78271J90409J75051J51482J14320O4051M154o9024j39719
5878D70521j65611j32371q3238n5938k6156L7900R9439R4690L0295k7027m9464o9532j00894j08214p6189m7309n7872
5861b66970q2458p6290l5997J4032O1514R6927R4978M6680j0186l1865k5029k6646m3772n4220n3785n5115m5525l77
5843d94104N5153N5687r173o1784l6614L0416O2212N5293O9096J15163J31110Q0335J3642m231J7457K5887J1064Q885
5825A25494K9888L6379j309o2865j05877j10383q3763m2748m600J8655K8733L3312K5343j2470p3183j14936j03165
5808d17495n2242m439K8044P7160J66394K58835K77786J86171L6184p4333r5653o2027l2150k0604r435j711j9016
5791B41469n0002n0221q796K6107J4415j6779j3824K9490P4199R3582R0900P2466M0459N062l0267q5214j65459
5774B67587k20351j88771q7969k599K5695M1771Q8234J31668J19726O6990L1230L1079L7314K8022N830k5414n5076
5757B94966m9228J0951Q0585R0755L4786l4533r0149j49964k00999j77774n8051P4406J18137P4485K9697L6912O5467
5740A50449O0294R015n2880p6092l9085K2350L6693k6717j12772j38569q4508J16O4303Q7521N9133j7503r2858r6895
5722b48005k3079N0398N0363r323o1337p2249o1841n2851m0947j6359J2615K8571K6285J9498K9571O4661J05466
5705a98563J16460P8530J0749m1914m3662J542M8600N2167K2024K2246Q9748J66796J55911M4362p1121j00773o0206
5688B92896k4116k2279k7993k5063k9588m5435m6872k0883O622N080k2724n2638p0122p1405m9173j653M5555M9359
5670a10432n496p8792j07319o7585L501N2789O1971M8303L5111M0623P5633J19795J15470L1403p0613q8444j2025
5653D3893N5869M0563m103J1139P0259Q1139J8606m5864n6255l5200j9648p119J036l2908j20754j94782j72344n6641
5635d23114O9817J40016J52094J32676R3318L4440l3571q9751j16543j09435p6461k9912K0355O2383P8640O2755
5619c2293L7523L5179N5769O6330M6732J1626k1194n3587q1154p6790k9450K5092M5552L8195L2817K4378j4486o9622
5601D0617q6818m7415L171K0610J4215J0275L128k0324l8558k4455J142m826l3357k7748K6717O7738L9408k6635
5583h3115n1935j1458M6130O7857M8022J1567j8839l0934k4957j6995k0595k1654M196M5655N7698K0621l2774o4229
5565g5739p2376o6192l1445L8400J02605J11386P4989N1032O4193P9477N9678R229m9457j03496j34170j10045k6472
5548g8403O8194J14646J01321O1604K5773q24k0382l0531l2708l3244k8961m563M5749R9035J15158P1329j5738
5531D57455j03194j54823j57046j09880k1702P8818J44965J48286J06398N6701J0188m5691j04152j30960j07435
5516F7928n5815q835K4961M9870N5267K2302m5432j13550j42074j14846m6794L2493J00091J43351J48674J05738
5500B23329L2811k2022k6269L984L8507P9938J39148J79545J41802L1912o7254r3853p3795o5395q0781r7625j11499
5483B32483j28620j27407p6486J2604Q8291J15640J01864O6960J8239l9455q8653j04712p2553j622P2869J15687
5467A85129J23736J16459R2533K8025o8626j39147j44488j18143j10188j08173o7147J046L2962Q680j9721j0738Q883
5450a88918l815l9862n5623l2352J0014M0712L8109j466n4524q2375o6908k3481K7140P7920J17836J23690Q8898
5433b5005L7167j1355o0907j03685r6144j5641P8634R4166J6063p5249j04772p7990m0099n867L5032P2124P6726
5416b06802M3746P15k2610j3734K2881O0728N7848K552n2192l8238M0038J04825R8996M0828k6281q7590j31101
5399a05391j19466m1070M2781O0804K5119O170K7422M5971L2588L688l3827r9298j75929j95879j25084j3479P4361
5382e90519J30146J66903J67119J18814O0820L3589J7821j9411m9365k1801M0147N9970J7411l3439n8022p9846
5366c9663j09746j08744n5171R385M1644N8565R4892J36218J42257J11939P6917M3142j3486r2878j53261j59674
5350a7664j20579o2044P956Q4667J33754J14580M7227J9952R1765K01536K21221J07785m2075j09771q4101l8360
5334E55849k0295k1491l2976o3531r8988j00857o2501k3848j3977j7329j3955j6171m0196o7469n9490n12Q3748
5317a3989J38514J16330K6845n3872n7317m895K0628j5866o7847q5254p1433m7918k1023q348l8635q9487q5787j0516
5299c69870L9410k4199j43885j79848q8061M1031J11877J16765R7490Q6788J03309J42073J50325P1001o6814j57587
5283g0195j48122j00673r1072j02188p4922j7120J4226J6746M7541J19887J69374J49576J01624Q7114R4813O5517
5267B62126j2325q3270r8006o4046j8533J3954K5627J8400J0885L1272Q3568J32430J35569Q2827k196q2305j20365
5250C15612r6314l0096K8533N1843O0165P7695Q4394M3240l8310j09386j33718j14850o8169n325M8895O0527K3203
5233A97939l1138o7299p2508m5841P259N9253O7807J7553o0184j16655j18546n6139M6722J24787J14637K7805n1006
5216D4446o0567k5741J313K2715P1517J31664J39773P1277j9485o0915l9196R07Q898l0786r3602j33377j14287m1869
5198a27315L4907O3075L6067J376P900M6693N9941J4255n6242r5666r2095o9495l5198K0179P7230R2468N7983J2140
5180D8203k2718o6747j25120j52460j14128m7627j7277k8930l4555j0740J1020m336m5885o9374m5737P867M3984
5163f74560L9303L0075P0215J51783K02239J77268J19984R8073J11140R8844K5791p6247j45135j44247q8778l1908
5147c6160j4440k1916j2633J2301R848k3937l3347L650K3740k3792q0941n7850K9996Q4864O8561L5628K7801K0852
5129A2225q521l9530n7282q0336j07526r6305l2905K4245J5336l8863o5564k8645M3078R8332J05672O6012P548l5127
5111b18156m7941l9266j7528J5669M9890O5535N5650L3152J5502J5279L7813O9306P9780O2100N2425Q0607J17893
5094D27710J13346O5695J2984l2777q4503j25786j23810r4721q7583r8449p2212m25N9445P8835Q7851Q4849J4461
5077B24910j12335j73264r2731L0418N0232k3683n3901K4646J34607J78381J39153N5570k5227n8203l1872k37k4268
5060B42196p8170p8972j4512L2783R373l6736m1989j8738j1021j2370J1306M8198N0298O773l9144m5739j2758L1896
5042D2674N7564M4652j604m7928o0665l9054j0998J10p015k0417k6068j2353K2179O2189Q3696P0869K5511l2725
5024A50617p2741p0534l0219K1795O9223J16686J57056J52019P7676k1181o5117l7286o101k7470o2604l7566L7493
5007C51746O7105n540j25144j97726j95906j58102j15784o6884q727M4121P5904P7210M2340j3953m7033k4114K8692
4990b71795N5723M4929L3376M1466M8653M3647M9337P6155R4283Q0577N4999L8962J4375l6549q2549q2468n3185
4973A49936m7491p1018p0243j0011P6060J26286J15922O9826K9296J6265J8034K607m2224q7282r1646n1170l981
4956A29166J0703j2742m9566o7932m8770L302O0383Q4971N1178l3308j16189j27182m5226O1823R5805L3531n5502
4939b5555j00381r7086p2963l4378J4535M2937L0734P281P018J1907j1392l9786k1194L4126N3641M203n8900o2599
4921c17852K177Q2264J12572N8517n2716j32629j02751J5791J14459J14333M2648j9249l0492j2376l237j7988m0794
4904a87323m2755j3949K1527L6671M0315N8769Q6440R2284P4042O1224N7171K8512k8424o0626l0637K4837M6416
4887B64494K9535J1232P738R057J5518L4170M9475L9186J3035k748j3631m8291j01691j29501j09588p0892m4416
4870d7318k0822J6471M4308K5322k7962n3764j6614M5625P0969N2089L8119O2243R7564R5924M8333r899l9828l1181
4852C49579q661j7028p7473j43351j30990k4398Q4287J03817O1903N1147Q0110O5424k3214j05527j15124r6039
4836E4462j13726j37549r1409J9119J09585J27603R3573M4539J830j2773R786L5950K4189j3218l1271k4814k3506
4819G2370k4621P20L4323J9679m1669p7090n2188k1051l1214m8587k7033J0427K2192K8207O8338J18067J21915Q8859
4801B61644P8295R9285R7776M8553q888m0814o2912q9966r7787o9709l8694m4260p3907q1733m9794n295J2567j2001
4783g7640n5232o4179m815Q9910J44606J24647O6036J2881l1328o5813n7416N401O0317L8921l0000n3659r047K9840
4765A23430J4228n623K8122P7620O4026p543m9418j3191N1696P3445M1706p565n1622r0426j16816j12743p4934k3221
4747g8829J8580L7533L0044J509k9320l9222k2477J651R373l258k0451k6549k0146j1271j0691k0767l1992l0738
4729b47021j6330o524j6028l2414k8230J007K8230L1740K3142K4821L4932L3042R504k9126p2377j01955q8529k3130
4711d75246N3897Q9141Q1867P9065J01058J13214Q7671N2121M6011N7346M1117j3481o8798q9141q0945q0453j12268
4694a17824j57388j62917j00899j6020J9417N677K3116J12981K02721K00136J19321M6105Q620l4192q3074p1418
4678e638K3862J20740J29379O0931p573l8168n2638p3281r2300r4754p8183m9307j9442J201J3304K1189J4577j7303
4660a43404m9889l9588Q678L1578p701o3007o8466k3157K7765O2568Q3075P2754J6183m9894o3830j8766L3560N7671
4642a33870O2989N8920L9110J9153L0482N8839M8006q544m1047r834J9846k9358j21310j47077p2149K9706Q6909
4625a09229J03351J07464R4807N5690J2336j1166k4039l8705l4512Q378O0586P2949M3902J5994J0853J0162J822m10
4607C80233N319n711m1266p0794p3038p1918r3726j17480j04957n7206p22O1792J36704J87425J57164N1974n1921
4590B91872j01089j16150j27110j10091l3649O6744J14471Q0914P053n6642r2284r8823p4651k7655K2965O4360R1944
4573i7821R3675N8084M180k2934j848L7133M9628L0545J3003K0355L7375L3795N137k1618k3211q863l715j2249j8368
4554A72283k0574l8828p3637q7443n4777j0853j2866o0396r3435p2219k0194K3798N5644Q1669P7845J8401o4031
4537a79613r1927l1582N9395R4800N5527n95j8024l395L522q495j8219j7436k3049l8383l8387j2024J1977R692N140
4518b41076L1102O7634O8530M0807M1256Q4532J11522P7776K5042K0763N8527P0465K5376l5837o5616o8344p7689
4501B34770j02702j16391q9172k4999L3364M0590K12l0608n378N2873Q1671N9508K2817M895m7P5K2293O6482Q1683
4482C31936K2693p3851j18282p5091L44M2658N3912P5024J08779J08889M2139o4077j41874j41187p1280N961K9680
4465A36373n38k3096J5731R6131J45591J21115M8236k4209p9395j23787j45527j17414m4646J9457K5385j5954m8109
4448a4656l9549j9617l2888p0864p3451o032Q4194J12199N4355k0131l0897J6950M3189k376p4413q8886k5872N4167
4430a34578R3349J00773J16553J38223J19685M1810m9671r3518q1394n7012n6301p0294o8440l9770j28L0018L8354
4413B7659J3318n4317j45422k00314j63935n3858M0994N0593k900m3297l2594P874N2249R6285J26287J14622O6600
4396a00156K7911K0270J2421j4086j7519L7399J04270J07503M6749j4042m6748p9068j17081j21183p7382l0806k1168
4379b82716l3287l5535k2428L089M3238P7015O5561J3014k5928k7203l0975n8034n7303M097N7114J8868p3271j06313
4361d70997n3123L534R285O565M1187Q5778J00061R9581J11431J14254Q0998M1733M0358N4515K7633k7302k8461
4344B37030N1755J24798Q7981m6348j66994j90962j31066m5096L0429P9053Q2265L9354r570j9412O804L2188M4855
4327B07064O3016Q4368Q0466N4724N4979R9045J32618J02184L3416j2670l3337p3874j36927j67766j39382r6177
4311B51747q9528j10760j14858q0996k2627M1870J01441J43520J52585J19315M9346l1484q5425r3209p6693p4581
4295G9663r4466j05951q2325l0849K0148M5863L5461r06l0529k2709J8113N6946O6792M7546J0712l2079o5640q0963
4277a65173r0664j09795j19778q2626m6P3172R2196P3577O4917Q4679J12951J24566J08704O7937K1020l88J8895
4260B74144M9941M1076k2101q7759q6540j5879L9961j571j14556j79503j20827K330P1293M5928j3249l9900k5992
4243a83204M322L1041L6786J1308k7675m9715n2980n5615m6997L355P9692J17367Q7967L7753J5230R385p530k3702
4225a3212j6813K96Q458K3851O4182J00405Q9258L3317l1765q4737j10972p9474J3750J00374J02833L6466j1688m208
4207B20321Q471k1977p4911j02689q6845l0078N8092J37537J43724N9586m3405p2985j2778P2116J10289Q1667J5747
4190D61882m0591n8632m9026m3120m6282k8308K4240O9107N3059j4194o4311n0798L434M5382M9186J7854m3777
4173B85105j23838j81387j68263q5363P245N2377N1430M4870N6966Q1136J03297J11616R3968N6508L6609O0124Q8165
4156E70565N0413n9113j63121j95999j75056j50452j27078p8435p880N2949R1394J15345J17797Q3429K7110j4088
4140A37780k8199l2670l3327j9178k920k3746r0523j52755j51825q5689q034K5308J999m0185m5741P070Q2993J27918
4122c31724J25941J02631P9741N4446K3771n54j0926j2705m086K7937P5742R6437N3035l4954r9129q6163j3285M3804
4104H9959K9834k0366j3683Q2753J82478J75850O6108m0171o9798m9332k8074o111K4461K8879j7799o4798m2263
4087C27927K8429M8260k7149j25693j51396r3983j4132M6662R6126J40163J47937R0247o411p2558o7914k4578o378
4070C35559l6637q4377j14069j19006r9701m4686L9936J05377J02953M6951J594L915K9884M0063K3161j8340q7200
4053A25377j65986k00683j51506n1492K2502L6176K1545J3615L718k7937o8376q8654q2681o1697k7082K1213O0728
4036f21220O4118L8278J6923J3855J1335k744j5059j2098O24J5249L5179O0812Q1416R1584R8099J03966J06711
4019H7028J16288J44018J63766J21734R472j05630j54977j47251j36178j34409j07328m2182K7511P3115J03919
4004A8896J33582J46520J19827O0051l94l5304m4423m9920p7855j32733j84749j89987j28544k1833Q3592J45178
3988a58096J47541J09439O4649K9185m456l5922l9618K703O6385J04555R7176N9387J0809l6870o5024n0263P165
3971C08745P0405R0457M5093l8189r5852q3065k4791P086k1329o9961q7823p4759n2006j4062M1094O9011L0861l1782
3953F9133m4521j1787l113k7048r051P7267J44586J13559L2271L608L8432N7293J5998m4537p2609o7726n6178n1289
3935A64288n4336o1750n7923k7456J5978L9730L9565M4635N8038K9468p1787j77492j73951m9543O4723M5770o4650
3918b36693j15603m7811L8071L6107j9051k1439M4173R2652P2144K3586j720j0258k5179l5947k6692j4058j8209
3901b65927k2269N325O2851J14046J25632R3855M5139J4540P794j1093o8394j23785j06302j1086Q4643J15262R2707
3884A52938O2256L9857K1335J2104J0689q646o2768j28014j64471j52852r5528j2352N1185N1313K575l1543k3724
3867b75646j2228k2622j8988K6368P2345P4076N8698O9496P5358J4559r3292j57272j31786n5837K1398Q7660J34873
3850a32840J42542J11977P2353M0544J0690j6098l2701n3151r1420j15434p7167M924M9675J6084m6968p2992n4477
3833b44459k6053j3204k2153m5000n2313j3061N8429J07668J08947R2951Q8411P9972N2122L1634M5075O6049M8557
3816C63572r560p6845j38347j88096j90414j09045K1541J08759J04994N7875L7219M9449N2825K4693k5311q5917
3800b608j40073j40683m9046Q7900J53210R1379j2165l0476M8644J19640J03551L4328j1409j3622m569m951n958K198
3782B25290J5581K2719R531k7555o2632n8560j9037O642p849k3127J0434P9815J24485J05816L3792n4410j14245
3765B66690j15006p1985l7488l6251m0667l5526n7679j21870j55899q4836M8143J25684J08556O3959M6323L7089
3749f0763J6501R267K5199K6074o544k8706k396M2227N5558L7415J5546n490k8461k8650J6881Q4620J29343J36861
3731D34482J17590O8264j7638j11218j60445j44129q9196l7061j4448l0619p5534j16835j19396p7769k1568J5653
3715c79867K9416M3645P5599J05268R4160M1951L207K3897P7392R7366O5470K5287R369q90k8970o1318p8958r6606
3697D5418j35015j73051j62378q8396N557N9919N7650L7337M3731O7656N5774q953o7712n9216n398K5104K0973L2937
3679b48063P6406R8680O3473Q330j3553k125J0282Q650n496k8874m3253k2479K2282M0692J2062k2176k1114J849
3661f4427J8197L2788N4118N7674K5199j4150l0088m6670r7316j49459j35140m8922L9001O9187M9150K0894J2161
3644b07803K8427O1027Q8136Q4826M5226o698l0135N59O2584R1843N0642j6562l1239J7513O6110P3214O1272M4237
3626D83179j4222j26166k22853k30428j61930q3194k5359J8628M8290O0185O7151O7979L7282r833J224R3734J65121
3609A68788J09561k4456r3746n2238J4433L2027J2472j8664o9432j31544j63916j53871j30736j01711m0715M2212
3593f01536Q8609P1796L0739P538J0744N0486J37077K23919K26376J30261J6804n0073r2596j40341j56447r8135L782
3576a40997Q1990J10649J03100P2524L6617K1567K1297p811p4535j20398j01708n6533l9293l3637P840P1889J00827
3559E3388Q2394N8420M8157K0307m9061j31180j71483j43047o9384k805K5338L2773M8195N5588J8967l9680n0068o75
3541b13856L1078p459o5987p7521n8810n7488n5508r370N2047O0502J9742j699K1139M9864O4722Q1730Q5684L3998
3523d7192n4477r5476n3191J0926L1712J5591r127m7039r4274j03230m5486L4052P8781R5982J15827J14693N0474
3506a454m5218q4550l7512L1882N6637M2667L3656M4784O1552P3020P2759M7493J22k8226N95N6786O0864j2963q8163
3487B84731p9872j4802p90p4188j40382j01315Q268P1755N2278L0874P5893J40899J31101L3844o1680o5789J9067
3470C09892J05742J08427K5125n9164n9430J8462Q9648R2085M7498J1081l824k1726n0668p0141o5899m6307k7371
3453D03430k5702n7691j14996j47082j07162k1376K5788r508p8712j07689q2982m3238j4425M456P460j6834m6556
3436d32819l2926L7711J18793J57284J45923J04855M1323m2156j18923j53061j38716r8105m4336K6499J05046J56965
3420a66643J52391R5521K2368k2263j3764K7712M6684P228o4443j11804j14085r3366o5033k2402K5349M5420L1195
3403b19935K2004M6901Q0030Q1963N8590M3248L9043J8559k3806n2519k9766M2848J21319J49725J04198J7115n4901
3386D44616r2631j20299j43432j23461m4857L2618L9185j0200l8965j3019L2620O3803Q3500R0974O2918k066o3562
3369A97742q7565q1773o6251m3748j6773J015J1724L9198Q5689J12630Q8268K8717k8697o5716p8086o1924k8290m83
3351E677K5688Q2826J66051K08795J65169P8001J5692k2568p7510j34892j35859p4908j4699K355r390l7727r3664
3334A49037j51276j41864n1755L5046M3288N143k991K4112L6900K8991L8763O4592N8510J3531j5098M42J2747k2042
3316A26076o7691n7134J2013P6324Q5091M3609j0420m0601k9436Q187L2123J9947m590p965J167j1598m5301n7576
3298G2225k6265J5983K1462k2802r4385j57847j75935j28430m2159K0562K8626K0226M9094J08885J41903J13598
3282e5259M5176k5093p7685j02416q7956m1350L041J6372Q022J0209L6812O9768Q1606O2946L2030K0582M1840P1242
3264A09887P3774N2513M4693N7918M4125k9250j06959r6417J0157J14079J26672O5731J1479L874J9722K4874N963
3247E32835l7254q9973j16931r6377n8491n2553p3880o5322l405N8184N5169p710o9242p9693l2056M9606J21594
3230C4501J36201P8258j6998r9337j45078j50990j14439m8933M294J9128K3683N6009R3797P7241K32p1771q5086
3213b09288n4923k5150j2933j3648k2892k6399L711P4291J49605J83480J58486Q5761p402p8326q9908n2264j7772
3196D4429j6661k6225k1290j6881l1508m6056l9489l2882m9134n5198l835P8341J07919N7294n447r779K8775M3168
3178E541P236m1458n9601m8488l9830m6344m2886l738N2525P8847O2975M5953O1600Q6173P5756L1639m737p468J4794
3159B28489M2013N3053K6945l0565p4137o9433m3226m2197n7553m3524k341J1554k0992n2056m0482n283J6676K0406
3141h2653J8392J8442L3117O5306O9530j2982j51869k23012j52263j1265Q1015J00761J01264J00841P2580K3339l071
3124D7472l063j9700n9894p0848k1741M3787O4219L0910j9735n1973m9430j7840J3992K1464K2469N6729J16172
3107A02990J36080P9347o395m9094m2293l6566n8706q2710p9394n5453l0906p146K1167L9222K5158q676j3279L9009
3089b7645J06307J15123N0004k1901l0674J6264N6731N4784K6017m878l0942m5582l5089m55L7807O3865P4302O2471
3071D66509K4943j4914k5598j6512k9363o9546r0534o6781l4937l0911l3152j3494o46l0850o5176l0485O4158J23953
3053A26664R1217Q933n4596q2933q6315n8494m368L0095O997m3889n6849j1904M5741N9421J2733n9178r3137n2819
3035b22681K4106O2483M9683N2806J03315J25067M6932o0449o1053M7400J19815O6935l4457p9059p9279r7333j13047
3018d8816o4364K4031O1320K8895J11J4773K5498n117l5640j9208J5649J0553l6447p9656r2960q3410n8602k4981
3000c68371o841k5250o0253o7808l4772J1231M5555O8902Q1317O7550K8257K751L0460R3109J21331O8286l9655
2983A5799j36589j83020j76645j16485l440J16393J62630J13137M9716O1944J28740J52658R8919L2147Q422K259
2967C26585k8331o4045n9286j8257R768r094o9218j39152j72304j32216l8535L8517N8331N3157O1011O0050K0422
2950a02597j9636j364N1767N6332o729o3448n6204j5264M840L599J2588L5465M8267L8449J7410P655K7678O9761
2932A08569R0073N1749j7504m9093k4431K302r113k4658K209N0449O2205K9138k968o200N17j967J931L4007Q2448
2913C79663J09171Q9834L6595j6980m8174n9598o4054o6242o7300p3407q0937o5289j3870L5442K6354l9190r2988
2896a0970q3213l2303L896K115k3742n1925o0949l6591Q63J960m8010r2215o3801K9676J13214J24267O1916k6231
2878a92043p7777n2739K9883J00396J07827P0971M1926M0825N3174O6607P4031O0771K7188N114J1486P845m4287
2861C31198j07281j07466m2506J6173K9000K7619L7169L1796j438k0104M859K8172n739o9533q1604j6543O1114P5118
2843A90004J6534n9501r3819p4357l6166j1564J2205O4751J25569J26173M0313o3186r3298m2636J5363K3995K347
2826A42727O619O0217J30122J58803J16260K7187n5192j02014j22345j24780r5331l2247K3544K5948j7270n2030
2810I0218m4338j6934j5265n1007q7309q0456l5936j0648m1912q7702p5438q208L1122Q84l3154K583P3569Q7807
2792c02124L3194j3053p436L649l1609r4172j33283j31956r7622k7586P2950J61575J89369J54862J00925O4574N0617
2775g126M7061M5379M8164O8824J14314J55425J31885J5877j33464k09914j66438o2873N007O706j3069j2573m572
2758B8613j8507m4416m8672l0737k3615l6843l9736j3140K1279M2203N7994O6983L3898m7264j05372p1518J5385
2741b13465N2581J4543k6016k2951j7392m2597m8982J5503J05103J25964N7829l3966q8291r3406n7710K543M5210
2724b25500K9176k4929m4312O111P6642R7025O1910K7441L5995O7847O9239J7807m6402n9778n320O5805Q8707M7872
2706B85336k3787r0030j31925j36495r9062m2737r289j5964l3742j9726L3941Q9148R9713O2484K9114N3273J21026
2689A71278J54365J00894k80o8206p7955p1700q1521q9028p2228m7734l9024l3889o963L3746N6616N3868M5878L7998
2671F6115O171o0106j23870j32401p5553M590N8082O3775K4603m5776j15231j33572p3543K8338R8337J00416O3975
2654b45650L1468O075l1328p7908j08282j04762o5689J103O7011Q2147K5090n2516p2712k6822J6848J1800o587J2268
2636e38446M9633M8682Q210j2600J3972M0899J8913k7927l6712P075N9319Q6722J02285J23292J35021J19206Q7621
2619B85165N8043K0821l6397q8235r5390o0032j9322R880L8840O5114P1318O7241P9742R2165N3311l4354r8049r6473
2601C13388p4161p3152n8711N060O6796N5321q627n3621p5622j20236j69778j52904o6302J3852N2449Q7814J23943
2584a34491R6505q447r5268p8801Q254Q3455J20157J26028Q7212R384m0948j6798K7569J1511m9717p5744m7441k0660
2566A760k6387l6016k7929k0928l1741n0844o5189o2499j9936O4159J37527J46524J12781R8778J03561O2997l5963
2549C50655j11334q7647P881Q2714P8587J0201o4863r2150n9217o109J7587R509R034L8431P6120Q6503N1372j9958
2531C77316q3695q1932j1012M7586J7216o5220r2469l3721L3230M3886K3438J5661R224k0815n4861o0115l9781j3293
2513A0643J3408K6479J019m2038k6195Q0891J96172K05886R8191l4198j00060p7970q054L8306N808q2073j31209
2496A75006q8937j6252Q61k5169j6385M1137Q1323O6510L2703J3756r425n7546j05283j15558q4632l1933K2461N6144
2478f1219N5284M0452M5769N9730K8524o0495j38842j33335n6222J3040J9754k0435n7774o3479m6628l1744k9717
2461d37337l4292m1217n0775m4839P078R2455J38038R2878O958k9238r197n511m3009n9777j7547L2597M2883N3408
2443c06444J14298J78014J54767M9803l6988m4415j2011l064k9851p1615j11477j30099j04307l9227K5711O1553
2427c05352P5319P8374O1932K5377J52J5908N8882Q9182Q8694O8981L9913l877o1432j07359j07069n1443K4715O5071
2409E5968M2475j3309m8809m6115l3342l5174l6186p151M9188R9053J17472J08182Q4470M7990m519o1906r8647r9340
2391A20300p7934o1691n4376l1641J4084M2028P528o5487r5205m0825M1884P0612L6349k708r401k424k162Q847M7643
2372e4579Q8415R3496O9882O0621Q4956J17930J30899J21138Q9503J8462r8424k15780k56491j83244l8886Q8470
2356A16368J31976Q2137j9352j08138j37238j12344q5218r5604j22548j10987m4430L2945P2915P6962P8320R2308
2340a51928J08168J15339J09123P7621J5105m9957p2331m5831j2892m512k601J2377R424m9599j28141j34979l9965
2323b45579P9653J37911J42900J55406J75781J38650K1836j03450j59443j51859j35333j26205r9648n1520n768L5339
2307a91329R0967J42357J31214M5294m1968n6481j2487K5906M0016N8527Q3310P7948L4368o746j9489k7826n2777
2290C20804o7617m0750O827K5073r8l7388n6333n6772n7550p3721r8773j01158n7094L702J7002k8287n8518j2644
2272c73295O0459O1588j6285p3312l8634M3073Q5589O7035K5711o140j9461p893K3831M4657K8853m578j3794J3846
2254i8750N7332R3656J02168N6040m4570j37030j44262o7475J1416L1284J2368j335j0346l3315n0930k7365K9159
2237b21955P3619Q4340P3867M6182p940o7006q0158l3325K5929N3910O2144P1678N6569j4292j02010j26072o8309
2220a72829O064M1190N2077P2421R1389Q0354M6838J8404m360l5663o1957n7258l3584l0401n3267o7113n6615m7958
2202b12268n6336n7369l6386k4504m7466o9719l6092M6890J17791J41915J38776J23865P4330j9666j04913j08354
2186a29506k3288P6993J14578P8315J9123q051J0214M6400O3957M5751j761n9893j03733j04428m8085L6437Q6136
2169I9159O2335m614m9519m8041l3526l6253l8233p802M4835P5030N5831j032o6362j10828j10445o5215j0184J9613
2151b25251L0804M7647N6137K0948l9081n3083r15M4848K3777j7314J900O1565O1169l2262j30295j36657o0255R996
2133c36322M522p2266j53059j56665n7690P5903J41964J11906N0674K4012K7246K1312n088l7799o5540p4639m5146
2116e46675J6788O8362Q0568P2453O6544M2781k2050r4081j09815n4213K8068R0888J18997J11370P4632L6048K8961
2099I626N6458Q7616Q7692L8035n6571j54594j91076j40537n4223J774L0894Q3848J63246K07282J75177R7480K6741
2082D68868j6541l2091k0072R38n784m8408q9674r9953r3997q8202n8987J4378R2199J10046O3203J0414p223r298
2064A89816k7465n0879m5776j1636R832j4944o5134q0437k6530N8635R6390N1022k9503o7695m0901O653K9151K7336
2046G935K1901R109k3777n1203k4192N0721Q9349L0237o5315p3259K8638J18680Q4902l3228j10293j03170p9991
2029a22956r2048r8627m6146M0306R1501Q5486N9068M6114M5850M6905M6678M0945J9391j7162m7843m9284j8334
2012B9844K5330N5839N8974L6577p71l8874n9422m8790j6606P317R311J3250M4902Q4796Q5093L2995l0420n9676
1994B29669m8285j7081J3688K8241J4856k0387n1909n8616m0764j0541J8784L2660K4490J0021J2900L1995M3729
1977B13450L7350K0698r963o8233j34445j54313j04681k8526K2049M8628Q1900J20297J30976R9694M8116P217m760
1960C25454J3264M4188O4939O9693O3774L0840n4750j62784k01762j23776k307M6033l899p8855j12457r7614m8158
1943b28177K1435P2854O6603K6172K2448P0581R5789L3594q0969j59515j57978r3886m986O5494P3278J5981m1929
1926b03211l4153K4493O2561N2035L4165M2596N6018N0420M9159P8171J02788O4578k4287p6891l9869L3581M9653
1909C21807j0917p9697r2798n8133k5198k1069l4613m3234l4029q523J6946K0578m065m1059p0178q1179o7670k8191
1891c41222J4335J7658l1521q9119r8166n1249J3947O7122J02536J13212Q6654L2364j5736l2988j9709J5810O1749
1874a54323Q9621P3131L1688J9500N1915P6189M4343j3509k7652J4713N3366L4445l1742j00052j42843j52764j19180
1857b53154l4942P6283J64628J94946J71934J21296O1424L653l5516m5810m3612n5813p6734o6504r885M4545L3240
1840B49979m2135j13251j25960r5261p0352o9850p0945m8683m418M2709P7679J00097J18495J33376J24908O8696
1824B75084k4902r7929r5876l6502k757m6881j19522j27458n6560P468k524m2597k7770L7425O5062J8761k6786J0034
1806b94230J05951J66782J40866N9643j0457k0351L4370R9571R5177K147r8119j10798l8984L3251N1215L1158L710
1789B50902k1782l2626j3877R717j2238p7429j17269q9706l8510k5177m3528m5178j8699L952L540n623l665J7688
1771b59508N8647J04503J23408R8396N6992M4671P0656R9346R3038M7357j1821n2646o1842n4200n2141n3846l8665
1754B12345q743K611j8747l6648j1599M1111P0781N2780j872q2296j78620k49083k35787j35718k4320K1194P575Q121
1736e66915O4932J36190J51684J00573L8561J1661N150j5156m0686l6528o179P373r738j8252J0257M4453L6801j1851
1718i7670n9273p0737l6790L0940R2286R3694K7673m3199n9047m0020m8302q9872j07102o8305j3709J044k9920o7783
1700e86092p1603k7407L9832P9231O5742M0344O7322J47802K10211J95490J18300L2758k6734n2458m5175j7076O202
1683A76689Q429n241k8671o3582r4765q6333k8171L5534N2630K3895o945j0402P676L0652M6749M3731J6565j5005
1665A03435j7794J8297O7740R6887R3124O5105K6323j4704n2558p8994q4131o9895n8703p2957j00647r8573m2471
1648b20516L9695R8799J15332J01791O9284J9949l1439n7766n0043k8883j7705j8222j8088j0440p77k385k2963m5296
1630g9673l1398L1021R4200R7024M6517R830J3398L013o1289j21698r5591k107N7396L8355j660n962Q521J0310J3684
1611B3891L0978K3982l4014r1595q5242m1261l4647o3440m9822K8579R3125P8905K5323R356L9875O6033N7173K9315
1593A06514J0470J3076K9849L7978K2304K997J4530N0796O8760N7936N8625Q8237J00379N3756k3428p9779j10003
1576E02997j32533j39532j22452j09882j20521j12192m3823M1206O7765M3485M0028P2190Q3316N4219L7254O1832
1560B23357Q6772P5592M5514R273n7411j46370j84483j28024l4494J9913M6738J01646J71243J82749J16900L9418
1544E68333Q015J366l6533j13620j76537j71518j06019m4902m0493p3383q0774l7944K0371O0643Q7627J03644P9401
1527D7677M603o6422o7727o463M4434L1467l0802q7923r6038n1610O276K8784O716k3405l0266k2535k2517l5255
1509c71006n8723q8429r2793l0685P3269J21352O1815k8245m2261R710L1067p369l2640O960O8154Q8155O6039L4763
1491a90867O727j3386k352N3146J24221J66465J64046J29601P9132K2843l4948r6395j55252j82803j55396r5525
1475a80743n1240l1610k705M3674O4207K9477k5796m8021k9229K440K8335M4958M7881M1172M6000P3381J02865
1458A55046J08088Q5606M3484j0476m9041l1029L9235R1208P1027J8039P360L7479L7818j7898p3525p9716o0018
1441C72687n8238o9854o7766o3085r2363j55250k02600j87742j09155o945O6208Q0804N7303M7629P0898Q3548M2365
1424a91556k0080k9968J9894N3715K4689j3054R960O4362O0534j4672p1947m1892L8109Q5982P4084L1006j5479n3594
1406A0093p0800o3903n2504n0319l9319l453L1904L1266J806k5785n2018r5906j39124j37678q9024l4076J2678P9335
1388f86827J68614K28835K19678J63497J04160N3533O425k8994m8231o8309r7588j12382r0277m3358M346M6229P8441
1371a02208Q5414O3662L0376j2070q1749j62084j88468j30998m7691o462O137M0639Q6231Q9126M9471K4252L5866
1354b20556M5498K3673j1473l3270l1333L990O5147R5258M0091n6664q1556J34R1291R3134K4914l1542m7871m9770
1336h0905m5714k5761j1099l7502q8563r8811l6502N2005R5517P5278L6915L3898O7814R0778P0306L4311K7493L9555
1318A99013K2513k4614m9095l6748m2284q9864j11036m5237N0829P5656L3512K3064Q2528J34234J00571J821q9144
1301B35719j28731j07657k8904P6588J49031J55969J28176J10733J00689O0909k2875j23767j98173k12291j64188
1286C1228r6238o3454p1622o9719k0805M7992Q8979R6617R5102Q9823O9379L7532M611l8066r5815j35110j13752
1269a43318m1751K7702O2747O6577L5589l8285j16053j25193n3719K0068K8515J299O073M0991M7115R909j6243J0147
1251a77830O4872J03414J16211J14762R4612M3043l0058r1786j12888q6912l2836J5784L7932M6370O5462Q5926P0295
1234C26373J6386j8698R627O0079M6983m8708j49202j68894j02960j5958L0425K1462j5387l5834j0214N0492J03170
1217I9142J16768J00105P8049N5271K0178k7434p3905j10276j32405j28318r1416m6257l1586m7155m4855Q297Q0649
1200a75148J14763R9346P0281M7249Q755n8923j21347j29729p8635q104M0581N0816K5044j7315l8086p078N8249
1183a19281J00952Q5404L4578m315j4172j2257j4554j7846j2832L140K6312M6437M7686K1970j8518n1380o5037o1772
1165b5485m5338j8050J2564L6601N0482N3543M0768J1437j9113l1328k4764j8440k9868o2198j03406j25907j00877
1148c99379l4396K3577L5318L0798P0006J52108K04997J75353Q9177O617m4214o5060n7147k7604j387O566J3668
1131A78998L7147N9434N4505K8473K835k2908n7388q4841q6020p8238r3398j24998j37813j22213r4507m9793L2211
1114e58514J27684J68453J23017L8641j8186k9261j4964N142J5589R97k8765l0500K4847J09338J65955J67058J25667
1097C92198O4703J772m2990n1226k5895M249O478k6643o6059p1726m1218k3068n9543j23228j41812q6733l621N0656
1079b43706O3718M8638J1806l2125m5555m578O3001J01755Q3115K4892k7726l3426R015M8264L3108j6618l1377P335
1061E9536M1507L3572K4723N2196P0972K6669l9068l7735L4610R4896R2578N6155K1245j3773n0251p3442q7637
1044C06753j08558j12093n5981L3321O6594J2669n3064n7070k1395l721l902P032Q799m2621j26138j57859r0618
1027c97852K8929J11019J07244M4427p008N03M7187P3981N3410R466l2286p2986j04118r0015k0824N3520Q0580O6754
1009d8069M4959J5750l1373o8319n9820k8845l0166o3187o9257k0592M1689O9864O2102L8046O759j9778j8631J3990
991a64878N0241O5398O0183L8089m862m8102m0866L6405J25373J40020N7302o5496j55091j79788j50860r6371m1408
974c74711L311M2542P9950J00460Q1247K5061k8505l7335j378L7134M2121K3295J7581L7941N8396N1042J7643k4136
956A51659o4218r2019q4110k8909M2772P9971O6432L1256L756j7515m3198o4423o2991l9301j5324j1394k4988l0468
938b03012j969N6227J05427J09507P3612L3134Q371j0661l3435m7487m0913k9153l9429p2646r6334p9157k5276K9855
920b63339N5104N0307L6709K9144K7381K9778L7882M5046L8669J9851J604j8168n3919q9470p4285M889P9144P0650
902B6977n087n8558m0037J6386O0771Q2220Q1735M6072j8581o5392n6009r227K6862L2669K3592J5874R477m698l4232
883A30814p1516q7278n9138j0647P180j8417m7570m9080l5874k2680M101M3835N6401K4037j820K9553Q2168Q0167
865E4236K2137j9121q039R852j0399m5424m4754j1N3744P9488O2772J7263k1227k6896j6652k7146n7379o7197m0673
846h5426j3697k0620m5803n0668k2258K7947Q8642J44664J66218J29877M3381o5128j68121k35185k32823j56644
830d95644n2348K2002M9516N2276M9449M5295N0762Q1678J27110J46261J13801N5502K3658L9337O7062M9753k8216
813C97254j11972j19728k7580R2098J31259N1043p9557j52714j24820m8792r748l6709q2501q6874m5239l134Q454
796b49260Q197K7748O1695P4651M9614P873k0041k5076j4787O884L9430O9158O9231K6248l8417q4365q9836o5252
778a46305l0448M991L2143L4464R879j3008q108O981m549l5994l9812l217K2294o506n9383p7994n9299m7250n5737
759d76858n1422j5728K3697L9750M6946P1723J05649J13228P6138J4216l1386l0454R641M6413M5297K0288J1443
742A8581K3114J7286k1889n5022m5264j7277k0007m9523n2496k667O5230J02503R5654O2219K7693J7325M3380Q4317
724B93157R6163N9261j170m9759p5428p9148n3361J50M7738N0489J1943k4217k5888l165J4439J2201m886k4680l3264
705B10575j7181K5259P3268R2142O0500o978o6614q2711n9491l1570k4185l3371m4582n1828n0246l0503J789J8420
687a7307L415j8184j3285R408J6530R799K5149O6410Q6004N3084R87k4039k7809m2910o4210n7487k1151Q620J4433
668G457J4597J6517k073m6554p8559o3597j8536J7156L5562N4214P2426P0075M4313J3325j7192n7453r5682r0784
650a24788k4422O1857J07047R6403O4046L9704K0991o70j4876p082J8283M4361O1507O8221O2792M8913M1302M7088
632F10677M5513P891n8736j08985j10675q2359o4889o7778o2533k4773L4402Q0383Q5903M9018o547m4648m2044j0136
614B29684J3029L91l4913n3055l0827J2600L6189K1385q908j6786J1360N6791R2585J04451R0181N4044Q368k8949
596E57620m5755m0911k0008L229M344l1506q0407r4633o1436k4735k7371n3028n5047k6832o341j6412l9453n4026
578a12708n8350m7965q441M9873Q2237O1428J6711m477N034J7459J5345J395k3163n5504p1962m7301L026L0816J4787
559a31760j3241j2816J8356N5656Q1565Q7050N8644m763o8048q4441n1493j8643k6438n8130o9444m9333k3997q580
541c19856J0469L8425N2432M0570L3036O0850R9379R2423K9193m1570p8683q9574r1202p3068k9424N241n404m3123
523c09886n7385l4958p712N262K0216M5941N9726M6265K8162L0430L6877J3530l4036n6999k0615N3375J07355J00569
505B6117L9880l0553o4650m7306k194K8956J7536l2194q4899r7490n3757J6945O2125N4648J6316j0072o182J0160
487a56614J3478P98q922n64J7282K1963O081j0280m137J9310L3608K7959K0484K8954M4297M4897K4998m436l2710
468H6446n1096m6499j4431K3364L4294J1282k2236m4780n4833n2611k9733O885K2520p538n7346p4526m3932k119
450c16889J6139K0844M2696Q4283J15757J13478Q6378O1095M8951L2288j3269p9928j19719r2894k3150K0775P928
433D763j8887j1434R725r283o2149p9088k5034M8884P6060N5563K9100J0885j3680l7824l3237r19K1314J3616J870
414a9755J4330L7441L4947n191n8579q7982p1409k1587J7148J2480q602J4119Q4407J22184O2365m6735r6842o2323
396g9584k7805n8966j05780p7028K8679J22787J42955J14072Q9484Q1050O8018L8868k164m6158p4119o3879k7240
379A23190j5227n2101q5807m9371M0625J00730R6055P7061Q1591O5439j9982j28811j67602j20471n9763l4720j6766
362a65930K8739P7932R0490P1554N0411K8613o569l6951k9037R366K9847P050l1064m6537l6868k1910q312J0430
344B1254K9179K9914Q552j2148o802J9671L4340J6207j4088j5917K1593O4773P3432M0682r652m9309n9748l7620l221
325A51092J0767j80M167N7309J25590J34537O1100l3562p7798o6236m1084k4456n963J3603Q393l1141p1679p2803
307A41656l6208k20Q838Q06m197o774k0513m3991n9405n8529n0694l8047l618N6497J03812R0676K3773l4313l8373
288C1176j1780o672l2683n1950l6878m057J4724J3388J0386J7747K5733J8512k832j8418j1813R685K3627K0651J3419
269B1965J2842P924j7828n6423p6501n4926Q00N9394Q7677P1532K6985j2007k5497k1950j3270Q906N1004Q4997P2398
250B28022K1113j6717j3483J692l276j3177q53J4702r852p0892j11566r3479m0689K35J5973K3478L0768K5215k340
231a5126l8492n7450m6147j6200J0715K7678M4268O1085N8072K2793k1684l8610k1576N535K7214M6305N5665L6544
213A40589j082j1644K5229O2614M0194l2726q4808p2104k6255m851k1882m4684m1841j3510J8598L3120K1176p719
195b1586k5902o092M6634Q5986O5916k921n5170m4337r1J1224k6077o2055n5341k4279o519j761J4243M2211O2708
176c209P4109Q9506J00633Q3178M1636J2731J3194J5656q306m9345q3109j05845j22625j20648q5035l1497N821J6855
158a56300K0704K8386K7560J2625N918L0766P6317J07194J02142O7493J7101l9857q6369r4175n1367J4853O0880
141A43871P0072N8080L9184J1697j7325k1176J0545M2826L0603k2569o7778p2163n0191k8282p182K1458M1114K1639
123B04423l6865r3627j09708q8969o4655n1030k6546K6204P9710Q4773L3992k3892m3767l4514l1353m0344l9767
106b55935k3214p432n03O572J5552J7776J8465L4503O1596P1862N2539K0332r517l8057n7736m8258j4373O300m042
87a53570j3984Q130M5712O4191O1570N4343L8810O574k1383j9510k848m196j7238q587J9872L1057J7414J4966M0616
68A61939O1588M6778R710k0936l8683m4483k8094P087K6855N247l6040n3805l5610l508K0338K8556K0817M527l693
49A28590M170J5415J6494J2570J0743l98l0661n9459n5316k0325J0535J4554L001l774p22P438J6217J7072j695l8615
29D5834p0716o9321k4172M4592R4356Q9677L8251q154n647L1112M7612J7116l1944n9034n7249m4892l3857k5372
11b1808k1935k1946j1753J5352L8258L0337K183m437K6689O1361O4463
0A56764
##END=