##TITLE=Parameter file, TopSpin 3.6.2
##JCAMP-DX=6.00
##DATA TYPE= NMR SPECTRUM
##DATA CLASS= XYDATA
##ORIGIN=
##OWNER=chm343
##.SHIFT REFERENCE=INTERNAL, MeOD, 1, 17.50623728154614
##.OBSERVE FREQUENCY=400.13311072
##.OBSERVE NUCLEUS=1H
##.SOLVENT=MeOD
##$JCAMPDX=5
##$NPOINTS=10	$$ modification sequence number
##$ORIGIN=Bruker BioSpin GmbH
##$epoch=1685911945000
##$date=Sun, 04 Jun 2023 20:52:25 GMT
##$ABSF1=17.4867
##$ABSF2=-1.977379
##$ABSG=5
##$ABSL=50
##$ALPHA=0
##$AQORDER=0
##$ASSFAC=0
##$ASSFACI=0
##$ASSFACX=0
##$ASSWID=0
##$AUNMP=<proc_1d_spintropy_auto>
##$AXLEFT=0
##$AXNAME=<>
##$AXNUC=<1H>
##$AXRIGHT=0
##$AXTYPE=0
##$AXUNIT=<>
##$AZFE=0.1
##$AZFW=0.1
##$BCFW=0
##$BC_mod=0
##$BYTORDP=0
##$COROFFS=0
##$CY=15
##$DATMOD=1
##$DC=0
##$DFILT=<>
##$DTYPP=0
##$ERETIC=no
##$F1P=0
##$F2P=0
##$FCOR=1
##$FTSIZE=131072
##$FT_mod=6
##$GAMMA=0
##$GB=0
##$INTBC=1
##$INTSCL=1
##$ISEN=128
##$LB=0.3
##$LEV0=0
##$LPBIN=0
##$MAXI=10000
##$MC2=0
##$MEAN=0
##$ME_mod=0
##$MI=0.1
##$MddCEXP=no
##$MddCT_SP=no
##$MddF180=no
##$MddLAMBDA=0
##$MddMEMORY=0
##$MddMERGE=0
##$MddNCOMP=0
##$MddNITER=0
##$MddNOISE=0
##$MddPHASE=0
##$MddSEED=0
##$MddSRSIZE=0
##$Mdd_CsALG=0
##$Mdd_CsLAMBDA=0
##$Mdd_CsNITER=0
##$Mdd_CsNORM=0
##$Mdd_CsVE=no
##$Mdd_CsZF=0
##$Mdd_LrLAMBDA=0
##$Mdd_LrNITER=0
##$Mdd_LrRANK=0
##$Mdd_LrZF=0
##$Mdd_mod=0
##$NCOEF=0
##$NLEV=6
##$NOISF1=0
##$NOISF2=0
##$NSP=0
##$NTH_PI=0
##$NZP=0
##$PC=1
##$PHC0=108.3
##$PHC1=0
##$PH_mod=1
##$PKNL=yes
##$PPARMOD=0
##$PPDIAG=0
##$PPIPTYP=0
##$PPMPNUM=2147483647
##$PPRESOL=1
##$PSCAL=4
##$PSIGN=0
##$PYNMP=<>
##$RDF1=0
##$RDF2=0
##$RDFWHM=0
##$RDINT=0
##$RDPOS=0
##$REVERSE=no
##$SF=400.130007846716
##$SI=131072
##$SIGF1=0
##$SIGF2=0
##$SINO=0
##$SIOLD=131072
##$SPECTYP=<PROTON>
##$SREF_mod=1
##$SREGLST=<1H.MeOD>
##$SSB=0
##$STSI=131072
##$STSR=0
##$SW_p=7788.16199376948
##$SYMM=0
##$S_DEV=0
##$TDeff=65536
##$TDoff=0
##$TI=<Spintropy Username asu_chm343
2023_02_15_AcAc_D2O_1H_1Scan_VT_Bruker400>
##$TILT=no
##$TM1=0
##$TM2=0
##$TOPLEV=0
##$USERP1=<>
##$USERP2=<>
##$USERP3=<>
##$USERP4=<>
##$USERP5=<>
##$WDW=1
##$XDIM=0
##$YMAX_p=307192609
##$YMIN_p=-578542
##$ACQT0=-1.70581753891579
##$AMP=(0..31)
100 100 100 100 100 100 100 100 100 100 100 100 100 100 100 100 100 100
100 100 100 100 100 100 100 100 100 100 100 100 100 100
##$AMPCOIL=(0..19)
-1 0 0 0 0 0 0 0 0 0 0 0 0 0 0 0 0 0 0 0
##$ANAVPT=-1
##$AQSEQ=0
##$AQ_mod=3
##$AUNM=<au_zg_no_rga_lock1>
##$AUTOPOS=<13 >
##$BF2=400.13
##$BF3=400.13
##$BF4=400.13
##$BF5=400.13
##$BF6=400.13
##$BF7=400.13
##$BF8=400.13
##$BWFAC=(0..63)
0 0 0 0 0 0 0 0 0 0 0 0 0 0 0 0 0 0 0 0 0 0 0 0 0 0 0 0 0 0 0 0 0 0 0 0
0 0 0 0 0 0 0 0 0 0 0 0 0 0 0 0 0 0 0 0 0 0 0 0 0 0 0 0
##$BYTORDA=0
##$CAGPARS=(0..11)
0 0 0 0 0 0 0 0 0 0 0 0
##$CHEMSTR=<none>
##$CNST=(0..63)
1 1 1 1 1 1 1 1 1 1 1 1 1 1 1 1 1 1 1 1 1 1 1 1 1 1 1 1 1 1 1 1 1 1 1 1
1 1 1 1 1 1 1 1 1 1 1 1 1 1 1 1 1 1 1 1 1 1 1 1 1 1 1 1
##$CPDPRG=(0..8)
<> <> <> <> <> <> <> <> <>
##$D=(0..63)
0 60 0 0 0 0 0 0 0 0 0 0 0 0 0 0 0.0002 0 0 0 0 0 0 0 0 0 0 0 0 0 0 0 0
0 0 0 0 0 0 0 0 0 0 0 0 0 0 0 0 0 0 0 0 0 0 0 0 0 0 0 0 0 0 0
##$DATE=1685911945
##$DE=10.51916
##$DECBNUC=<off>
##$DECNUC=<off>
##$DECSTAT=4
##$DIGMOD=3
##$DIGTYP=12
##$DQDMODE=0
##$DR=22
##$DS=0
##$DSPFIRM=4
##$DTYPA=0
##$EXP=<CHM343_Proton_1scan_313K>
##$FCUCHAN=(0..9)
0 2 0 0 0 0 0 0 0 0
##$FL1=0
##$FL2=0
##$FL3=0
##$FL4=0
##$FN_INDIRECT=(0..7)
0 0 0 0 0 0 0 0
##$FOV=0
##$FQ1LIST=<>
##$FQ2LIST=<>
##$FQ3LIST=<>
##$FQ4LIST=<>
##$FQ5LIST=<>
##$FQ6LIST=<>
##$FQ7LIST=<>
##$FQ8LIST=<>
##$FRQLO3=1116889.28000003
##$FRQLO3N=0
##$FS=(0..7)
83 83 83 83 83 83 83 83
##$FTLPGN=0
##$FW=4032000
##$FnILOOP=0
##$FnMODE=0
##$FnTYPE=0
##$GPNAM=(0..31)
<> <> <> <> <> <> <> <> <> <> <> <> <> <> <> <> <> <> <> <> <> <> <> <>
<> <> <> <> <> <> <> <>
##$GPX=(0..31)
0 0 0 0 0 0 0 0 0 0 0 0 0 0 0 0 0 0 0 0 0 0 0 0 0 0 0 0 0 0 0 0
##$GPY=(0..31)
0 0 0 0 0 0 0 0 0 0 0 0 0 0 0 0 0 0 0 0 0 0 0 0 0 0 0 0 0 0 0 0
##$GPZ=(0..31)
0 0 0 0 0 0 0 0 0 0 0 0 0 0 0 0 0 0 0 0 0 0 0 0 0 0 0 0 0 0 0 0
##$GRDPROG=<>
##$HDDUTY=20
##$HDRATE=1
##$HGAIN=(0..3)
0 0 0 0
##$HL1=90
##$HL2=90
##$HL3=90
##$HL4=90
##$HOLDER=13
##$HPMOD=(0..7)
0 0 0 0 0 0 0 0
##$HPPRGN=0
##$IN=(0..63)
0 0 0 0 0 0 0 0 0 0 0 0 0 0 0 0 0 0 0 0 0 0 0 0 0 0 0 0 0 0 0 0 0 0 0 0
0 0 0 0 0 0 0 0 0 0 0 0 0 0 0 0 0 0 0 0 0 0 0 0 0 0 0 0
##$INF=(0..7)
0 0 0 0 0 0 0 0
##$INP=(0..63)
0 0 0 0 0 0 0 0 0 0 0 0 0 0 0 0 0 0 0 0 0 0 0 0 0 0 0 0 0 0 0 0 0 0 0 0
0 0 0 0 0 0 0 0 0 0 0 0 0 0 0 0 0 0 0 0 0 0 0 0 0 0 0 0
##$INSTRUM=<spect>
##$INTEGFAC=(0..63)
0 0 0 0 0 0 0 0 0 0 0 0 0 0 0 0 0 0 0 0 0 0 0 0 0 0 0 0 0 0 0 0 0 0 0 0
0 0 0 0 0 0 0 0 0 0 0 0 0 0 0 0 0 0 0 0 0 0 0 0 0 0 0 0
##$L=(0..31)
1 1 1 1 1 1 1 1 1 1 1 1 1 1 1 1 1 1 1 1 1 1 1 1 1 1 1 1 1 1 1 1
##$LFILTER=20
##$LGAIN=-2
##$LINPSTP=0
##$LOCKED=yes
##$LOCKFLD=-2878
##$LOCKGN=116.679374694824
##$LOCKPOW=-35
##$LOCKPPM=3.29999995231628
##$LOCNUC=<2H>
##$LOCPHAS=205.5
##$LOCSHFT=yes
##$LOCSW=0
##$LTIME=0.680999994277954
##$MASR=5000
##$MASRLST=<masrlst>
##$MULEXPNO=(0..15)
0 0 0 0 0 0 0 0 0 0 0 0 0 0 0 0
##$NBL=1
##$NC=-6
##$NLOGCH=2
##$NOVFLW=0
##$NS=1
##$NUC1=<1H>
##$NUC2=<off>
##$NUC3=<off>
##$NUC4=<off>
##$NUC5=<off>
##$NUC6=<off>
##$NUC7=<off>
##$NUC8=<off>
##$NUCLEUS=<off>
##$NUSLIST=<automatic>
##$NusAMOUNT=25
##$NusFPNZ=no
##$NusJSP=0
##$NusSEED=54321
##$NusSPTYPE=0
##$NusT2=1
##$NusTD=0
##$O1=3110.71999999513
##$O2=2470.803
##$O3=2470.803
##$O4=2470.803
##$O5=2470.803
##$O6=2470.803
##$O7=2470.803
##$O8=2470.803
##$OVERFLW=0
##$P=(0..63)
3.333333 10 20 0 0 19.8 30 60 20000 0 0 80000 80000 1000 0 0 1000 2500
100000 600 0 0 0 0 0 270 100000 10 1000 1000 0 0 20000 0 0 0 0 0 0 0 2000
0 0 0 300 0 80000 46600 10000 0 80000 0 0 0 0 0 0 0 0 0 0 0 0 0
##$PACOIL=(0..15)
2 3 1 0 0 0 0 0 0 0 0 0 0 0 0 0
##$PAPS=0
##$PARMODE=0
##$PCPD=(0..9)
0 90 0 0 0 0 0 0 0 0
##$PEXSEL=(0..9)
1 1 1 1 1 1 1 1 1 1
##$PHCOR=(0..31)
0 0 0 0 0 0 0 0 0 0 0 0 0 0 0 0 0 0 0 0 0 0 0 0 0 0 0 0 0 0 0 0
##$PHLIST=<>
##$PHP=1
##$PH_ref=0
##$PL=(0..63)
120 120 120 120 120 120 120 120 120 120 120 120 120 120 120 120 120 120
120 120 120 120 120 120 120 120 120 120 120 120 120 120 120 120 120 120
120 120 120 120 120 120 120 120 120 120 120 120 120 120 120 120 120 120
120 120 120 120 120 120 120 120 120 120
##$PLSTEP=0.1
##$PLSTRT=-6
##$PLW=(0..63)
0 25 0 0 0 0 0 0 0 0.0001 2.7778 0.14793 0 0 0 0 0 0 25 0.30864 0 0 0 0
0 0 0 0.13717 0 2.7778 0 0 4e-006 0 0 0 0 0 0 0 0 0 0 0 0 0 0 0 0 0 0 0
0 0 0 0 0 0 0 0 0 0 0 0
##$PLWMAX=(0..7)
50 0 0 0 0 0 0 0
##$PQPHASE=0
##$PQSCALE=1
##$PR=1
##$PRECHAN=(0..15)
-1 2 3 0 1 -1 -1 -1 -1 -1 -1 -1 -1 -1 -1 -1
##$PRGAIN=0
##$PROBHD=<Z104450_0191 (PA BBO 400S1 BBF-H-D-05 Z)>
##$PROBINPUTS=(0..15)
<19F-109Ag> <1H> <2H> <> <> <> <> <> <> <> <> <> <> <> <> <>
##$PULPROG=<zg30>
##$PW=0
##$PYNM=<>
##$ProjAngle=0
##$QNP=0
##$RD=0
##$RECCHAN=(0..15)
0 2 0 0 0 0 0 0 0 0 0 0 0 0 0 0
##$RECPH=0
##$RECPRE=(0..15)
-1 0 -1 -1 -1 -1 -1 -1 -1 -1 -1 -1 -1 -1 -1 -1
##$RECPRFX=(0..15)
1 0 0 0 0 0 0 0 0 0 0 0 0 0 0 0
##$RECSEL=(0..15)
0 0 1 0 0 0 0 0 0 0 0 0 0 0 0 0
##$RG=30.14
##$RO=0
##$RSEL=(0..15)
0 0 2 0 0 0 0 0 0 0 0 0 0 0 0 0
##$S=(0..7)
83 83 83 83 83 83 83 83
##$SELREC=(0..9)
0 0 0 0 0 0 0 0 0 0
##$SFO1=400.13311072
##$SFO2=400.132470803
##$SFO3=400.132470803
##$SFO4=400.132470803
##$SFO5=400.132470803
##$SFO6=400.132470803
##$SFO7=400.132470803
##$SFO8=400.132470803
##$SOLVENT=<MeOD>
##$SOLVOLD=<off>
##$SP=(0..63)
120 120 120 120 120 120 120 120 120 120 120 120 120 120 120 120 120 120
120 120 120 120 120 120 120 120 120 120 120 120 120 120 120 120 120 120
120 120 120 120 120 120 120 120 120 120 120 120 120 120 120 120 120 120
120 120 120 120 120 120 120 120 120 120
##$SPECTR=0
##$SPINCNT=0
##$SPNAM=(0..63)
<> <Gaus1_270.1000> <Gaus1_180r.1000> <> <> <Sinc1.1000> <Squa100.1000>
<> <Squa100.1000> <> <Sinc1.1000> <Sinc1.1000> <> <> <> <> <> <> <> <Sinc1.1000>
<Sinc1.1000> <Sinc1.1000> <Sinc1.1000> <> <> <> <> <> <> <Crp60,20,20.10>
<Bip720,50,20.1> <> <> <> <Rsnob.1000> <Gaus1_180r.1000> <Gaus1_180r.1000>
<> <> <> <Gaus1_180r.1000> <Squa100.1000> <> <> <> <> <> <> <> <> <> <>
<> <> <> <> <> <> <> <> <> <> <> <>
##$SPOAL=(0..63)
0.5 1 0.5 0.5 0.5 0.5 0.5 0.5 0.5 0.5 0.5 0.5 0.5 0.5 0.5 0.5 0.5 0.5 0.5
1 1 1 1 0.5 0.5 0.5 0.5 0.5 0.5 0.5 0.5 0.5 0.5 0.5 0.5 0.5 0.5 0.5 0.5
0.5 0.5 0.5 0.5 0.5 0.5 0.5 0.5 0.5 0.5 0.5 0.5 0.5 0.5 0.5 0.5 0.5 0.5
0.5 0.5 0.5 0.5 0.5 0.5 0.5
##$SPOFFS=(0..63)
0 0 0 0 0 0 0 0 0 0 0 0 0 0 0 0 0 0 0 0 0 0 0 0 0 0 0 0 0 0 0 0 0 0 0 0
0 0 0 0 0 0 0 0 0 0 0 0 0 0 0 0 0 0 0 0 0 0 0 0 0 0 0 0
##$SPPEX=(0..63)
0 0 0 0 0 0 0 0 0 0 0 0 0 0 0 0 0 0 0 0 0 0 0 0 0 0 0 0 0 0 0 0 0 0 0 0
0 0 0 0 0 0 0 0 0 0 0 0 0 0 0 0 0 0 0 0 0 0 0 0 0 0 0 0
##$SPW=(0..63)
0 2.0754e-005 9.2239e-006 0 0 0.0072087 0.0001 0 2.5e-007 0 0.0072087 0.0072087
0 0 0 0 0 0 0 1.472397e-005 2.288794e-005 1.068705e-005 5.763436e-005 0
0 0 0 0 0 0.095493 1.7778 0 0 0 0.00010084 9.2239e-006 0.00059033 0 0 0
9.2239e-006 2.5e-007 0 0 0 0 0 0 0 0 0 0 0 0 0 0 0 0 0 0 0 0 0 0
##$SUBNAM=(0..9)
<> <> <> <> <> <> <> <> <> <>
##$SWIBOX=(0..19)
0 0 3 0 0 0 0 0 0 0 0 0 0 0 0 0 0 0 0 0
##$SW_h=7788.16199376947
##$SWfinal=0
##$SigLockShift=0
##$TD=65536
##$TD0=1
##$TD_INDIRECT=(0..7)
0 0 0 0 0 0 0 0
##$TDav=1
##$TE=313.0485
##$TE1=300
##$TE2=300
##$TE3=300
##$TE4=300
##$TEG=300
##$TE_MAGNET=0
##$TE_PIDX=0
##$TE_STAB=(0..9)
0 0 0 0 0 0 0 0 0 0
##$TL=(0..7)
120 120 120 120 120 120 120 120
##$TOTROT=(0..63)
0 0 0 0 0 0 0 0 0 0 0 0 0 0 0 0 0 0 0 0 0 0 0 0 0 0 0 0 0 0 0 0 0 0 0 0
0 0 0 0 0 0 0 0 0 0 0 0 0 0 0 0 0 0 0 0 0 0 0 0 0 0 0 0
##$TUBE_TYPE=<>
##$USERA1=<>
##$USERA2=<>
##$USERA3=<>
##$USERA4=<>
##$USERA5=<>
##$V9=5
##$VALIDCODE=-1
##$VALIST=<>
##$VCLIST=<>
##$VDLIST=<>
##$VPLIST=<>
##$VTLIST=<>
##$WBST=1024
##$WBSW=4
##$XGAIN=(0..3)
0 0 0 0
##$XL=0
##$YL=0
##$YMAX_a=14648
##$YMIN_a=-13331
##$ZGOPTNS=<>
##$ZL1=120
##$ZL2=120
##$ZL3=120
##$ZL4=120
##$scaledByNS=no
##$scaledByRG=no
##$AMP0=100
##$AMP1=100
##$AMP2=100
##$AMP3=100
##$AMP4=100
##$AMP5=100
##$AMP6=100
##$AMP7=100
##$AMP8=100
##$AMP9=100
##$AMP10=100
##$AMP11=100
##$AMP12=100
##$AMP13=100
##$AMP14=100
##$AMP15=100
##$AMP16=100
##$AMP17=100
##$AMP18=100
##$AMP19=100
##$AMP20=100
##$AMP21=100
##$AMP22=100
##$AMP23=100
##$AMP24=100
##$AMP25=100
##$AMP26=100
##$AMP27=100
##$AMP28=100
##$AMP29=100
##$AMP30=100
##$AMP31=100
##$AMPCOIL0=-1
##$AMPCOIL1=0
##$AMPCOIL2=0
##$AMPCOIL3=0
##$AMPCOIL4=0
##$AMPCOIL5=0
##$AMPCOIL6=0
##$AMPCOIL7=0
##$AMPCOIL8=0
##$AMPCOIL9=0
##$AMPCOIL10=0
##$AMPCOIL11=0
##$AMPCOIL12=0
##$AMPCOIL13=0
##$AMPCOIL14=0
##$AMPCOIL15=0
##$AMPCOIL16=0
##$AMPCOIL17=0
##$AMPCOIL18=0
##$AMPCOIL19=0
##$BWFAC0=0
##$BWFAC1=0
##$BWFAC2=0
##$BWFAC3=0
##$BWFAC4=0
##$BWFAC5=0
##$BWFAC6=0
##$BWFAC7=0
##$BWFAC8=0
##$BWFAC9=0
##$BWFAC10=0
##$BWFAC11=0
##$BWFAC12=0
##$BWFAC13=0
##$BWFAC14=0
##$BWFAC15=0
##$BWFAC16=0
##$BWFAC17=0
##$BWFAC18=0
##$BWFAC19=0
##$BWFAC20=0
##$BWFAC21=0
##$BWFAC22=0
##$BWFAC23=0
##$BWFAC24=0
##$BWFAC25=0
##$BWFAC26=0
##$BWFAC27=0
##$BWFAC28=0
##$BWFAC29=0
##$BWFAC30=0
##$BWFAC31=0
##$BWFAC32=0
##$BWFAC33=0
##$BWFAC34=0
##$BWFAC35=0
##$BWFAC36=0
##$BWFAC37=0
##$BWFAC38=0
##$BWFAC39=0
##$BWFAC40=0
##$BWFAC41=0
##$BWFAC42=0
##$BWFAC43=0
##$BWFAC44=0
##$BWFAC45=0
##$BWFAC46=0
##$BWFAC47=0
##$BWFAC48=0
##$BWFAC49=0
##$BWFAC50=0
##$BWFAC51=0
##$BWFAC52=0
##$BWFAC53=0
##$BWFAC54=0
##$BWFAC55=0
##$BWFAC56=0
##$BWFAC57=0
##$BWFAC58=0
##$BWFAC59=0
##$BWFAC60=0
##$BWFAC61=0
##$BWFAC62=0
##$BWFAC63=0
##$CAGPARS0=0
##$CAGPARS1=0
##$CAGPARS2=0
##$CAGPARS3=0
##$CAGPARS4=0
##$CAGPARS5=0
##$CAGPARS6=0
##$CAGPARS7=0
##$CAGPARS8=0
##$CAGPARS9=0
##$CAGPARS10=0
##$CAGPARS11=0
##$CNST0=1
##$CNST1=1
##$CNST2=1
##$CNST3=1
##$CNST4=1
##$CNST5=1
##$CNST6=1
##$CNST7=1
##$CNST8=1
##$CNST9=1
##$CNST10=1
##$CNST11=1
##$CNST12=1
##$CNST13=1
##$CNST14=1
##$CNST15=1
##$CNST16=1
##$CNST17=1
##$CNST18=1
##$CNST19=1
##$CNST20=1
##$CNST21=1
##$CNST22=1
##$CNST23=1
##$CNST24=1
##$CNST25=1
##$CNST26=1
##$CNST27=1
##$CNST28=1
##$CNST29=1
##$CNST30=1
##$CNST31=1
##$CNST32=1
##$CNST33=1
##$CNST34=1
##$CNST35=1
##$CNST36=1
##$CNST37=1
##$CNST38=1
##$CNST39=1
##$CNST40=1
##$CNST41=1
##$CNST42=1
##$CNST43=1
##$CNST44=1
##$CNST45=1
##$CNST46=1
##$CNST47=1
##$CNST48=1
##$CNST49=1
##$CNST50=1
##$CNST51=1
##$CNST52=1
##$CNST53=1
##$CNST54=1
##$CNST55=1
##$CNST56=1
##$CNST57=1
##$CNST58=1
##$CNST59=1
##$CNST60=1
##$CNST61=1
##$CNST62=1
##$CNST63=1
##$CPDPRG0=<>
##$CPDPRG1=<>
##$CPDPRG2=<>
##$CPDPRG3=<>
##$CPDPRG4=<>
##$CPDPRG5=<>
##$CPDPRG6=<>
##$CPDPRG7=<>
##$CPDPRG8=<>
##$D0=0
##$D1=60
##$D2=0
##$D3=0
##$D4=0
##$D5=0
##$D6=0
##$D7=0
##$D8=0
##$D9=0
##$D10=0
##$D11=0
##$D12=0
##$D13=0
##$D14=0
##$D15=0
##$D16=0.0002
##$D17=0
##$D18=0
##$D19=0
##$D20=0
##$D21=0
##$D22=0
##$D23=0
##$D24=0
##$D25=0
##$D26=0
##$D27=0
##$D28=0
##$D29=0
##$D30=0
##$D31=0
##$D32=0
##$D33=0
##$D34=0
##$D35=0
##$D36=0
##$D37=0
##$D38=0
##$D39=0
##$D40=0
##$D41=0
##$D42=0
##$D43=0
##$D44=0
##$D45=0
##$D46=0
##$D47=0
##$D48=0
##$D49=0
##$D50=0
##$D51=0
##$D52=0
##$D53=0
##$D54=0
##$D55=0
##$D56=0
##$D57=0
##$D58=0
##$D59=0
##$D60=0
##$D61=0
##$D62=0
##$D63=0
##$FCUCHAN0=0
##$FCUCHAN1=2
##$FCUCHAN2=0
##$FCUCHAN3=0
##$FCUCHAN4=0
##$FCUCHAN5=0
##$FCUCHAN6=0
##$FCUCHAN7=0
##$FCUCHAN8=0
##$FCUCHAN9=0
##$FN_INDIRECT0=0
##$FN_INDIRECT1=0
##$FN_INDIRECT2=0
##$FN_INDIRECT3=0
##$FN_INDIRECT4=0
##$FN_INDIRECT5=0
##$FN_INDIRECT6=0
##$FN_INDIRECT7=0
##$FS0=83
##$FS1=83
##$FS2=83
##$FS3=83
##$FS4=83
##$FS5=83
##$FS6=83
##$FS7=83
##$GPNAM0=<>
##$GPNAM1=<>
##$GPNAM2=<>
##$GPNAM3=<>
##$GPNAM4=<>
##$GPNAM5=<>
##$GPNAM6=<>
##$GPNAM7=<>
##$GPNAM8=<>
##$GPNAM9=<>
##$GPNAM10=<>
##$GPNAM11=<>
##$GPNAM12=<>
##$GPNAM13=<>
##$GPNAM14=<>
##$GPNAM15=<>
##$GPNAM16=<>
##$GPNAM17=<>
##$GPNAM18=<>
##$GPNAM19=<>
##$GPNAM20=<>
##$GPNAM21=<>
##$GPNAM22=<>
##$GPNAM23=<>
##$GPNAM24=<>
##$GPNAM25=<>
##$GPNAM26=<>
##$GPNAM27=<>
##$GPNAM28=<>
##$GPNAM29=<>
##$GPNAM30=<>
##$GPNAM31=<>
##$GPX0=0
##$GPX1=0
##$GPX2=0
##$GPX3=0
##$GPX4=0
##$GPX5=0
##$GPX6=0
##$GPX7=0
##$GPX8=0
##$GPX9=0
##$GPX10=0
##$GPX11=0
##$GPX12=0
##$GPX13=0
##$GPX14=0
##$GPX15=0
##$GPX16=0
##$GPX17=0
##$GPX18=0
##$GPX19=0
##$GPX20=0
##$GPX21=0
##$GPX22=0
##$GPX23=0
##$GPX24=0
##$GPX25=0
##$GPX26=0
##$GPX27=0
##$GPX28=0
##$GPX29=0
##$GPX30=0
##$GPX31=0
##$GPY0=0
##$GPY1=0
##$GPY2=0
##$GPY3=0
##$GPY4=0
##$GPY5=0
##$GPY6=0
##$GPY7=0
##$GPY8=0
##$GPY9=0
##$GPY10=0
##$GPY11=0
##$GPY12=0
##$GPY13=0
##$GPY14=0
##$GPY15=0
##$GPY16=0
##$GPY17=0
##$GPY18=0
##$GPY19=0
##$GPY20=0
##$GPY21=0
##$GPY22=0
##$GPY23=0
##$GPY24=0
##$GPY25=0
##$GPY26=0
##$GPY27=0
##$GPY28=0
##$GPY29=0
##$GPY30=0
##$GPY31=0
##$GPZ0=0
##$GPZ1=0
##$GPZ2=0
##$GPZ3=0
##$GPZ4=0
##$GPZ5=0
##$GPZ6=0
##$GPZ7=0
##$GPZ8=0
##$GPZ9=0
##$GPZ10=0
##$GPZ11=0
##$GPZ12=0
##$GPZ13=0
##$GPZ14=0
##$GPZ15=0
##$GPZ16=0
##$GPZ17=0
##$GPZ18=0
##$GPZ19=0
##$GPZ20=0
##$GPZ21=0
##$GPZ22=0
##$GPZ23=0
##$GPZ24=0
##$GPZ25=0
##$GPZ26=0
##$GPZ27=0
##$GPZ28=0
##$GPZ29=0
##$GPZ30=0
##$GPZ31=0
##$HGAIN0=0
##$HGAIN1=0
##$HGAIN2=0
##$HGAIN3=0
##$HPMOD0=0
##$HPMOD1=0
##$HPMOD2=0
##$HPMOD3=0
##$HPMOD4=0
##$HPMOD5=0
##$HPMOD6=0
##$HPMOD7=0
##$IN0=0
##$IN1=0
##$IN2=0
##$IN3=0
##$IN4=0
##$IN5=0
##$IN6=0
##$IN7=0
##$IN8=0
##$IN9=0
##$IN10=0
##$IN11=0
##$IN12=0
##$IN13=0
##$IN14=0
##$IN15=0
##$IN16=0
##$IN17=0
##$IN18=0
##$IN19=0
##$IN20=0
##$IN21=0
##$IN22=0
##$IN23=0
##$IN24=0
##$IN25=0
##$IN26=0
##$IN27=0
##$IN28=0
##$IN29=0
##$IN30=0
##$IN31=0
##$IN32=0
##$IN33=0
##$IN34=0
##$IN35=0
##$IN36=0
##$IN37=0
##$IN38=0
##$IN39=0
##$IN40=0
##$IN41=0
##$IN42=0
##$IN43=0
##$IN44=0
##$IN45=0
##$IN46=0
##$IN47=0
##$IN48=0
##$IN49=0
##$IN50=0
##$IN51=0
##$IN52=0
##$IN53=0
##$IN54=0
##$IN55=0
##$IN56=0
##$IN57=0
##$IN58=0
##$IN59=0
##$IN60=0
##$IN61=0
##$IN62=0
##$IN63=0
##$INF0=0
##$INF1=0
##$INF2=0
##$INF3=0
##$INF4=0
##$INF5=0
##$INF6=0
##$INF7=0
##$INP0=0
##$INP1=0
##$INP2=0
##$INP3=0
##$INP4=0
##$INP5=0
##$INP6=0
##$INP7=0
##$INP8=0
##$INP9=0
##$INP10=0
##$INP11=0
##$INP12=0
##$INP13=0
##$INP14=0
##$INP15=0
##$INP16=0
##$INP17=0
##$INP18=0
##$INP19=0
##$INP20=0
##$INP21=0
##$INP22=0
##$INP23=0
##$INP24=0
##$INP25=0
##$INP26=0
##$INP27=0
##$INP28=0
##$INP29=0
##$INP30=0
##$INP31=0
##$INP32=0
##$INP33=0
##$INP34=0
##$INP35=0
##$INP36=0
##$INP37=0
##$INP38=0
##$INP39=0
##$INP40=0
##$INP41=0
##$INP42=0
##$INP43=0
##$INP44=0
##$INP45=0
##$INP46=0
##$INP47=0
##$INP48=0
##$INP49=0
##$INP50=0
##$INP51=0
##$INP52=0
##$INP53=0
##$INP54=0
##$INP55=0
##$INP56=0
##$INP57=0
##$INP58=0
##$INP59=0
##$INP60=0
##$INP61=0
##$INP62=0
##$INP63=0
##$INTEGFAC0=0
##$INTEGFAC1=0
##$INTEGFAC2=0
##$INTEGFAC3=0
##$INTEGFAC4=0
##$INTEGFAC5=0
##$INTEGFAC6=0
##$INTEGFAC7=0
##$INTEGFAC8=0
##$INTEGFAC9=0
##$INTEGFAC10=0
##$INTEGFAC11=0
##$INTEGFAC12=0
##$INTEGFAC13=0
##$INTEGFAC14=0
##$INTEGFAC15=0
##$INTEGFAC16=0
##$INTEGFAC17=0
##$INTEGFAC18=0
##$INTEGFAC19=0
##$INTEGFAC20=0
##$INTEGFAC21=0
##$INTEGFAC22=0
##$INTEGFAC23=0
##$INTEGFAC24=0
##$INTEGFAC25=0
##$INTEGFAC26=0
##$INTEGFAC27=0
##$INTEGFAC28=0
##$INTEGFAC29=0
##$INTEGFAC30=0
##$INTEGFAC31=0
##$INTEGFAC32=0
##$INTEGFAC33=0
##$INTEGFAC34=0
##$INTEGFAC35=0
##$INTEGFAC36=0
##$INTEGFAC37=0
##$INTEGFAC38=0
##$INTEGFAC39=0
##$INTEGFAC40=0
##$INTEGFAC41=0
##$INTEGFAC42=0
##$INTEGFAC43=0
##$INTEGFAC44=0
##$INTEGFAC45=0
##$INTEGFAC46=0
##$INTEGFAC47=0
##$INTEGFAC48=0
##$INTEGFAC49=0
##$INTEGFAC50=0
##$INTEGFAC51=0
##$INTEGFAC52=0
##$INTEGFAC53=0
##$INTEGFAC54=0
##$INTEGFAC55=0
##$INTEGFAC56=0
##$INTEGFAC57=0
##$INTEGFAC58=0
##$INTEGFAC59=0
##$INTEGFAC60=0
##$INTEGFAC61=0
##$INTEGFAC62=0
##$INTEGFAC63=0
##$L0=1
##$L1=1
##$L2=1
##$L3=1
##$L4=1
##$L5=1
##$L6=1
##$L7=1
##$L8=1
##$L9=1
##$L10=1
##$L11=1
##$L12=1
##$L13=1
##$L14=1
##$L15=1
##$L16=1
##$L17=1
##$L18=1
##$L19=1
##$L20=1
##$L21=1
##$L22=1
##$L23=1
##$L24=1
##$L25=1
##$L26=1
##$L27=1
##$L28=1
##$L29=1
##$L30=1
##$L31=1
##$MULEXPNO0=0
##$MULEXPNO1=0
##$MULEXPNO2=0
##$MULEXPNO3=0
##$MULEXPNO4=0
##$MULEXPNO5=0
##$MULEXPNO6=0
##$MULEXPNO7=0
##$MULEXPNO8=0
##$MULEXPNO9=0
##$MULEXPNO10=0
##$MULEXPNO11=0
##$MULEXPNO12=0
##$MULEXPNO13=0
##$MULEXPNO14=0
##$MULEXPNO15=0
##$P0=3.333333
##$P1=10
##$P2=20
##$P3=0
##$P4=0
##$P5=19.8
##$P6=30
##$P7=60
##$P8=20000
##$P9=0
##$P10=0
##$P11=80000
##$P12=80000
##$P13=1000
##$P14=0
##$P15=0
##$P16=1000
##$P17=2500
##$P18=100000
##$P19=600
##$P20=0
##$P21=0
##$P22=0
##$P23=0
##$P24=0
##$P25=270
##$P26=100000
##$P27=10
##$P28=1000
##$P29=1000
##$P30=0
##$P31=0
##$P32=20000
##$P33=0
##$P34=0
##$P35=0
##$P36=0
##$P37=0
##$P38=0
##$P39=0
##$P40=2000
##$P41=0
##$P42=0
##$P43=0
##$P44=300
##$P45=0
##$P46=80000
##$P47=46600
##$P48=10000
##$P49=0
##$P50=80000
##$P51=0
##$P52=0
##$P53=0
##$P54=0
##$P55=0
##$P56=0
##$P57=0
##$P58=0
##$P59=0
##$P60=0
##$P61=0
##$P62=0
##$P63=0
##$PACOIL0=2
##$PACOIL1=3
##$PACOIL2=1
##$PACOIL3=0
##$PACOIL4=0
##$PACOIL5=0
##$PACOIL6=0
##$PACOIL7=0
##$PACOIL8=0
##$PACOIL9=0
##$PACOIL10=0
##$PACOIL11=0
##$PACOIL12=0
##$PACOIL13=0
##$PACOIL14=0
##$PACOIL15=0
##$PCPD0=0
##$PCPD1=90
##$PCPD2=0
##$PCPD3=0
##$PCPD4=0
##$PCPD5=0
##$PCPD6=0
##$PCPD7=0
##$PCPD8=0
##$PCPD9=0
##$PEXSEL0=1
##$PEXSEL1=1
##$PEXSEL2=1
##$PEXSEL3=1
##$PEXSEL4=1
##$PEXSEL5=1
##$PEXSEL6=1
##$PEXSEL7=1
##$PEXSEL8=1
##$PEXSEL9=1
##$PHCOR0=0
##$PHCOR1=0
##$PHCOR2=0
##$PHCOR3=0
##$PHCOR4=0
##$PHCOR5=0
##$PHCOR6=0
##$PHCOR7=0
##$PHCOR8=0
##$PHCOR9=0
##$PHCOR10=0
##$PHCOR11=0
##$PHCOR12=0
##$PHCOR13=0
##$PHCOR14=0
##$PHCOR15=0
##$PHCOR16=0
##$PHCOR17=0
##$PHCOR18=0
##$PHCOR19=0
##$PHCOR20=0
##$PHCOR21=0
##$PHCOR22=0
##$PHCOR23=0
##$PHCOR24=0
##$PHCOR25=0
##$PHCOR26=0
##$PHCOR27=0
##$PHCOR28=0
##$PHCOR29=0
##$PHCOR30=0
##$PHCOR31=0
##$PL0=120
##$PL1=120
##$PL2=120
##$PL3=120
##$PL4=120
##$PL5=120
##$PL6=120
##$PL7=120
##$PL8=120
##$PL9=120
##$PL10=120
##$PL11=120
##$PL12=120
##$PL13=120
##$PL14=120
##$PL15=120
##$PL16=120
##$PL17=120
##$PL18=120
##$PL19=120
##$PL20=120
##$PL21=120
##$PL22=120
##$PL23=120
##$PL24=120
##$PL25=120
##$PL26=120
##$PL27=120
##$PL28=120
##$PL29=120
##$PL30=120
##$PL31=120
##$PL32=120
##$PL33=120
##$PL34=120
##$PL35=120
##$PL36=120
##$PL37=120
##$PL38=120
##$PL39=120
##$PL40=120
##$PL41=120
##$PL42=120
##$PL43=120
##$PL44=120
##$PL45=120
##$PL46=120
##$PL47=120
##$PL48=120
##$PL49=120
##$PL50=120
##$PL51=120
##$PL52=120
##$PL53=120
##$PL54=120
##$PL55=120
##$PL56=120
##$PL57=120
##$PL58=120
##$PL59=120
##$PL60=120
##$PL61=120
##$PL62=120
##$PL63=120
##$PLW0=0
##$PLW1=25
##$PLW2=0
##$PLW3=0
##$PLW4=0
##$PLW5=0
##$PLW6=0
##$PLW7=0
##$PLW8=0
##$PLW9=0.0001
##$PLW10=2.7778
##$PLW11=0.14793
##$PLW12=0
##$PLW13=0
##$PLW14=0
##$PLW15=0
##$PLW16=0
##$PLW17=0
##$PLW18=25
##$PLW19=0.30864
##$PLW20=0
##$PLW21=0
##$PLW22=0
##$PLW23=0
##$PLW24=0
##$PLW25=0
##$PLW26=0
##$PLW27=0.13717
##$PLW28=0
##$PLW29=2.7778
##$PLW30=0
##$PLW31=0
##$PLW32=0.000004
##$PLW33=0
##$PLW34=0
##$PLW35=0
##$PLW36=0
##$PLW37=0
##$PLW38=0
##$PLW39=0
##$PLW40=0
##$PLW41=0
##$PLW42=0
##$PLW43=0
##$PLW44=0
##$PLW45=0
##$PLW46=0
##$PLW47=0
##$PLW48=0
##$PLW49=0
##$PLW50=0
##$PLW51=0
##$PLW52=0
##$PLW53=0
##$PLW54=0
##$PLW55=0
##$PLW56=0
##$PLW57=0
##$PLW58=0
##$PLW59=0
##$PLW60=0
##$PLW61=0
##$PLW62=0
##$PLW63=0
##$PLWMAX0=50
##$PLWMAX1=0
##$PLWMAX2=0
##$PLWMAX3=0
##$PLWMAX4=0
##$PLWMAX5=0
##$PLWMAX6=0
##$PLWMAX7=0
##$PRECHAN0=-1
##$PRECHAN1=2
##$PRECHAN2=3
##$PRECHAN3=0
##$PRECHAN4=1
##$PRECHAN5=-1
##$PRECHAN6=-1
##$PRECHAN7=-1
##$PRECHAN8=-1
##$PRECHAN9=-1
##$PRECHAN10=-1
##$PRECHAN11=-1
##$PRECHAN12=-1
##$PRECHAN13=-1
##$PRECHAN14=-1
##$PRECHAN15=-1
##$PROBINPUTS0=<19F-109Ag>
##$PROBINPUTS1=<1H>
##$PROBINPUTS2=<2H>
##$PROBINPUTS3=<>
##$PROBINPUTS4=<>
##$PROBINPUTS5=<>
##$PROBINPUTS6=<>
##$PROBINPUTS7=<>
##$PROBINPUTS8=<>
##$PROBINPUTS9=<>
##$PROBINPUTS10=<>
##$PROBINPUTS11=<>
##$PROBINPUTS12=<>
##$PROBINPUTS13=<>
##$PROBINPUTS14=<>
##$PROBINPUTS15=<>
##$RECCHAN0=0
##$RECCHAN1=2
##$RECCHAN2=0
##$RECCHAN3=0
##$RECCHAN4=0
##$RECCHAN5=0
##$RECCHAN6=0
##$RECCHAN7=0
##$RECCHAN8=0
##$RECCHAN9=0
##$RECCHAN10=0
##$RECCHAN11=0
##$RECCHAN12=0
##$RECCHAN13=0
##$RECCHAN14=0
##$RECCHAN15=0
##$RECPRE0=-1
##$RECPRE1=0
##$RECPRE2=-1
##$RECPRE3=-1
##$RECPRE4=-1
##$RECPRE5=-1
##$RECPRE6=-1
##$RECPRE7=-1
##$RECPRE8=-1
##$RECPRE9=-1
##$RECPRE10=-1
##$RECPRE11=-1
##$RECPRE12=-1
##$RECPRE13=-1
##$RECPRE14=-1
##$RECPRE15=-1
##$RECPRFX0=1
##$RECPRFX1=0
##$RECPRFX2=0
##$RECPRFX3=0
##$RECPRFX4=0
##$RECPRFX5=0
##$RECPRFX6=0
##$RECPRFX7=0
##$RECPRFX8=0
##$RECPRFX9=0
##$RECPRFX10=0
##$RECPRFX11=0
##$RECPRFX12=0
##$RECPRFX13=0
##$RECPRFX14=0
##$RECPRFX15=0
##$RECSEL0=0
##$RECSEL1=0
##$RECSEL2=1
##$RECSEL3=0
##$RECSEL4=0
##$RECSEL5=0
##$RECSEL6=0
##$RECSEL7=0
##$RECSEL8=0
##$RECSEL9=0
##$RECSEL10=0
##$RECSEL11=0
##$RECSEL12=0
##$RECSEL13=0
##$RECSEL14=0
##$RECSEL15=0
##$RSEL0=0
##$RSEL1=0
##$RSEL2=2
##$RSEL3=0
##$RSEL4=0
##$RSEL5=0
##$RSEL6=0
##$RSEL7=0
##$RSEL8=0
##$RSEL9=0
##$RSEL10=0
##$RSEL11=0
##$RSEL12=0
##$RSEL13=0
##$RSEL14=0
##$RSEL15=0
##$S0=83
##$S1=83
##$S2=83
##$S3=83
##$S4=83
##$S5=83
##$S6=83
##$S7=83
##$SELREC0=0
##$SELREC1=0
##$SELREC2=0
##$SELREC3=0
##$SELREC4=0
##$SELREC5=0
##$SELREC6=0
##$SELREC7=0
##$SELREC8=0
##$SELREC9=0
##$SP0=120
##$SP1=120
##$SP2=120
##$SP3=120
##$SP4=120
##$SP5=120
##$SP6=120
##$SP7=120
##$SP8=120
##$SP9=120
##$SP10=120
##$SP11=120
##$SP12=120
##$SP13=120
##$SP14=120
##$SP15=120
##$SP16=120
##$SP17=120
##$SP18=120
##$SP19=120
##$SP20=120
##$SP21=120
##$SP22=120
##$SP23=120
##$SP24=120
##$SP25=120
##$SP26=120
##$SP27=120
##$SP28=120
##$SP29=120
##$SP30=120
##$SP31=120
##$SP32=120
##$SP33=120
##$SP34=120
##$SP35=120
##$SP36=120
##$SP37=120
##$SP38=120
##$SP39=120
##$SP40=120
##$SP41=120
##$SP42=120
##$SP43=120
##$SP44=120
##$SP45=120
##$SP46=120
##$SP47=120
##$SP48=120
##$SP49=120
##$SP50=120
##$SP51=120
##$SP52=120
##$SP53=120
##$SP54=120
##$SP55=120
##$SP56=120
##$SP57=120
##$SP58=120
##$SP59=120
##$SP60=120
##$SP61=120
##$SP62=120
##$SP63=120
##$SPNAM0=<>
##$SPNAM1=<Gaus1_270.1000>
##$SPNAM2=<Gaus1_180r.1000>
##$SPNAM3=<>
##$SPNAM4=<>
##$SPNAM5=<Sinc1.1000>
##$SPNAM6=<Squa100.1000>
##$SPNAM7=<>
##$SPNAM8=<Squa100.1000>
##$SPNAM9=<>
##$SPNAM10=<Sinc1.1000>
##$SPNAM11=<Sinc1.1000>
##$SPNAM12=<>
##$SPNAM13=<>
##$SPNAM14=<>
##$SPNAM15=<>
##$SPNAM16=<>
##$SPNAM17=<>
##$SPNAM18=<>
##$SPNAM19=<Sinc1.1000>
##$SPNAM20=<Sinc1.1000>
##$SPNAM21=<Sinc1.1000>
##$SPNAM22=<Sinc1.1000>
##$SPNAM23=<>
##$SPNAM24=<>
##$SPNAM25=<>
##$SPNAM26=<>
##$SPNAM27=<>
##$SPNAM28=<>
##$SPNAM29=<Crp60
##$SPNAM30=20
##$SPNAM31=20.10>
##$SPNAM32=<Bip720
##$SPNAM33=50
##$SPNAM34=20.1>
##$SPNAM35=<>
##$SPNAM36=<>
##$SPNAM37=<>
##$SPNAM38=<Rsnob.1000>
##$SPNAM39=<Gaus1_180r.1000>
##$SPNAM40=<Gaus1_180r.1000>
##$SPNAM41=<>
##$SPNAM42=<>
##$SPNAM43=<>
##$SPNAM44=<Gaus1_180r.1000>
##$SPNAM45=<Squa100.1000>
##$SPNAM46=<>
##$SPNAM47=<>
##$SPNAM48=<>
##$SPNAM49=<>
##$SPNAM50=<>
##$SPNAM51=<>
##$SPNAM52=<>
##$SPNAM53=<>
##$SPNAM54=<>
##$SPNAM55=<>
##$SPNAM56=<>
##$SPNAM57=<>
##$SPNAM58=<>
##$SPNAM59=<>
##$SPNAM60=<>
##$SPNAM61=<>
##$SPNAM62=<>
##$SPNAM63=<>
##$SPOAL0=0.5
##$SPOAL1=1
##$SPOAL2=0.5
##$SPOAL3=0.5
##$SPOAL4=0.5
##$SPOAL5=0.5
##$SPOAL6=0.5
##$SPOAL7=0.5
##$SPOAL8=0.5
##$SPOAL9=0.5
##$SPOAL10=0.5
##$SPOAL11=0.5
##$SPOAL12=0.5
##$SPOAL13=0.5
##$SPOAL14=0.5
##$SPOAL15=0.5
##$SPOAL16=0.5
##$SPOAL17=0.5
##$SPOAL18=0.5
##$SPOAL19=1
##$SPOAL20=1
##$SPOAL21=1
##$SPOAL22=1
##$SPOAL23=0.5
##$SPOAL24=0.5
##$SPOAL25=0.5
##$SPOAL26=0.5
##$SPOAL27=0.5
##$SPOAL28=0.5
##$SPOAL29=0.5
##$SPOAL30=0.5
##$SPOAL31=0.5
##$SPOAL32=0.5
##$SPOAL33=0.5
##$SPOAL34=0.5
##$SPOAL35=0.5
##$SPOAL36=0.5
##$SPOAL37=0.5
##$SPOAL38=0.5
##$SPOAL39=0.5
##$SPOAL40=0.5
##$SPOAL41=0.5
##$SPOAL42=0.5
##$SPOAL43=0.5
##$SPOAL44=0.5
##$SPOAL45=0.5
##$SPOAL46=0.5
##$SPOAL47=0.5
##$SPOAL48=0.5
##$SPOAL49=0.5
##$SPOAL50=0.5
##$SPOAL51=0.5
##$SPOAL52=0.5
##$SPOAL53=0.5
##$SPOAL54=0.5
##$SPOAL55=0.5
##$SPOAL56=0.5
##$SPOAL57=0.5
##$SPOAL58=0.5
##$SPOAL59=0.5
##$SPOAL60=0.5
##$SPOAL61=0.5
##$SPOAL62=0.5
##$SPOAL63=0.5
##$SPOFFS0=0
##$SPOFFS1=0
##$SPOFFS2=0
##$SPOFFS3=0
##$SPOFFS4=0
##$SPOFFS5=0
##$SPOFFS6=0
##$SPOFFS7=0
##$SPOFFS8=0
##$SPOFFS9=0
##$SPOFFS10=0
##$SPOFFS11=0
##$SPOFFS12=0
##$SPOFFS13=0
##$SPOFFS14=0
##$SPOFFS15=0
##$SPOFFS16=0
##$SPOFFS17=0
##$SPOFFS18=0
##$SPOFFS19=0
##$SPOFFS20=0
##$SPOFFS21=0
##$SPOFFS22=0
##$SPOFFS23=0
##$SPOFFS24=0
##$SPOFFS25=0
##$SPOFFS26=0
##$SPOFFS27=0
##$SPOFFS28=0
##$SPOFFS29=0
##$SPOFFS30=0
##$SPOFFS31=0
##$SPOFFS32=0
##$SPOFFS33=0
##$SPOFFS34=0
##$SPOFFS35=0
##$SPOFFS36=0
##$SPOFFS37=0
##$SPOFFS38=0
##$SPOFFS39=0
##$SPOFFS40=0
##$SPOFFS41=0
##$SPOFFS42=0
##$SPOFFS43=0
##$SPOFFS44=0
##$SPOFFS45=0
##$SPOFFS46=0
##$SPOFFS47=0
##$SPOFFS48=0
##$SPOFFS49=0
##$SPOFFS50=0
##$SPOFFS51=0
##$SPOFFS52=0
##$SPOFFS53=0
##$SPOFFS54=0
##$SPOFFS55=0
##$SPOFFS56=0
##$SPOFFS57=0
##$SPOFFS58=0
##$SPOFFS59=0
##$SPOFFS60=0
##$SPOFFS61=0
##$SPOFFS62=0
##$SPOFFS63=0
##$SPPEX0=0
##$SPPEX1=0
##$SPPEX2=0
##$SPPEX3=0
##$SPPEX4=0
##$SPPEX5=0
##$SPPEX6=0
##$SPPEX7=0
##$SPPEX8=0
##$SPPEX9=0
##$SPPEX10=0
##$SPPEX11=0
##$SPPEX12=0
##$SPPEX13=0
##$SPPEX14=0
##$SPPEX15=0
##$SPPEX16=0
##$SPPEX17=0
##$SPPEX18=0
##$SPPEX19=0
##$SPPEX20=0
##$SPPEX21=0
##$SPPEX22=0
##$SPPEX23=0
##$SPPEX24=0
##$SPPEX25=0
##$SPPEX26=0
##$SPPEX27=0
##$SPPEX28=0
##$SPPEX29=0
##$SPPEX30=0
##$SPPEX31=0
##$SPPEX32=0
##$SPPEX33=0
##$SPPEX34=0
##$SPPEX35=0
##$SPPEX36=0
##$SPPEX37=0
##$SPPEX38=0
##$SPPEX39=0
##$SPPEX40=0
##$SPPEX41=0
##$SPPEX42=0
##$SPPEX43=0
##$SPPEX44=0
##$SPPEX45=0
##$SPPEX46=0
##$SPPEX47=0
##$SPPEX48=0
##$SPPEX49=0
##$SPPEX50=0
##$SPPEX51=0
##$SPPEX52=0
##$SPPEX53=0
##$SPPEX54=0
##$SPPEX55=0
##$SPPEX56=0
##$SPPEX57=0
##$SPPEX58=0
##$SPPEX59=0
##$SPPEX60=0
##$SPPEX61=0
##$SPPEX62=0
##$SPPEX63=0
##$SPW0=0
##$SPW1=0.000020754
##$SPW2=0.0000092239
##$SPW3=0
##$SPW4=0
##$SPW5=0.0072087
##$SPW6=0.0001
##$SPW7=0
##$SPW8=2.5e-7
##$SPW9=0
##$SPW10=0.0072087
##$SPW11=0.0072087
##$SPW12=0
##$SPW13=0
##$SPW14=0
##$SPW15=0
##$SPW16=0
##$SPW17=0
##$SPW18=0
##$SPW19=0.00001472397
##$SPW20=0.00002288794
##$SPW21=0.00001068705
##$SPW22=0.00005763436
##$SPW23=0
##$SPW24=0
##$SPW25=0
##$SPW26=0
##$SPW27=0
##$SPW28=0
##$SPW29=0.095493
##$SPW30=1.7778
##$SPW31=0
##$SPW32=0
##$SPW33=0
##$SPW34=0.00010084
##$SPW35=0.0000092239
##$SPW36=0.00059033
##$SPW37=0
##$SPW38=0
##$SPW39=0
##$SPW40=0.0000092239
##$SPW41=2.5e-7
##$SPW42=0
##$SPW43=0
##$SPW44=0
##$SPW45=0
##$SPW46=0
##$SPW47=0
##$SPW48=0
##$SPW49=0
##$SPW50=0
##$SPW51=0
##$SPW52=0
##$SPW53=0
##$SPW54=0
##$SPW55=0
##$SPW56=0
##$SPW57=0
##$SPW58=0
##$SPW59=0
##$SPW60=0
##$SPW61=0
##$SPW62=0
##$SPW63=0
##$SUBNAM0=<>
##$SUBNAM1=<>
##$SUBNAM2=<>
##$SUBNAM3=<>
##$SUBNAM4=<>
##$SUBNAM5=<>
##$SUBNAM6=<>
##$SUBNAM7=<>
##$SUBNAM8=<>
##$SUBNAM9=<>
##$SWIBOX0=0
##$SWIBOX1=0
##$SWIBOX2=3
##$SWIBOX3=0
##$SWIBOX4=0
##$SWIBOX5=0
##$SWIBOX6=0
##$SWIBOX7=0
##$SWIBOX8=0
##$SWIBOX9=0
##$SWIBOX10=0
##$SWIBOX11=0
##$SWIBOX12=0
##$SWIBOX13=0
##$SWIBOX14=0
##$SWIBOX15=0
##$SWIBOX16=0
##$SWIBOX17=0
##$SWIBOX18=0
##$SWIBOX19=0
##$TD_INDIRECT0=0
##$TD_INDIRECT1=0
##$TD_INDIRECT2=0
##$TD_INDIRECT3=0
##$TD_INDIRECT4=0
##$TD_INDIRECT5=0
##$TD_INDIRECT6=0
##$TD_INDIRECT7=0
##$TE_STAB0=0
##$TE_STAB1=0
##$TE_STAB2=0
##$TE_STAB3=0
##$TE_STAB4=0
##$TE_STAB5=0
##$TE_STAB6=0
##$TE_STAB7=0
##$TE_STAB8=0
##$TE_STAB9=0
##$TL0=120
##$TL1=120
##$TL2=120
##$TL3=120
##$TL4=120
##$TL5=120
##$TL6=120
##$TL7=120
##$TOTROT0=0
##$TOTROT1=0
##$TOTROT2=0
##$TOTROT3=0
##$TOTROT4=0
##$TOTROT5=0
##$TOTROT6=0
##$TOTROT7=0
##$TOTROT8=0
##$TOTROT9=0
##$TOTROT10=0
##$TOTROT11=0
##$TOTROT12=0
##$TOTROT13=0
##$TOTROT14=0
##$TOTROT15=0
##$TOTROT16=0
##$TOTROT17=0
##$TOTROT18=0
##$TOTROT19=0
##$TOTROT20=0
##$TOTROT21=0
##$TOTROT22=0
##$TOTROT23=0
##$TOTROT24=0
##$TOTROT25=0
##$TOTROT26=0
##$TOTROT27=0
##$TOTROT28=0
##$TOTROT29=0
##$TOTROT30=0
##$TOTROT31=0
##$TOTROT32=0
##$TOTROT33=0
##$TOTROT34=0
##$TOTROT35=0
##$TOTROT36=0
##$TOTROT37=0
##$TOTROT38=0
##$TOTROT39=0
##$TOTROT40=0
##$TOTROT41=0
##$TOTROT42=0
##$TOTROT43=0
##$TOTROT44=0
##$TOTROT45=0
##$TOTROT46=0
##$TOTROT47=0
##$TOTROT48=0
##$TOTROT49=0
##$TOTROT50=0
##$TOTROT51=0
##$TOTROT52=0
##$TOTROT53=0
##$TOTROT54=0
##$TOTROT55=0
##$TOTROT56=0
##$TOTROT57=0
##$TOTROT58=0
##$TOTROT59=0
##$TOTROT60=0
##$TOTROT61=0
##$TOTROT62=0
##$TOTROT63=0
##$XGAIN0=0
##$XGAIN1=0
##$XGAIN2=0
##$XGAIN3=0
##$TITLE_FILE=Spintropy Username asu_chm343
2023_06_04_AcAc_MeOH_1H_1Scan_Temp_Bruker400
3 mm FS NMR Tube, AcAc in d4-MeOD
1H, 32 Scans, 60 s Delay, Bruker 400 MHz NMR.
Temperature - 313K 3 of 4

##$observeFrequency=400.130007846716
##$brukerReference=400.130007846716
##$OFFSET=-1.9773787769984317
##$SW=19.4639278408014
##$BF1=400.13
##$NC_proc=-12
##XUNITS=HZ
##YUNITS=ARBITRARY UNITS
##XFACTOR=0.059419874635422906
##YFACTOR=1
##DELTAX=0.059419874635636916
##FIRSTX=0
##FIRSTY=-140833
##LASTX=7788.222388339515
##MAXY=307192609
##MINY=-578542
##NPOINTS=131072
##XYDATA=(X++(Y..Y))
131071a40833J2354J2328K996n823o719m048j437M041J0913J1507N375O62r18n901j2508q355R497K7375L4650L6117
131051a8727L7460L3730K2491J3768J3662J0861m712j9824j3487J0009K3021J1154q665j2663m37P935j897k3642
131033H0037l9403l7697k1878l835Q244J4945K0313K6355L4112M4064N0451M1484J4549j2354j7194l291J025k1603
131015A78324n3794o5952n3102l5427k8021k7155k5765k3767j7746J494K9595M2130K4404j879j653K6901M8732L7621
130997E4940P303j0782o309N018O764k10l049P036K4152L1514J8788m185j6985j2455l128k715j1269k2291l2739
130978B9398l8445k9961m367K4261L6139K5241K299j6711k0497q886L771j8j8138k6760j0995J2406J6693R77j2068
130959c5661q818K878J1463J3988J0694M282N455K1653L8455L1735L342j5690o949J0298R597n575j4930j7906l1548
130940B6763n5977o7023m9283j8290j39q46n920k840O072J0332L242j2391k5648k4835o873K0124M4824O1418O8503
130921b8787O3317M3896J7563K08J877J5710K5708K3850J5512R645R032J0189P810j189j3504j9136j1203K892O513
130902A79903p353k7577l7527l1010j4510o83j346j7898l4969l2740j0181J3776K6106L2616L7142K6071q273m2362
130884D9185m3836j4751J0527J0024n402j8279k7057l3724l0308j2897M951P995J86k797M963J6952K7249L4321L4426
130865A1728K2409O89j8453k1819n895J8695L2721K3926N77j4952r585P319J7084J3149M554N22k917j7959m6095
130846A5698o7762n9224k2724J0011J2837m671j3379k294J5508K7486L1658K4798M045j6722j5472N403J6933M477
130828c3394r962o54K5254M1365L7948K6031J6210J0535P957L409j1022l1716m0173k7108q864m199n994N392K9197
130809C0212M4621L8718J5994j3966l9511m3233j7452J6940K6626K225l6391o7792q2977p4970l9142J0719M7226
130792a82153N8281N5851N1167L9155J5439p811j5149o580O266J4736J7326J6876J8515K3554K3683J0097j0665k1607
130774A06981j7908j2483j5854k3000k4006j5733P81K1494L4109K6213M884o207L003J5051R868r126k3605k3174r188
130755D2100J2913L2558L4131J1873j8654l3690k3874L34J9695J9113j516k3518k4936m994J5440K0730J5029O181
130737I8915p415k4309l2011k6032k1332k7664k7831k154L5628N1353L5217J0470j886m615p232q746n961k979k454
130718B8962J235J0828J6980J0260k430k904J5808L7275L6476Q382k1895k4254K142K9485L7233L2583K8507J9589
130700B64262l148k6633k8817j3259p394k3708m2278l8230j1450J7275K7808J3743j3914l1075j9483J3053L9292
130683A16044M1513K4347n98k7262m7710m8739k7701k184O537n476k6046m1550m3817k9982l610K7262N6279P7401
130665D4708P7213M1580k2258q0004r7268o9129j8622K6666N0734N1086L6083J9241R995R772J5627K1230J5509p523
130647A24640l4677m2495k5788l396J1465K9596O0962Q7395Q1091M2681P11k3545l2516l5889l7268l9307m4456m5443
130629G3761k9635M63K2924J9906k659k3711k7620j2379J3320L4709L9054K6005P923k336j516M847P548j051j9716
130610A29837l6431m0677l6215l3375l1531k1524m269Q179J1730J3822J3928L05k3931l1467n192L2304M3825K3016
130592A2334n211k1520k6145k0556k630J5557J1157j6194l5008k0819J1324K9803K8707K7029L3368L4066J8154l698
130574F9718j1835J087K5523M3464L9424J2308k0384l7865l7402l1781k4953m707L3014O6269O8185L9231M244j9225
130556B14315l4313m6457m8924l5358j5205m055k690K590J7780K8571J6093j7380m4439l7479K632M5180N8239L7835
130538A36935P667p833o209l021r965k1031k0800m189J5477K0719J0518J063M307J2640J0610l862j8848k5898k7277
130519G1003k5573j8163o837k625j2286k5832k6600j1913L316L860r564k2354k2180j1752l968l993j955J0129K0545
130500i6742J1371j1210j8603J181K4268K4250R352O890K1330L0934K2057L217j5274l1837l8988k2910J0093K8065
130482d2556J2278j3385j1512K0396N0713N6778M5749L2828J9324l73k3929m2034m7716m0540k7426j9972k2707k3713
130464g7797p840J8912L1737J9756K657L921J8903K4164J1027p098j7436j9739j4250L360K7381L7799K2960l094
130446G5323j7382j4491m969M774J5469K1972J5639K790M491K8818N3851M9269J0716l5471o0130n7783m5279l8712
130428H895l6354k7462j4292j2544k3211j8759K3185P9508J00422P1052K8771J0557R535L59j7177k6009k5898k9624
130410A00954l4492k7708j6006j9521l4824l3815o475K1716K5696J1521l89k558J638R290J3938N542j3407k6298
130392b5198k7133k9614m0047m1319k0681N461J5231J3362J6039J8147L530k0960l1531k5234k3624l6298m5875l5069
130374c30813p487K4211N1556O6235O2346M9577M5408M6587K8190j7552o0067o4397l3535j266P736m368k2477l3048
130356a93164k7511o145J9145L4466L7067L3897L0070K5474J9942J4531R350O147J0118K2029L1113K4716N259j0603
130338H5901j1671m007M31O30N228J6346K2355J0811j4301l3670l2337j4766K159P853N479K546L62m876j4075k2149
130318H249k2583j3046M322K6078M7172N7009M2878N164l4005m8020l3387j1053Q64L856N283K807q131k3281l6445
130299b6269m6235m6200k3497J7407M5638M0287K2901K7368M7226M5042J0773k4816l9498m6092n6491n3389k0936
130282a26781K1204M0158L0283R980o950j5250p464J5906L3404K3069o721k5103j5607R058K5375J9397n948l1322
130264a3312l4342j3992N786P359J972O834J4671P946q223j3593p231o950j5685j5577K87J4887J3795M535R43M895
130244d4995J1481J8371K3179K3336K2311K4081K0898K302k2229k7906o653K2187L7716L7017K4143o00l1394n3777
130226G9468o0380n5949m1613j2773K0332L2142J4641q960j6913j5163j6157j4471m829k460j7645k7457n241L3716
130208a19712N0979M2559L9289M9788M5202J3129j2981k531K4535K9404J2585N766J6408J7401n810l0200k9497j0036
130190A36278L588J926q034k2944m2977n5679m1968m045K8905L2698J5348K411M019R650J1265J5560K8915M1528
130172A56444L5400N193l3890n7700n0453j4170L2716O4011N8418J3981m3773p5145o1636k9221k1977m7498o5250
130155a34550m0861O391L2180K9789L3163N9612Q3459P7396N1316L1518K2707J1992m972k3544m3855o2492o0023
130138F9226k2813K5454M0092Q606l2593m2198j8185J0766K3411K2226J9082J8031J3713R88j6667k9441l2372l0698
130120B6628l0642k9657k2174j0292J21R433J8424J7000l314k4768j4043L0709O3478M2675j1907m0818k0984R735
130102I604J2442N21P763K5072R311m5571q6703o9571j6903J6201J4542P390J3599K0386J6992J2789J1981K084j7150
130083e5221k1308K759L2339M1380L5830L2249K2256j0249n0544o6285n3596l7711k9900j6199Q441K7515L3850M4152
130065f0242O8479Q8308Q1274N1171J9339J83l341N931J7675J9264J3160J6450L3072M0901J9206k3353o1106p9986
130047B46385q0220o2939l2534o313l942k6158n3161o2561m4072m433L4049M8091L6576K2296K2303K6123J4318j1236
130029F2572k9480k5563j751K9023M7291L4202p723m6396m9791k0088J6135M3594O3702P1236N3591J6762j3406k4968
130011B18942l3416n0614o0705m3824r407J3643J4081R171J9033M1435N4368L9125R62l2170l5213j1028J5138K4707
129993A74228J9506P021j2222l5010m7555m1078k7484k5599l5137l6920j9034P035J8657N104k2569m1441l7089j6337
129975a65924J178L518n455j6083k1065j2900J3094M6326O3615N4041L1026J0435j0237l6389n3107l9610j613L3067
129957a06083N0547O0676O8663O0559K7228j5285m2083m4572l0595j2114j971r048k3836k0152J4479N8045P6829
129940A11287O2016L0930q3k7372m8242n4378l9853p050L3896O4656O5830L8362J2125J6659M5374O3905N0535J1241
129922D29838l9931q9747j13709q5859j5588M7400O2461L6938K689k5833m9685o0326m5532j3641J3459K8270L6361
129905A17565L2008K321m2774p1722o9843n3497l7648j4128K3371N5216N8415L8951J9701N735j4847l8859m1132p310
129887c8477M1343O6201M9430R217k0070k0300l395O270K83q874r697n868l280L377J8405K9169J8420j1406l9995
129868H0753n1703m3458j6583K0424M4115L4318M154j0122K941J4263p85k3329j8055J5558M4276M7222L6471L0493
129850B10953K8557J9064r74k3576l9961m8185n4157o4154p2299o2371l1984o111q743k6345k2555J0632M3024N4129
129832i5056O0878Q0179R2301P1537L4573K1068L1873K4208k4858q2555j03061q1606m7607k1986l092J4341K7258
129815a605L1290K7227J9532J3980J3197J0404m857k8987m2224l2715j1737O551K7687O0492Q7279P6219K5470k7999
129797B49204n1760n0974m7222m2199k1209J6164M8847N8389M6247K4478J278j8507k8339k6636k5894m3638p8891
129780I338j04464r1696m1734J5285N1762O3565N8865M1665J7333J711O416J9197J6892k323j7351j6782j3183j7037
129762b541j6297K446K6377K9754Q822j4072j9783j0913j014J383l931j0090n405J5174L8236M1951K1996j984j0538
129743H9571n703j693l210k805M964J6235K3066J9255M009j2336j0235J8913N3562N7321K1502j9126k6157n860M34
129724B21707k5750n3164m3759n628J9462J5225J0234K9863N2879L8003j7383p0603q6270p2101n3755l5953q251
129707h5244K3803L9833L6468L3548M0940M1307K1048m72L437K2154J7181k2941o3752o9221m1764n548K7462N4280
129689G2519O1303L6121n840l0901k4991l989J3387K3554K6756J8367j82j6725k2909k2263j8731j0059J632N942j863
129670A01128j5073k9582m8916o6570n9924j7567L7541O8269O1371L3353N140j4561k4003k1613q601Q045J8062J4041
129652D0540n99j0246k383J4708K0670J1336L693Q401J4584J0266L01o695j1461j2285l74J7749J5548j5622m6054
129633E2077m9143l9542m0041l6383p126K2658J1068k6763l3366K57K0468K906m521L6628Q5837Q3034L7373M536K274
129614A22231K407p424o899J2792L1731L4159K5647J3534p42p842K082J5498P428j8524l0352j4346N870O388o810
129595A86828j6462j8509j3427M388K9676L6634Q640l2043m5539k2535N704O804j6148l3144k5881r356j1046l2960
129577A624m6509l0282Q00J7861J8334K2609L5544L7109J5578j2444k3613j1479J8060N4717P7796O3997J8030k0647
129559B37085j9455J0039L1712K9914J7952J1517J2741J6082J4126L46k1562l5990l4515k9504l5238m3759l6527
129542A24964j4429K790M919M97l070j0782k6815m3643m9544l8198r780K7856N8910P0101O1249L8939O557k7950
129524A72571m5172l5814k2812l5677o3155o0896j3535M0102N8273M5985L3015K6121J1539r702k0466j7669j6547
129507D6161k3095k4842j3381L273J7170L2724N3565O8493N9530J9340m1145r5092j11219p7225j7756K2195J9876
129490f1428n556k0242j3261m92j38j5100l4424m1646k4332J3214M5685M6029J5130j3853q370K8209O0933O2716
129472C3074M1162K1655J2720J247j9411l3603k5599o075j62j2223j9523n592J4511J3560j0586l0717k4702l784J352
129453e2696k0098m3141l5647K466L8840M7900L8678L6289M5579M6732K4524j1175l6776l8584k2621o847m300r494
129435c71m925J2648K0520m98l0852l0124O328L4250J8317j8887k8263k73K7944K6717P309l837q38L852J922m770
129415C6169j2661j9143k0742j7346j5330j9335k3390j7302p28J6054K6264L5208N0645O7900P1347N3668K8774J7341
129397B57393J8602O728l5512q5094r4795m4935L0307P4604O2068J3473l1944m9916l9916j5581N808J1939L448p160
129379G9517j0262j1497k3192m4772o0673n9599m6060k8202n516K0941L6075K5363m43j2278K912K8719M3152M0975
129361b4840K7177M950j8978l0562k3603j0121m860q494j5641k6090l4385k3392J0781L9754L5416J4520J9576N4682
129343a4110P4553M8842N941q977M457J0567n290j9239q236J8233L3978K7652Q879p799j5259j3223l879Q155J3846
129324A59091L997j9463l9409l8859k1218p310j0255k1576k5278j5931K473K4678M1507L8490J2460j2770l386M4708
129306A11949R1594Q8638K8851m3023p4030n4215j9780p610j7974k7295k3610j3215l6J9922M2836N5651N4821M8452
129288B61926L5757N721l5749o0765n5743m0975l6186k8374J909M1402O1748O3068O6090O8169M5047j396l4218l2323
129270C25108j9977k9563n8966q2383q2354n3971J927O7070J01862P9030J8182l0672l5782m372L6988O5438O8503
129253C66068M5950J0562k0906l9590m4416l5392j5234N889J6250J3007K501o886r457o838j1424l4492o4404p0606
129235A00582m2187r077n953k5170k9482o713J6646K0122J8235K9371L8953J8535k7835o0307m8133k644L8352M8473
129217G1768L0535M443j4960k7645l9157m6196l7673j2162J2763J6744M65j4876j3612l592k326j0011p327J6110
129199g6709M0957L8545J0931n147J6934N7215P3014N3232K9670L2746N4989O7036N3809K1886j6878n2173p1855
129182C28202o8604m9950l0011j2662N514J8375J2147j3172l8418m6612l8189k0401M922L3876N1814M4631J4263
129165A95725k4920n8973p6063o5052k7177J4645L3700K8297K0150K1479J7518r950n2235q0030p6822n3540k8472
129148b21720n965J5539K5510J2023q430L634N8129J06406R3422L1541j2026n292R407j5420o0821p3084m1556l325
129130i2028J5285J7214J076m0869q4043p9810k2635L1873M0713K7457L2298M5623L5135J2326J8579N3543O8516
129113H0253L7219r012l0144k8280l2428n6068q6331j00368q1749l3200K0478N3249O2444O0395M9087K6191R960
129096e8304K3779N1908M7504j419m8617n2559l0557k2760l0127k3386L975K7363K7763P776k1367m2122l0167J7547
129078a53770O1222N7850J9767j02J8754M3081M3231L1675K6747J4591k3327o8317q2343n7657k2625l599k199p067
129060a04088q594j305J3566K5627K4571J1725m010j7964l0240l8969m0844l4512j8206Q825L6257M4402K6466M61
129042a06832j2340j1498p446O79J8176L3882K9394P684r084j0766o665k40J8015M3660M9139J8654k4437m3110k8957
129023d2092m262Q097K235j4579k8164k6070j2188m983r253j879L5677Q0707Q9439N1824L285j9690j4278J400J2883
129004A08109J2842J78j2776q371R408J1762j7699n6680p0686n3891k6453j676K2786M5272N4029M4636K7206J0539
128986I8535q419l2552n1352m8354j9850J7345L6619K2518j4964m8178n7292m5697k7897r587J2170L4750M7670M4289
128968e0246K8052Q064n346m694O251J2074L310j0144j4865j7206l3339n7683o2533l5400J268J8202J3186N255O575
128949a89219J3792K0354K3617K2053J6296J3160K1092M0647O3075P7348P6195N7932K6078j2602m9157p0732o4180
128932H5749l0657O353K0337J1232M507J8433M3497N6944M4885P140m3462p9416p3726l0087J4475K9712K3538K2058
128914A31512L2622M2732M2506K8964j330m1974o7510n8760l3344k5772l8393l9312j3637J0990K997l0218n4296
128897a12223m8654k0470J1606L3461M1251M1554M1982L7489J5821j7588l3954j4050K1755L2456M773k9461k7395
128880b1647J8415O9353P6056K7391l5901o2309m3457j6707j3525k2595j4772J0895K5540R433k5680n3771n9722
128863a33003m5104k1649m063q59o970r806l343R546K7199N0036O7898N9067J4105m3341p1689n0866j357L8322M7701
128844g8176L4740J7368O314P064K4981N5803P6709O3028J8123k4942l7732k3648m970N584Q277M71k3966n7735p7805
128825a0512o7852l6206o430N264J060m001M318K5711M2452L5525O080k4766l9135l7290k6501p308J8343L4159K1412
128806f5677j5607m9530n9126m8574l3947k1783q485Q603K9957N6968Q4670R6456Q0135M7477K2211P097j8717o1737
128788E0391r2210p7547k6258K1683M2914M7196M6561L3667K174l1082m3030l4075k4154k3462k2433j0130J0915
128771a28880L0899M4122N0658N3024N3262M9086L3461L354l1949n7224o4794n6191l4276m099J9813K0329l344l2051
128753e4800m6083m1375k5576q256K237L731O691K3625M6931N2466L4131J7060K0282K3777j502m1798n1980k0707
128735f1146Q260o713n1776p9996o9239l6764p496J1091K5982M6542P4242R5223Q9638N8505L0938K9165L6165J9189
128717B11810k0452m6431l7749j4554m825p759n443N323J1777Q114L033N557J4246K1032J9391Q090j0787l7853p6139
128698D6381j16693j29111q5090J620P5033R0183N8064K6876K7531N0016O5308N4840K0918j7927m0391l9903k9139
128681E8516k2089j6405j934J7447K1783l400m8214q1233p2249k0871L4882N0606K2829p637p028J3356K3264J8856
128663a9521J9198K9774L5805K7165O781k1293m8824n3886k2778J9306K9456L245j9132r693J4053K3807J8615J0683
128645D2761j232k2383m4574n8124o6061o9515n6153k1855J2565K6598K7230L0731L2753K0155k58j0321q350l820
128627a69853O681L0709N2682M4473N016l4299m6329l1209m210J8527K3473J0994K902J7225L7629L3198P053n264
128609f02J0318K7160K2586Q907L149k349j5171j6855O679K9242J5922j9266k5232J5166N9714O2301K6494j1179
128591A96984k9270l1179k0119Q966M9685P6120O6419K6887j6851m7066o1215n6870k8555J3686M0160L2064N916
128574B25762j0229j6636l5077o4864p3266l8787J7637N7448O3794M4039J0457k4193m4177m2879l2091k6349k5359
128557a4770k3560k6011l7629m5097k9247P625M3258O0819N7479L4017l383l3616l5715j6259j982k661k860O244
128539f3348J3064J3606K5427N3946O8445M0002j0971l6356k4148r626k0836m3828n2764m6772l7717k2958L129K2575
128521a29130R007l0165n3464l5611K912K8303L6055M3318N3680N4213M2780L3093K9262J7814n755k2266j5163K881
128503F1764O322j0367l2929n1309o2640n5630j8067L5045O4716N2482K4534J5630K2599J3685k3170o3361p7413
128486i8109o0431k5704J1988L6824L3125L821k1770j8029L024P630j0237j8848L826L6462M6613L8095L9251N3248
128468F0779N2031K2844r231j8068j1575j1974k0193k2149j7048j4477j1041L384J7777O944k6098m0777r131M1849
128450f154N9480L0099n890n187K8320N3107M1168Q629n454J6224N0806N9906K8441k0518m5788k4606K3843N1955
128432C38381L0533j6504l7047j4386J2332L110k7959l7394j7961m901j6949k7503q931K2938L0935N622k9637n1482
128414A53197n4181m1903k3464j2865j8634l0758k8633l281L3438N8419N2319J4105l1178m8368k7442M019J3767J798
128396A0355p718j742J1021J8758J8181J0229J29n66J2113K1131O346k5014m4151l8072k2451j3878q957J327J3810
128377c9149K0589K1495J9038J1239q93p562j817Q430Q015p942k7509l1843j4136P591M593k5632m6708k5724J9900
128358a08025M2116K4381n051k1140k7391k5719k431L4466M2325R62m7637n4805l5052l5419n3570m1320J2665N9404
128340b41241O2596M6996M9460O0892M9836J7006r866k1269l1389m1850l0885J2890O4934Q4986N7001L756l5217
128323I8636l7461j1310J9497L7606L6213J3071k4930n5563n7831l6803j6421o182N555K0996K0605m428k9237k5875
128305e3862j475J6879K2968L0631L9994L5216J7259Q424J4301Q716k5076n9586n5503j8543M105j4177m5185m4117
128287a19031m394M1809O7545P5316P7374P1257M6099M014l7059o0216o2106n0492l5978k5201j7320q022O06q10
128269c6609j5119l0321l2685k2235o299J4051L6987M6288K5462j3459l4663j8189J9970N1294O1626N0010K0835
128252A16944j1695k8547k8525l1224m4940m9451k9050o348j7076n8162q6766p2124k8227Q290J6273K393j0823m054
128234c63112K2904N1664O6442P0565P3890P1753N1545J6625j2324j9605m750K6661O4857Q8211P4004K5855k2369
128217B82816l9520k7572j4509k2557m6186n8415m0854r104K107j4259k3400J200L3353L1443O478Q621M5410O3157
128199A78209K7714k2366l5178k0404k2797m6460n4083l0777j658J4553K6021L3373J4492l7252q8737j02912p9988
128182b48250m5199j3369J4350L2712L5570L2771M4077P3473J00960J02462P1941K4703j6424l9687n1993o4627p2456
128165a8986n8504k3090O500P522q367j1954N452K8641M6853O3344P6707P5559N8333L8496K1851j406l0782m3430
128147B32739k6996n447o607j8131p629K0546K6372l047k9771k1924k453j3528n4198q5420q4835o4207l6974k066
128129a83576L4422N0503L5551P560j0572j7895k5395l1031k1009Q739M5871P5970R3273R5265P5507K9974k9419
128112B33738p5520q9272q1234p8108q4466p4113l1516J5027K5327L660o168J7061M5436M7914L4474L4147M8935
128095a4678N3725L2147p671m6362o4843m9358m048M3641O5987O2561N2707M5295L1918Q043j6376k9748k8489j2095
128077A22356J7268M6807N8456M8665L2631K3179J4979l403l0162n1611n8395n2667m0653k4247j611K5697M7719
128060A75008N0733K9726m448l2767m2729l5183k0819j2433j5663k2383j7618K074K2717L1671L4405M1426M5359
128043B29076K8063r208l9688m1402k2014p400j4952m2281p0297p1166k7807M1092Q5735P2233K1519j4100j0890P539
128025A14052J2104N527M443L820j4931m5295n2419j7761L2240N6791M8137L2265K9738L3905K7677O381j9289l2072
128007B25313j8817J5071M0202K6885j9798o1355o8864n1804l6104k8569j7608P98J5772J7766Q844k556p597J93
127989C7772J8361L2601K8456N685k3629m7516n9428n7175m3939k5729k357L0957O6199P9096N6554J8115o141j2132
127971I5750j8028k9421l0772j4478J614m158k8856m6894l7414q328N844k2428p5927r9862o0582J2263N9361N8900
127953b43416L9236L1792L8132M3967L9547K1010o138k0653n746K0249J9398j2626l7018k7268m860r47r201k478
127935a17020K2465M4040M8170L8125K0379R59j1006j3005j4929k1450k0633n391Q282L632j0690j7951k0743k5101
127917i1867j3463L1256Q3245R4490N8579J6507o455l0043p0187r9191q3710l8102p949j1775k6600k6134q003J8274
127899b11128M8279P7490R0756P0204J6224m2651o7084m1065J0460M4144M0680J9925J2634K4653L4159K0175j2039
127882A35816l5375l0251p634K968j0378k7932k6606j0256J722N148J0064J5046P433r044j2013N510K0247J0233
127864D4698j5576l1352k3214O663M7350P6584O8737K5335j5235j9579j008K257j8074l3626k5329q463m953j3430
127846F1785j8958j6367j0555m458J21l316j8088l3140l1116r273J5781K7788K9018L2106L7915L3892J8446J2611
127828A24192L2501N9593O1259L8781K6105L3090K3695k5686p5589p0270j9559J1436o324l0955j9444J0044J3371
127811A86240j2721l4010l2470k1720j4110l523J4631K9389K8897J5682R35p751r557q135p894q588n627N88J747n888
127791A06115j4470j8997k8447m7647n6654k9454K6627O9633O7414L0274n416j4989k247J1347Q896m728p382J2106
127773A01981L4670L2386N227k0874l1423l6965m4543m0119j4440J2403J3327p913k0689p372J5544J8490o624l5336
127755c2270l4389p62K6594O950m9543q6909o7614j3660K6775L4136K2178O028r860k0032j6989j33K7662O4402R5984
127736b1452R3715M8629k713j5407N972J6562l876k8402l0140j8702j6083k3696l0426l2063k6695r189J4682K5689
127718e3595J6303J409p593j7286k5848r231L9599P9886O6727J4203k0824j4550m17j3340m3581o0664n7573n0850
127700a57225n0293m6839k6798J1230N1257P0172O0823M5513N4002Q4436J00153P3138J7332l2614o3595q7691j09080
127683f079j08470o8973o574L7498L6440N886j0622J4417O3514R1565P2838K6986l842J174K6088M2157L6636J6541
127665B67180m586j5591j1012K936Q119q768l8564n8079n6639m4303l3761k7659k6624l3321m1152l5352j5949k753
127647a75878m204j019J9447L3014J2121k6326m2040l0259j9489j5635L688L3649L3434o343l5650j6147K0979K6951
127629a89707R076N101J1634n044l8426l9908O784N7472O8639M9569L5773L8676M0818K3930j2128m7429n4044k2479
127611f1693K2729M6858M1860K4874Q285o230j0390N404K9405L7565K6188J0907m103k5342m0048k4132J4082L5252
127593A31471K4714J0019R327J380l1298o5034o8574m5417j5711J6964N2045P0844O1307M3610L9948L7863J5861
127576B89319j3161k0680j1434j5811m0541o2311o6702o1089n1482l7513k7731k8563k0826J8318O8822Q0271M0591
127559C9477j304J918L6440M9646J5617l8915o6072m4070L082L0843K2164K752J263J1383J2596Q966J4281J2737
127541A12804k1706o9693p8488l8493k38K200l442J3246K7977P878k0256l419N1699Q1083N2044K287j8938q598P590
127522I5537J7009K0743J3839q922l5691m6111l5902j9940j1170o983O28Q667M086j8106m2463m4666j5948K8390
127504i7003O4788P9569P1384M6685J8950L731N544J4047J8205J7027J0770p443l9995p3053q9341q6441p0137l7874
127486a50587J2962O4057Q4347O3146J9867k1735n2376o6583n4452j8303J6245K3686Q230l335M938K4124L7803M0130
127468C2164L4048K2447P390q011k2359l6331m5434l7277m453M0437P1448P4223N7509L6305J3163j3956l3896l0922
127450A56495j1699m490k2787m5892m8519l5130k6629k4305j1622J1508K2933J2739k14J900Q827J060j8805l1903
127432f6533l1126k4569j6076q12K0129L6698M3156M1151K8858J930l1116m9727m5602l4471l4131l9963l3357q929
127414b44490J7688K7537J5680q040k8433l5060k7981j4620k13J5215K9202L3504K4340J0222K285J733M454J1649
127396a65328K4216L1189J9540l218j1385P745L5834M3180J8759k3010n5769n7554k6643J0559J9525l047k0322L19
127378a55410M3383O3552M2515O594j2444j1702l915R700L5196O3668P2723N3241K3357R561J7416K5990J2323k1314
127360B74434m9131n1508l6342k5309k5685k6876k1414j4757j2223j0878j0168j6208k5035j4968K7451P9954J01215
127343A42552P6968L5834J4796J9562K5459J0060k3343n1914n6412l7708j4272n344j5013k9911l0984j0076K1113
127326G1367L9624L4012J7767J2235J5960L861l5660p5587p7504l7941R510L6895M7661N4615N1543K3028k5389o3361
127308A02636o3724k6379K5557O5735P9656O7755M0050Q478j7107k8812k2567m119J0257N724j6838m1676n4547n5604
127290G4475n4493n5724n2980l8168j2223J5694L6472M3759L1828J479k9169l2863l972K7382K8235O128n68K2167
127272G459M2685L0499K467k243J9601L2476J6461n878o820Q166J6965J5812J3860M637k8035p4209r3452n9480M596
127253e4433M9313N1210L1443K4546L8402M8612K8869j7709o0559p4191o2237m4515k8458p036J7473K7128J4607M37
127235a7098Q041K9919L6148J4043j7469l4642l4223k6652j8427j0890o525n670k735N577J3086J2930Q064M689J739
127216d0095j844M814L3332P2586R1609P1761K6587j3940k9317j6879J1123L0559J8454k3771o6321q1199p0556n4778
127198c7875m0332j5633K3624O2072Q1488P8322O1084M0186K2699P263j7286n6435r1367r1227n1359n676R616o309
127180b7145k7698l6418l2444j9405Q12K0001K6176J7629M984j657m46L959Q57k1982o0130q2848o0237k097M6916
127161b51173N5096L1433K893j5497j8121K460M3479P8744P8236M0867m438k8329k2071N472L7140N3288M1247N187
127143A35913l7467p0388q6363q4278o5000l1269J0091M4821N3463K8477p582j5779J5890N3792N6711K3328j3377
127126A0983k8904k3599l588K6464M8196L4766j3977n9104o1480k3176K1293M4846M6176L6581K4062J0787k442j1219
127108G6665o477J6441M5852N9120M4794J3554j4890k7471k0158PJ0494j0641n2335p2017m7284j0395p150l2944
127090c4835m0538r287K7138L1468J1115l260m854j0456k4690l1611k1656n523M338J0378K0058L0147L0737K0219
127072a112Q080K943K397l548j8950l2269k3845J1822N2214O2841L1488j7580m7728m5315k7128j6852k2001l3664
127054a18207l9341l0332k665L9060P7145Q8163O3036K0386n852K034K6412L1507K579l6320m8617k5683P210K4057
127036G4572K5300K6877L3498L4664K2293J85k3042l9880m3037l0397j3669j0627k2823l0763j9333K31M645r814
127018b1120k2392j5086O291K2450K3432J3576p50j7112k9269k4857p07K4725K7092N644j5143j7567j0433p616k242
126999f1084J9103M6264N4144M0088K7591K8263K5770Q568o975n484l130k2802n1742n3918k1283J4456K3767R423
126981G1019r929k3463k5714r842K2110N3619P0107P3001O9331N7284L2083j523l2547n3983o2541n6422m3044m1195
126963H8351o1790q8877r1798n7638l888M0554N9453N5255M1020L0052K7786K9050K4200Q730j3335l3103m1526l4033
126945b1537j5293K160Q011J619j2998l4491n9625p4972o3948k5316K1129N0404N1053K9580K979j2601j3440j1378
126927a78664j8511k6459j0631L7292Q9671J07946Q4820M9452L0483K6804J9962K764j6301l0554m2189n0457m5187
126910C0241j9971J3784L3665K6830o4k9748m8093m8916l1640m71L3560N4709N2214L0053M869q194p230k01P342
126891I2739J7086L1091M5148N0739M0831J3542k4272n4366n5035k1195K2986L9343R942m4012q0195p3918l9295
126874b8841j1939j1629k5103k6593r539R836J7971K0456K7278L2938K4958Q982R069L5886O4530N6361L097n9057
126856A38661q2900n4417j378L6752M0676J6205j9172m6662n1558l1978k551J9853L3856M6814N1972K9891j9165
126839A04899n9885n5243r723L3912L8778N302l7073n8190m9049k5929j2796j4120j0557J0867L3133L1555J1283n3
126821f2889M944M701j0633j6107J2695N8992Q1099O1554K1759p967j6052q525L432R531L784j1682k8416l8390l7785
126802B4045k7300j2789l157l168r795j8093k7054l6271m1117l6352k2268m239J1499K0556K3785K8473L8730M4091
126784e0424K9087k026k3993k2483j3488j7666k8186k2809j19J7922J8546J3196J6812K9385M3480N4998N8899M6577
126766A47708J6723j8169m1658m4158k3360J4989N3010O8542N4051K0973j6531n1143p3712p2350n0900l3888l7494
126749h7367m4691k6394J6952N1874N0397J8443j6377l2656k6479o076J5095K3450J1894j4638m0190m7152k9795n55
126731a84265K1075K8175L0453L6916M2457L7328K2325O122n886j0199P31K8763N6213N6542K2531k5407o0357o9942
126713C3575n7797l6679k1778j8945j6787j102K2295L3331K7583K2321K7219K9605K0752J6637L3527N7957O2895
126696B34609M4000J8043o351l1900n1370m9987l1023j5066r675k388J1608J9655J7344J7814K1809M759m4719r4208
126678E2954j01377o5114j7942K0002M9364O1563L7316j5605n2451l8008J1579M8197M3703J1075j8834k9451k8314
126661c1343l1286l9076l2936K77M2495N7411L3153L09j235L2884O7520O5088K0326l9238q0885r3387q8565p9662
126643a98150o3827l0840J4557M8364M9200K1141q309j4396j294Q45k6439n6758m1058K8305R5358J02162N7767J9113
126625d259J3525J5332o3j8020j6376l427J55l637J826J7938L1182L3292K2148o476m6643p0254n1410j886L6486
126606e0567L5513L564l1001m4135k8498N95J2822o960l6754m1277j6446P775R798K107P960K8651M4875M1889K4083
126587c6006P726L114L078p836k9766m1427k6749J417J9156K6242M3182P4845R7777Q8552M8621l161m6493o3517
126569A58755m5612q130J4329O35l3354n0776k9557J8649N7720N5170J1306l7986n6326m3058k3945j2630j988Q815
126551a7983O951o390p754J3662L5118L3112J7966J3943K0826K1013J4531J8583L3946L7455J3319k6637o0235p7905
126533H3521q1791p3216m9794j1971L0284N7486N3654K5732L056O604K3415K4093K050k0222k4509j9730k4577m0056
126515c5971m9629l9585r680L1814P2291R3495P8147K8813k2699l8335j4183J0436k996m2769n7804k0457L9181P1676
126497I1745O4975M5224L0493Q423l4044p7004q1080l4159K6976N0812K5602r551j2350J4789L6544L4849K5206K3012
126479B30462J9430K319k0062l3570m0502m7736m5071j9281J5328K4572l564m1779n4866l7213j2377j285K077J9354
126461d3764N1620O5162L0303k9463n3823j9186L1988N1279M3214L6742K7280q925n7852p4400m6691j0090Q950K0957
126443B3301L4326L1610O735j1757l723O409j0606l6128k8215J3902M6994M2874J7886k91p123j2116j5799j1144P77
126424H7912P944j040k6222n4954o9690n9708k8367Q779L2269L0178Q420j1779j3998l124N524R615J9892L8676N3842
126405C4169N5970M6224K5195p379l6089l3836M179M5221N2158K2602j4756l2212k2594R69J4414K147k4674l9645
126387I2063l4658k5374j9253k865K7407M8924M5780L2330K0780o620n9599r9054p9991k3819J401k4557m5169o803
126369a59077O9703J18000J01498M0733j5885l2329r572J7328J5770p460j9886j2673j1533l2495n4754n2805l2419
126352g7856j5636q733n393o225j3258j5976m056J3486K0507J7949J7599J9370J5708J3104K5174M4694M7790L1779
126334A20027K4717M3978O5465N3703J0044l1359m9598n4193n4466l9039k170K9012J9063k9308p5505q7050o4978
126317a21657k4278K3708O0784O2450K9567n13K403K1794K2362K131j3184j6712k5189l9379l7790j7683p178k0725
126299i9089l2327j4041K1721M1262L4280J7093L667m085m262O001K0972L0631L3291L3182K9404J8940Q240R802
126281A54682K5250L9156L3358O600k1322k8666j6889q762j5243j7883r63J2891j0934o1605q7535o5207k8460j5074
126263a06606j8310j3408j435K630K499J0076J8675J5429O812N537O362J077P21J3213J7239m936k4965l671L9794
126244c3267M4585k652m4808l4404Q120L7060M2189L8071K4918m265l5279m3902k8207o905Q298K0478L3860M7764
126226G1654N8619N7189L3139o633l6532m2936m3245n7003p0656n4894j0854K7340L7919L4085L1966J9753j9738
126209B9173o8046q1066m5651l299O97k2064j9883K3003N9000M2193n365k2697P104L8514L0753O05p492J7983M6412
126190A9874M8013K8258J7032L1059N3025N2869K7841O605O102N248j6790l6080j5312K8394L3895j6523o5267n8511
126172A49732j9229p949l8179o9568p0044m6735j9974K59R685P173J288J796L877m090k0031l1796l6280l5540j9064
126153b44669K4288P4425Q7055M5315j4467m4030l7673k8183l5088l8358j1492L4322N8972M6655K8827L9435O4617
126136D9951O3784L2426Q423J1304J3756q379l4193l6078k9566m3674o1177l6757K9822Q5099R2508O9647M2486L304
126118B52686n9716j20249j34183r1496k5087K5103L9912K2004j0668l3643l3851k2195k0218l3323m4015l4106r242
126101c32287M126j0497l4964l2913M309L9794L2317j1187m0738k0511L2771P0224N9496J3723j9508k860M6540O6542
126083a35623K0428n1811p6910l6586J8308M1132L9275L8987L8305K2302k12p245J321O079j731j4751k7958m0990
126065a67680m5870l2763p490J3099K2324K6114K7044K1705J2581P230N448J615J65J3438M0382O0029N1997J6696
126047F6064k6504n4530n5431l7009j9991j4602q017J3651L6992L4282N304j5913n042K1094L1268K2546J6506K1725
126029C2393K2808P432j5423l0824l5875l2254j3432K4670O4414P4731M4380k433l0479k7973j0226N109J4514J9458
126011A10990J4280m818k3128j5609K0909N4110M8489Q668k4550k4193o749k752j5201k6428l3081m5206n3042k8552
125993d5863K8451P4832P4503M1096Q262j9514n4925q4533p8896m2867j5005r858P48L3305N5511L1534j9768m4257
125975f7244j9461K6439N7624O5183N5752L0496r935n0577o7237m8186n323L8125O7372P9553P1684L8786r772m6351
125957B06928n3550m7702n4295o6972n7330k4650l808j3198k5058p401K8677M7719L7600J2041k0215n7962q4726
125940a83902p4868k9059J7694L2456J6847q92L960L2200O0911O2618L1826p776k7617k0659K496L2531O1159P0538
125922H0463M5558n52l1529k7265n851J690j0197j8637n125J8588K3666J144k4369k5689r488n656k2581l4249j8206
125903f8285J3833L4989L5342K1766K467j3114j5119j0471k1993n1802o5478l8205K084J0151j1240j8771N015L1760
125885a57071L5633K4526J4964Q758O083J3453K6325K8024J6641R866J4351J4944L112j1042k5325n3156q8706r5756
125867b14376n5788j993K1732J5744J1440K0698K9044K8260K5343K2406J2975j969j3613j9581k2196j5814P643M2253
125849a07792P0433P9104O4842L2577O39o503J1673K0794q356n8975r0088q9440p7430o5106m0896j357L5407N5463
125831a75011O2915O0351M1431J3818L430J9224L6254L2787K3706L3084N0120M2053L840l4450n0478n2743n4047
125814E6284m6779k0366J2804K8219K0313P457O672J4912J6647J496k7357n5090o3736m5750j2668J4405K5326K7050
125796d0161K7783K3823Q883j0301j8408j0393L137J0174R264N289P60m173p391n847n05K780r03q523r954N19J4480
125775i667J7326O927l460l677J961P163J4862K4709K1151q251m8248o7685n5089k7786p344o64l279n244N212K8450
125755a12633M6607M5926L8973M2581M2692J4372k5899k9784J0924M4137L0129m792j6827j1069j9359l8206l5940
125738B1832r479J1140J2326J0838J5630J2538m982k1044k4125k4060l2075m4101n1738n1243l6346k452L4998M6912
125720a35431K6402L134J0750M8939Q3798P9004K7580l6964o5016m0576k227J588k8500m9899l7365p544J4086K0974
125702h7267J7363J1961K3691O2168R6512P9412J3820m1901n2091m6464n8872o5744k8553L2171N7111L0696l838
125685D0175j0303J240O126k26j0163j9190k2697j7436j2813k1819l6402l1648N71M0621O7438P5463O1648K1127
125667A31712l1483n8386l6313J2559M3607L7653J3154m382j0866j8858l2901l8969k3227L463J3789J420o815R833
125649D990L1828K8830J0535J3334L8078M0618k846n5501o6938l4344P241L4036M5371M2847K7947J3009Q687N334
125631A93056j0974l0779l3442k0617j1318q532n71N938j0713m3808n3185k1154J5475J2673k3080m9604m5967k7949
125613a64551j5675j2127j2276j2126o608N637J3890M418k1358m7385n9295n1248k2890J6883M7911N5508M6992L9354
125595a94946L6529L3818L6205N0249O2840N3571K7483Q782J071j4898l8597m1548j7245j806j7875l1159k69N5075
125577G280Q0893O9497O2751P5465O7649J0679o1354r5720q8867p8110q0940p5129l9029J1918L8599K1038j7302
125560i0682l0361J400M6149N5824K3838r146r134J3269K8523K9311K7129K4941J7981J2579J8357K4327P968k8372
125542A63901n3153m6499k6465k1818l3108l6714k0066L258J2818L981j0513j3831J274K4902L4283J3614k5552n0227
125524g9915m0268j2843k571j8343l3742k5662o838m007j3495k961L9172P9526P9771M5319J4450P281Q765L146Q53
125505C7638J6925L8426L5094J191l2003l3239r184N878q176l8613o0941o4134n0917k7005l92J8443K7935M0096
125487a02978O0286O8578M0056j6416n9343o1294l8710k6209l4861m7420m3616j6467K8600P5371J00148Q7768M7961
125470F1454R099o665o92N884r656n0598r1654r6195n0062K3737Q6308J12326R7656N3655N237j9328j5197j1146
125452A04163l5666p7872j00265q5800m9814o552M7448J06060J36239J10964M7476p738k6928j8439k863Q479J1582
125435A60474N701j421K456J6102K0594L434j9615j9047J2628M9900O1570M1211P197j9507l0548k9164k4479k6672
125417B10814l9220n3368n6296m6630l5927l2362k9345j4769J3076M3079O1280N9730L9249Q155k2375m3035m6336
125400A5720k6870R850M1343M4519K2612M432J0358K9274L6234K2903K415o360P916M0169O5704O0340L3054J9497
125382D33110K8222J7800m4479j20959j40187q8230k2880M109k873j9029l9188n8333n0448k738N0853O3654L1277
125365C9681j3202m3777n3007l4031J2425N7026O2472L0420P20j829M726p088l5721n7706n6989l5192l521K5850
125347a08743M5928N5996N2910K8912r233k9464q170K8588K8828j4571m9587l5999K000J8510J2176J4084K8250K7404
125329H7819N813m624J7206M7470M9107J8106j8488l7385l6737k7918k3193k7798l5880l7089l0285k3941k1100j5129
125311a14046n206k141q790q056J3241L7096L1421n241l4819k3714J6190M1248K5834j1569l2549k1496J415P616p495
125292a01061k4824k8671k2841j8606j6851q565J2219M0383O0248N3686J7550k3884l6823j5761J0093J8559K5458
125275e9691N4150Q8516Q6775M0286j1627l2477k7112j7650p633Q098J7340L461k1504k3641P711M0466L5442p935
125257A72975n0771n6347k6109O186J1260r975l5987m9351m4891k3472O634K6797K5129J6450K5211M6348M7244J5952
125239A03283k0061l8289n4820q6972j07810p7284p553M3994M7936L1605K7415K9412J9770Q157J6019L7092M2092
125222A3986K0441m144m677J5267K7074J3387q813p826K1625M9032M7012K6875J9942L2437L9764K2818j1247m5194
125204B67759o7722p1141n5318l9061m5180o6385o8308l6329L693K3848K8970L5614M0483L4494K9347M1125N9077
125187A14966N9784M5330L8407M1721L2071p9l1441l8149k8691l0407n2655p5391p2119l8451K572K3614K0507J1287
125169B2876Q537O046j882n653M55K09k1884n0042n3882l0882p799j654m334o798j1833j6293o178J8991L7592L4585
125149h9823K1449J5688J7414J9291K2975K9601K8373J3346J071J1261L5110M2213J9465j2363k4493j2446K115k673
125131A37574k3680l4007j2400K9406N6306M7662J5888j4813l4559m5656m8465m2101l0611j7304j073J1866M369
125114a598k8011n9158n7071k1957J7675M2714N6950O4134N5377K7687l125j9703k1986k0130j9524k1852l1121m7832
125096h8531o3805p1239o9834n6351j7825M7971J09008J17027N9018k0362o0287m4813j2941q895l4344n6218n1898
125079c24319l1574j5694o027J0629L8217O3326O9556N1577J7528j3860k1870j484K7939M3405M7220O0111Q3228
125062I7908Q6978N0676j880k5644p280K2743K9578R359j7147l0914k7105j1450N248J1123q27k6996n2340n7267
125044E4763l2931N161K5594J2811j3038j8864J278K2075K2552R417m38m536j0121j6550j7096j3298j4383k3452
125026a1056l3630l6997l0525j5318L357J7835K5398K9297K7358R299k3103m2535k2560K3261M8212K4896k3191n0326
125008h0328l7901p229Q230n348l3321m9133m1715k6780k5713l5974l4244r290K3715M6311N7782O3723N9917M3327
124990h3971K7373K7488L6873L4634J6240p01k133O073J1404J1191Q835K779j1218k8914l6072k2446K594J4239k25
124971A4043k0782j5500J4561K8388m667o1591r0672p0626k4806J7002M6141O2958O2717M6038K7554K0339J9255R383
124953G9735j3522l6952m2821k3260J0107L3274L2533J7802O343r03j3905k9985l3742k0088R5J7596K9329K5807q69
124934C6574l0981k6736J8372O2877O6117L3156n495l5859n9272p0250o5397o0795o9857p2700l9332K0414O1994
124917b37170O2405M1781K5497J5981J1513K2483M9820O8679N4294J2408l0203n3478n0062j9089K7531O1772O1623
124900A25785L4562P241l749j25J0738K0391J5525j1284m4256n4202l3028o696m698k4929l9381l0296q942K066n077
124881e0355k0220l1323l5768l7745m1684m8710n4004m7693k5197K264J5925J1824O922J7313L8337N3585N6216N1357
124863a38956M2948K9496J0795j0347l0463m1635l0895M234M2385N3731L0227p716l2790l1531j0404O551o049m3968
124845a64387o5269l5199K4177N4217K9942j6947m7832n7016n1171k5019J8081M9494M9589L9344M8351O8553P2163
124828h929O0573N6622N6018L0302j7112m0556j5079K3774K7177l675k7545k1474k705K868p775j7644j1519Q804
124810I2125K5683K1677m299l9987p7192j14794j41205j29244o4039K7965R1683R0808M1048m109j967M1224Q0047
124793f4576P9345M7994J7237k652k3815m4311m0614o941K5289K7390J2298R202J6356J0220q086j1908L584R571q241
124774D7342k2473q240J1785l31l4205l8802L195M4248L3848j2614l3177K981O3789R9357R3379O1448K0896j8779
124756C13647m7658n9216o0529o2329n9385l6805K012K9911K4970o796m2831o5634o7103m6258j3939J0356J7389
124739a70198J5416J0870m279l2646n3569m6118k1120o578m689J0979N1593Q9736R0840N2629L596k6174k5825p008
124721g2545O468J808o733L111K5630K9837M850k0343j7850j133j485j9180k6256j2283J926J00n374L795K2673L0838
124701e2146J9687N5j3273j6077j4542j4563j1453P260M4302Q0970R1793P1044L6651Q103r774k0433k6328l2509
124683A48767m8991p8931j07920j12560p9631j6457N2205R6067R7903O8119L5869J9200Q542j4265m6995o7477o0547
124666a07102l3928n738J4434K7588L5600L7379L3785K9839K8428K3898O639k3574n1468n8214m0836j6873p052j3549
124648a20744j7240J660L9416O7501N9796K0974j7932l2843k7292j7263q612k50K013p392j8254j5507m064k766j3273
124629a12072j7153p671P99L686J8480M9290O6381M7209J5972R783K0977J1029k4674m6702l1083j793R311M008J948
124610A7725Q231J5754K0818J9188M001j6018j4378J8018N2094N6191L7311K3079J6350k068l1588m5175k9165l686
124592A46682N686k781j4782k0387j7024n516P164J0879N713M077J3870K8392L8108M2754M5422M3296L1587J0147
124574C73287j9312n5095q8917j05719r8342p6852n5855l7938j7813K281J2960J3484J6337K9991M3102L5264M655
124557b4482k4018k7453j3896j1096k4781k9764j2284J515j6767m7346m3942l167K4748N020l5118m8709l0968j2321
124539c74829q049m444J2800M1573P0650Q3465O0667K288n4892o5833k6638K2443M5161M2623L6338L7459M1019L8151
124521d8K7017J7274K1578L4602K9971m685l9281l4127K905K3285M246k5823l6983l5647l4506k2026O962K0641r208
124502e3853n4359o1122k6342M79p545j9142K783M7868P7264P2181M3797J1388j1052j7493j4937j8735l2462m0419
124484a01701k8715m895J1763J0684o309l0335m4904l1482J0712N6134P4505N6704J4220l5367p2302p7160m7493o788
124466b52729J8636K7588L4204L6776J8873j5915l3143n438N0569Q9659Q6037N4571K5678J1325K433p435j0247j260
124448A30182L082j8051n6351p6502n9407k6586q924o337K974K4173L9261L4621J4066j2768l3832k9841O963M6936
124430b6341M5649K224l3833k9392j2130k4155n6915o6587l9644n732J1268J9257K9319L2340J8107l718j6106j4492
124412a70881m315Q648J7884J8813J8580K9452M6540M8895L1450J6460J9120K1492K758j9682q940L5115O7654N4024
124394B33067J0817k0208k3684k1592l9751p5223r6596p3344q858N3624O5370J8261m7013q2057p4979n0455l3920
124377b66541k5662r668K0005M6822M6657J5714j8376j9334K0653P0226Q8740O4022J8314j7212k6980j4877M581
124360b916J5816J1627m2k551J0454K5115K2829L784j3413j6773j5252k1410k9120k1886m03J3542M536j8009l5219
124341f9291m0023l3503j3308J7292L6858K3988j1395l4570k8059q641L592J1427K2147K4362P372r459L442L8945
124323e8824N5546L3241P42o352Q093J5259M726j0636k2518l3131l5859j6604J9412M3929L8602J4830q605k9802
124305A2049n2039o4321n3715k8139p269M428J7262L2537L8701L1204J7477N85k2930m5196m7397k6297k712N709L203
124286a86860j899j3281k9853l2300q098K3863L6539L2041L1959L9889M1141L4460L2918L2458J2407k4030m1816
124269b0462k3963j723r641l0226j5520M1763Q9211P5587J1796m2565m6467j8211o502l0862o4052p3592o1181m6382
124251b72992k8170Q168N0415O0196K4984j8791l1038j3290R040K6198M0993M4937K8396N739J271J2770J4720k399
124233c8853j9806j9647n384J0635K1150K1208Q073j0583k0889j7781n460J3933L7537N1969M5849L0611K7886L5609
124215A66057K9464Q27l0976n0299o3673p6369p5433n2244k1855k266R211K2364L2735L2358K8530L2899M2118M6154
124197F9602M5012L9840J9788k0899o1691p4612n9182l7410j9808j141J2730L154k8741n2873m7597k8617k5225l9655
124179c07325m6369k6895Q301L3615L6168K6760K4317L1456L0536Q348k1089k9414r008J6434K0420L301j2730j1334
124161b24508L229J6273K0005J8250J7497J8699K0258K3629K6965J6135k1529o8110p8019k7837M7610R0575Q6391
124144a4487P0493P0609P0629M2760q664n4065p4201p0695n1894k6796o609M481J5888L3590M2702K5059r428l0001
124126B9371k5131j4481j5055j7166p622J603j0749l8577m9360k3602K1239M9778M1929O543k6812k7866R328N4973
124108d1657O7523L7443q69r253J0222K2899O917k4448m5591m7997m0062k9434j7635q685j1674l0113n2124n6108
124090b70646k9624J6073N3129O2419N0475L7127K9405J6850n678k2147j2707J7333L8066K7985j470k0534j5583n92
124072c0119M696k724j3732k4147l4970l9832k7101L039L5690N8224O7796O0023K9300j0230k4256K782M2635N7026
124054A54100M3705K5967R065k1512o2132q4104o9866l0265J7179N9949P8180N4280N492k5115k4076k2824m2430
124037F5593n8676m6135k2013j2733o466K0853N3645N4293K0677j4171l0881l3263j8472J6951M2937J6000n5732
124020g593j07959r5682m0471J0116L5944M0417K6075r89k3036k7699j8750L68L2637O6161P2666M4787J2700N497
124002B5189J7318K9656M2620N8873N8325K1759l0972n7080m2405j2852L562M318K024N332J2852J3669n325m1621
123984A05242o9980o5554l1913M752K5975L4013L6729L1915J1000k4815n4213m8158l537L9898L6052j0574m6063
123967b9231l2823R590M1034N0136M5667K5846j0566l9695l5806j2280o246k5720m4264m7355m9813o0846o3929m4585
123949c30886j2704J7567M8466Q1810R8407P5348J8989l3947m9295k4855J1338K9921K7445K1444J9391Q129j5317
123932h749k1968J3762O6222P8641L4036k2702m1968k2603L981J8022K0992J8344J3455J0814J0146K845j5435l4913
123914A22922m2381l4797j6630O615K5648K9012J6172M64p598j0729j3932j6161j9442l0680m3512l4446N805M7914
123896a5756M9801K863o1234j04083j06859p0488j0186M7905Q0519Q4720P5229O4513N4283M5347M2177M2151L0904
123879B51806j214m1200o1392m8750k1474j0556k5319m4502m5270l2969l2254n2996p7784q3599o3857k7749Q743
123862d10336K7592J9887J118J873L1112N9084N1383J3505j4584p378J7328K3255k02k6933k6083J552K5476K3344
123844a89007O017l864p155k2398m7734n3605k2289K5304N5368N7584M2883K1894L945L565K5052M6484L9248J496
123826a7212m2497p0896p6507n7949k0289J6662L0819K1678P569J46k338J465J8348M2988N7161N3038M1560L1958
123808C5704J9009j511j9531k2750j1602N495K2521L5353M0090L6797K6736N101l0701o4386o9792m2717p885J2445
123790c1624J9602K0855J1218j3150m0907o0060p0064o5106k7809L6427P9405N9428J664k6090L306N0677P0138N8741
123772G6651L6832J4103m959r927l499j1113m5925p9576p4026l1826J0713L1659L7631L5169J8703q903k9692l2761
123754g0746k4067r958P280J3165j1553n3753o5705k2775L7743O2628N1471M6967O5439P5069M8855N623j7577j0379
123736A27727J0737K8298L0651P247m0082q5793r8908p3106k8772R564K6232J3407k2675n4412n1130j2329K9393
123719a83951M4752L6697K7463K8234L1570K6823J2385m733j3231k801K7299O2729Q0709O5254J9114l5391o9102
123702A53820o8236m7857l6794m4613n0749l3136L86K1420J8212Q592J2235K2816J7435j1636m4294n2473k8418P770
123684a55520K7131J8299m566j9376j7621n327J0982K8069L6944K5269l510k5304k2020o007m542k3827m2625m1374
123666b24925k3535n178M058M286k98m638p324j4227k8811l8232k3626J0829L5611L2710J9222K0024L1993L5136
123648a76925K7739K5306K9172K2534N32j9196k2058j1532Q505M3489Q6768J08721Q7539L9597R97j3264j4999j5330
123630B07595j2117m890m194j8684m1219n2596l7089L010M3900N6823L6096O356n898j509Q74m377n415L275J1274
123611A81215R793K647n948j9019l3353l2275n555L1189M9735L8611J0291j6361l1174l4185l2936l6760m4467m0344
123593h896j3980J7709K3800j646k9651l4207k5464l0322n0724o1417m5598j1951K5298O1242Q7136Q4366M8633N717
123575D0045j6146j9541k3693k6243o114L5102O1997M6899M198k9616l7475l1381k9452l4354l1377m839L8447O5677
123557B134N2379J7989N201K1008K6181m749m3389n0505l2480k2153k2744j0863J3270K1624P905J449J8352L2518
123539C3127J5892j7509l0753j1473J9875L8141L2994R161j7683l0564k6711j7342p492J0209L3714M1754K2166m467
123521I3039r584M834J3349N656m922r236j5205k8990m2866m8417m5628l2875n110K8107L9325J4861j9756k4562O459
123502h1521L8233L8386J3139q129j1026m250L734J6061L0550K9776L802k6737k9854l593K0789K1119J0824J2501
123484G3804K2284J8878j886k2399l0020k8486k2012q863K610p838m2905p0465n5694n774L5587L8630J6331n28l63
123465h9109O778J0285P469k282j5981k1557r182J1168J9341J5891K4387N2152O7409L7215k2076n8447m8653k3986
123447c9178k3291m2281m6506k1133J2842K8765K3150J0837L119j529q575j5792j4135j08J7517K7981L1581L4539
123429b2197L5190K8445K2514L2180M9797M4504N210l4536l7623j6322j5137m5094o7455n0002r687J7518K5618L3626
123411c451M6707M9670L5037J2962r264l5842o3190p0758m4982k077K6343K5805Q337m538J425K6203N1053M5249m139
123392I0550o5831q5904m6307J1212L2239R892j7584k0169m842Q322J4544J8020J5075R12j4442j3030Q638L4332
123374b4373M5779L9140K5724K2539L8682O2576O5812L1347k1294n1034m0091j3005l602j3748j8791q049J10j0504
123356A27218k5219j7968Q012J9991O62k4850k0422J3205L9462L2831P560o017r24J764j6697m7443o1928m2834n209
123337a8806J6056J975l0430m7936l6635r957J3732K6932K5530L549l2940n8539n1396k0526K838J659j0449j1629Q29
123318b36143J3682K1147L1495M7702N4053L4691R49j6418n976J0372J2189J1585K9459N3824N0546J3581k4819l9403
123300F2516l9055l8022k8841m237J6940J1999j0119j9658m567K1351M0620M3820K8436O090J659K3383M2510K7122
123282A81947j1336l3058k5660j2765p166P747L8686N7370L5046j8812o9622r2478q0271l6771J9295N6683N6282
123265F5117K6416j4729n6775q6943q3517m1573P776K6960J4579N65O477K9109N5533P2621O6273L4514J721k041
123247A22083J9908L1087P249l4226n7129m5226j1195K1535L7593L8180L7312M4591N0475L7391O320k0690k9592
123230B55666l2229m4999o0777n7162k8737L458J6209O690j3191l4586n4204o3665m9866j2237K8230M7857M6683
123213d6860M5491N5560O4268N7028L9999K7836J9597N672p232k015J5336J4048j6659m3578l2520p8O618k2854m7191
123194A32466l3071k57J2053N82q530p629j3563k6107j8108J7036L9492J3066l8133n6808k8633L121J456j8881k1896
123175e2344J034L1278N1331N3328L4448M105j5693j5730j4373k8006l9783k3171J2381K9181J2995j2205k3771k4925
123157a9920k2256q936J4176K6615J7780Q464K0827M2570M4168K0782o113k1272k7177k8143k5833k8984m5283o1509
123139a00044n2404j4542K6023M5632M6715M2966L6189J8670j0421l9540n1464l4110O609M4318N4378M0536K6952
123122H6463K3038J3977q586k7449k4332o192R256J9738L0718L3287J3652j9154l7171k7184m240R110K221k3751
123104F3401n7258p5591o1436k6654m339r884k2833j3880K2431O7441R6732R2159N1666j526l2779l1774k3613l3371
123086a108n3091n8714m5926k8755j2419Q395K8232L2367K1074J0001K788j3929m0669n3411l6560r518k138j5546
123068b68927k5844j8985k895J1992K6089M2480N9453P4645Q5965Q5795O5280K9457o96q023L711J6684J7801O001
123050A99983j3845l6301n4552o0138m7771k1204O690K1825J9300O562l513j440J4937L8174N0395L4847j907k7389
123032A24653j8488M607Q51l2072m6060o335N4774P4622L9308n298k0220j7458k6189m4708m9538l5123j8713j1874
123014c3261q453L21J4775L0441L9828L2687P551j9477l0735k8952k8541k8612j4622J1257K2462L99l9478o3393
122996a35803n2669j7323J4220J7446m520j9421k812K5635K4209j1821m1474l6031j3972j402R403L3573N3378M2134
122978a17250J1762k986P17n921l0447m6136l7361k2223j8469j7176m087J7705L8673N3344M9587J3398m0851o9507
122960b27228m8261l390K2457J8156K154p598k193K2092N3464O3506L8688L450p579R117L0470M0618L8772K4108k147
122941F8656k5344l1378k8016l0178k8701j4N2220R0497Q5458M6168L164k2571k9767l1495m3306o3911o8856m0350
122923i7724q53P181k1220m2648k3381J5244K8050O036j6386o632L1363O5698O8127L9102R034J0344M1261O2428
122905A75024L7111k8897r2888j15587r1376m5883j1653k213l740N878K9032M6235M2537K4468O332o705j2964n724
122887e1013J5069L2354L0090J6650J4102K7996M4715N6251O7135P3723N8489J6687k8097n1549o0833p9362j04059
122870G8348j01443n4247O662L4125K0084k44N80Q123n341l4861m7926l2141j3735j9341l7577l5868o538K3739L1101
122851a86500K3813K6144M4053N9270N4477L3124J0949m152j6235k8084l3208k5001p705Q014J6577J7150N605k0755
122833b2464m8687n3226k6435O576J2629j1774l8789m3580k7974q083Q594K5447M4086O0064O9168O9149N4421J7849
122815H6971l5469p9821q4072m1447J8840N6597N7825M0724K5351J0615r912k2908p154L1663O0227N8130L9186K2164
122797B27510K632k5932m2497k1923J9687L7798J9700k952j0809k7392o9859j04270q8594l8969q697r398M39M3214
122779a00312Q2594P5156K8695j4276k7545j3963J1770K8685J4250l0582p0769p4269n1836l9267m8583n9774n5083
122762c45109l7679j8330m813l225r702l567K9145O7156P3882M6937K1346J9082K4381J9796J7160L2785N5017O1777
122744D6039N5689N6140O3878N8130K8542r442l4551m1731m1214m5267n8422p3880p7969o2577l3227l096J7666K5331
122726a29961K2752K0233K7728L9906L8253J6418o516j0058o36j27j2244k0066j6417j5258k5756l4837l0375k7413
122708a64374m9202q5558r3546m9188J7716N6050N1855L5585L4110L9623L5356K9479M1485O7069Q1489P3834N3580
122691A75363K4220k1069p0251q8812o3889k9330k2671l3468k2372J7351M8464M2313J6127O825K5031M7659M6879
122674I8370J6876k2670m3596l4142j0823j680j6013l5506l6071j1432K7229O6967J00875J22878J22700R2085L7702
122657D73749j6023m4711m7907m9667p0716j04353j24498j12455p0846j8323K0560K6730J671k8584l5388j6114N758
122640b11117R073m273j6691j3559P447L6270N4682M7531J7292j3949k2262l713K2620L5452L4709L8045M9177M0092
122622A06826j6048r4503j27258p7316J3125O8826O2257K5982k058j2900r600P410K6887K8065J2088R100L5305O2641
122604A18829N3721J2834k1832k8512k0619j8577k6042l6884m6501m8842l5609o842K4147M0957L5698J2352j3989
122587e711k3785j0556O891J066l1796o5408p3047n2879j8998J9083N4483O9235M3413j5277o3869n9984o077M9456
122569a83760N9175K1739k2637l7962k5389r289k796n65r80j4752m1630n4762k8482K3006N6348N2423L9280N0910
122551a20123Q0360R2001O9838L1673j151k4895m0757m2792k9360j0874N247K4336M7515N8550M3155J1432j5326
122534A78829l1623m3638m6338k8032M014K6760L4100M3305O0389O1792K6475l0079p2459q5256p8237n9413k5167
122517f4578K0755N6290N8799K7599j5765m6075n2221m1683k9789k3005j3896M943K5516K9912J1658j3624k1979m793
122499i1936K1374K9483R939j6245j9087K694J5227r683n4481p1602l9267J3247M1895L7306K8048M1455P2591R1221
122481A02179P1844J6399m6998q6346q9940o9763m2447j3614J5440L5298L5831K3623J7611K4385L0162K2538Q028m1
122463E4189j30J334K211M78j2719l9167n9465n2888k9113j8302k6517k3986J1618N9145P6704M9221n49m0410n5381
122444a03727n0982m0542k9100r065K2094M4387L3713o76k0358p611J4202K2967L0471M9332N7847L4602N033P733
122426F0320K7466J4007l3268n5231k1802K0681J8665j4572l0712k0601j4443k5617l5455k8542r498J4187L7799
122409i6616M7831L1454J369j2044K29J4110P496r945j2252R755M1772O4705O9946O0024M3318K8865K1107J7348
122391C28472J2081M589p42m517j8361n1125q8334r9130p2120l2021r018n352r058k3283n1298o3521k2663N2429
122373a52972R0466N4318j0836l9453k3919j890N572M950j523j7106k6937r856K6365N0929N0498L8070K5066J2000
122355G3742M147P196Q000j0009l0949j8989K6262N8739M3226k984l9412m8832l9158k2085r397j3642l2988m6397
122337i3530l8443j8132j299J1849K6740L5387K6841R376K920J0525J3544j981k6157l8510l3884k7405l2904m2089
122319b17152l2072O764N8963J02144J25549J25403R7980N1087Q394j6268l7679p1628j00776r5441o0107k7308q525
122302i0672J3752M2927N5044L9509J8575J0223J701k2364n2573p2644p8728o5391k2823L1893N3148K4571r354K7
122284a23179M2402P4192Q0728P2410M1290k7372j06357j37222r7437k4595K8624L5721j352n3786p0193j9600O1348
122267b24378R8606O6760J1435k0793l3011m1601l3352N516M6268M5255L912l3157l6900k1606j1885p533P654L7109
122249a41701O4998P4918O6026M8015K5484l930l4755m9596m0480k4786k4431l5290l5363j9178k372P574K0697L9133
122231f5037M6407L3227J4196O223P171P948R358J3722J4968J0624R372J3427Q689j2253l2246l2073j7574n765L479
122212C3863K0392L9497M3320K6901r51l4659o8988q4919o4177j9638J1447J0271n474j1412p048q439k3396m2566
122194a85976m8649l1841k067J7086J6078J4780L5209O5555P3600N3582L2724K6743J8620m783k3269j3762R711J4125
122176F7466n302k2014j7244J333J7888K3864J5121o214k5602k9658k5441k6973k5257M65L8375M5307Q159k8381
122158E892k2255N330O336j6990j8203J5137L9538K4042l878n132J3338J8766M434j2705k8388m9496o6619o2590
122140a53443m3736l1096k4294o587J6402J9479K529n402M393N893j0710j3386J9920N8146N9865L3615J8626K3856
122122b5930K4581Q551j1629k5728l0680j3962L0322P0311O1643J0427k7162k0361k177j3738m4179n3423l0350K244
122104i1240K5676L8383L8202J9453r992k8162k1131L396K5594L0560J8670M947M447J4084J5071k625k6913l9513
122086A8907l5563k2066q574n971k0421l8930l6139q840J1520j436l0121l6209j3136J0941J9396K7402M9010O8707
122068e1523O1530K7785p583k4213k2896j5024n860O655J9631K0168O87k3824k7402n848J6727K2153K1481K8619
122050D1263K8528j429m7653o9084n0955k1070o946n307n142j1846k8011l2989q415K8912M5878L8325L3035M6170
122032b6736O2995O2834M4266J7985r171l2178m1358l1102j1339p29q703k8785m7446n4445m6565k7863q082L184L512
122013a79726j744n684m819J035Q869J1271J271j6864k6730j6286Q425L2790N0581N9787M9189J1378k9568l0980
121995g7805J3116N2709M0580o534l3059j9248K921O131L331J4807K9746K2775p241l5531m1814k8114j0064p93k304
121976g6391q047j3715k1655k9738k5118l169J5913J0368q566j1057M385R424m962j2347N050L0598M7338O2082P3836
121957D4229N6495N668l1862j7809J5580J1278k4364l3105M243M3815M8851L2023J6473K296r560k079K4149L5117
121939B21438Q150l1719m4325k4737o54N108p283k0856j4794J4267L7785K2460k2619n2282m6470l2616l2519k4070
121921d5736J6601O5765P9306M8768j049n0888r0298j00203p0912k8929j1143j7775k1614j5003j2140j0671Q389
121904b57532L8986M6856J9004j5207k5345j5050k615Q252K1197L0020K6681J5705Q645J1990K5647M3462N3173M7828
121886H1697L6390K8195J1354l0111p8220q8889m6113J6566N7913O8082N6866L1850M537q212q974k3180n7663q0170
121868b8082o4831l4349k6081l5366k7875M878L9310O0779P3126P1103M3074M338j1039m87J195k2595m6311n0655
121850d9868n5123p3782p4113k1257N8134J00532Q5696N2340L7170L8626M4663N4398N6615K4005m4234r9315r2549
121833D1938l5320J5855K5382O636q978o563P832J6684L384k8380m8532l1981M521J7691p291l8961m3360k3047O5
121814a32425J9468M1212N9158N5544K4332k0204n6079o5776m3053j258K9058K4773o442l4425l5754r255K9782O0058
121796f1286O4070L9698K245k9822m7078m5813k6345k191N325m685n348K0258N0524N5757M0100K4707N072l6979
121778D8209q6520j03500p9882m7898k4909O332M8912O9756N2409L1071L7943N0923L3664m67j1077M13n532l9018
121760a9171o3669n2667k2732j288Q686J7759K7665L1971K3477k692l6753m7837j4708L6983N6713L2832M728M750
121742a5953K1120L1472L7255M0888K1075l3807q7903r1611m5330L456K3074K5490K9643K9637J2665j3740k9030
121725d1599k3003j527K2164L4107K6658P047p102o477J582O670Q563J1871J6955K4120L8166N7938O7592N1958J8931
121706C14614p335j7787k9331n7210q8775r7720p8378n0707l1855j8405k250J1239J4179J5825L2826N9654O6370
121689C4954L5208j1530l2965j5870J2358J8949L924m760J0320L3816L8359J9907J486J554R810J536l0698o9098
121671E7260r1345q9377o7907l5084P45L2252N6869P5594Q4993P6335M8339J5937k169m124n672j8379l3379l1626
121653F9262p541K2736L6632K4874l796l1672m2558k9247Q19K7737L4672K3483R979L816J099k510l873m071j5619
121634A14222m5148p6578q6328p2204n3179m2095l3553k0112n446L727O995O681O077J5332M5399Q7777J12246R6130
121616E9943M8436l146l9181n2710m0508j0521P932j3983o5444r6395o9533k690N1318O0079L5158N941j2311j8954
121598a56569j2366R216L4638M4835L6829L0050L9803N5378N7203M5598L4098K1244n488l6306l9697r860J4076O04
121580A63286k4342j4495K1708K6465k1068o6283n1845J750K4643p344m6095m2488q599R017p035l4068m9647n3960
121562a80400n1257l5572p287J4433J4287O498J7607M4896N2330J6072m0250o8176m5121Q739N8905Q7327R3343P8335
121544F4709M1714r313n4420p0020m6229M146N1752O7951M2783o984m6950m9605j7550J8318K9551J9464J5163K9087
121526H3567L9098J7374k6311m7189j8427L1405M9212K0956j5065k2533j2261j5502l0002k4265O659K4653J835l7332
121508B5872m9382k7519O00J4658J3421k646k7337l4063k426L8887L4292k2579p0627n7110m04M4790N5342M3671
121490b2560J8634j9161n2544n3786j8719K6691N4820N6684L9301J9104J1665J2792o97l5233o0263m6807j1920N159
121472g6840Q97O891L5657O3463O9272N5825K7343j7416o0574p0288m5358k1036j4711k676K7589M2356J4812j9383
121454A5823n765M7885Q0630O0999J6838j6251l3095l8294k8147j0722j2052m0222o6090o1435l8103k6263k7200
121437a81464j4299K2541N7659O1035L4102N484j906P772J2973M96k1889l8047m2757m1449l4353j4679J2815K5623
121419a50343R719j5306j4214K0595N8716O8089M7573J7485o160j5225k313K8105M7745K9003j5388m0497k6278m895
121401C6411j5920n2995p6282o5080l3264J257L5512O6795Q1570O9198L5407l198l0337l7202k9459k4462k9114k6018
121383i7181J883L9451N4486M0130J5483j2328n0744q1786o2421J2667Q3588R0725M3328o125l1737m3430m5897l1390
121365h1298q668n84q890j0771N859K8702M3964M7334L1056j0771n6594o5016k3015L1959N2240L0630J288l61K8072
121346C5136N4913M6600P683j7691K718M5342N9273L1040o693k7749l8787m6870l8145q793J2987L390j8096j4413
121328H1845J6197M0447L8249K4706J9506J4313j6198p5678j29346j34201q6703k9095J409J7006N2199J01467J17363
121311E3486P7372K0504j373J4682L1198K2922k764k7467m1004m2007l5235k7863k1536j3454p652j1649j7709p022
121293c6571J8498L0988J7704M227J6272L9165L9851J1761k7664o6395r4502q7649l1921M0579P7425O8224M9825
121276F9817M8397M9811L4234P912j3606k9529m5364n6701n4041l4301l429K2334K1122j1354m6023m8329k0018Q545
121258a00523K3231L4365M1798K8033n456k9995l2574l4976n1955o1137l8584R43K5447K7670K1748J6694J6880L0393
121240h7998N1579N3305K3914n955m375J1060Q53k9457l3586M534M6877N8405M9868M5988M3049K3872n068j8232n658
121221B22975J5013J8037q195n1458q0129o7117k0375J7957J4705j6760l2904j1322K4895L4694L407m2715o2355
121204d1647l8012R037M0908L9310J8869O877J4198K7295K5607M338j9805k5036o114K1371L6392K8236k89l5312
121186A06223n5221m3444p194K3388K3690k106l1025m5129l8106j1498K1021L6377K7062J5042K1346L1036J4778
121169H6240k0260l4670j6383o29j4568l3412j7226L0635P0520P7991O0695L3454N154j2989j3348q128j6986l6041
121151A40049m1094k5006q523o810q948l368j744j8324m1223m6928l4646k3415j7979r82L5108O7009O4332K6887
121133E4395j1802j7463J1818M4362M6677J7960j0790j5532q145j4214k9354k1298J9610N6258M8094J926m1702o0490
121115G0310o2734n4397k7160J3111L6298K5922P180J4573M4090O1414N1360L3923K9016K7611Q348l0644o7793p9988
121097A00440o1470k4887J1248L7156N4272O2231N0137J1241l6661o0927m9756k6146j7146j8766n446K8227N1649
121080A05396L3704j3774m4106l2116p782j6804n5009o8803k8067K9418M8415K9511J8876L5240M7235K9209K249K85
121062A13077K1572L6817K8844L428k6533m8267n0247l3635j4939m345O284J9541J4381k3623o7061p2313l6500J125
121044a32394J6075K6149N1938P6724O6197J5815l8819n7184l2757J327N630k2788m6350l3786m40J4781J997j6858
121026a04743l2082n6584q4321p6865j6583N3295P3201L8832J227L345M1390Q3858J03767R0885N3302J2548j5630
121009A68842l6806o2749q4322p7257l7600M910J6832l862k7434k2116J5670N5335N9738K5905q250q700J2136J6014
120991F286m416j6192K709L0451L4706J6953J704l801j2150k2561j3529K2430N7744O0641L6750K0501K5902K5472
120973B69600j1131p1201j10374j06237p9793n8839m2007j4870J5647K8442K3525K3324L5561L9418J9335p145j1195
120956e7940R923L3242M0838L5447K8005K1980J2026p387l2134m6479l6842j0467P778K779j4404k3115j6392L10
120938e2832K2211M3067M8182K7725m195k0034j1253K669J033j4403k8017l1705k8685k1752p270J8212M8873O8760
120920F0586O2214K8983j1399l5079l5923k9814l5673n3695o3867m7350j0575J5585P996j8471k5156J811L2510L4544
120902a22773J7961J7165L6916M6002K8335J0349K0016M0220K9188j9561o1965n2760L495N6345N7927O407n2914
120885F0353o9300l4201J3104K9564J1377j3874k7522l3406l3711j6696J8233M2446K8113j0668l0233j2021J7184
120868f1258K6570K0301J9087K1280Q720j5197k1567M595M2790O3622N8808L5130j903m1725o1387m6249j1811J2788
120850E2594J8391J7290J7521J5305J0812J1219J5544J2614l810l1268o6668r9802j03152n6198J5250N3210L4667n40
120832h7021n985J2052J5890l477k0226j8948j3278j6749k1419j4613L69R628N074r570k2148k0700n555R119J2996
120813a94561J3342K1074L0770K9702K0353J4331P035j7880n5276p3285n1671p025L1544N4390O5402O1719M0588
120796i448J6887J0757J8491J5234r380l4882l8004k4722k0606l3313l9577j5948K6501N0412L5104k54k2006k0455
120778i5209j1892r108o042P143K8350M9161O5191P2883O4280L5566k264l0189l9396l7531l5524l2222j6887J1713
120760A8023L4114K7928j504k0607o723K2882L4789K2283M696r349k9872n3200n2060j5165K5541L0055J4k8443l2929
120741b9527k3644j7770j7435j7028j5946j6771j9212j9818j3671J346J6522J4670r730l8097m6543l1767n888K6152
120723b64157O4081R1071Q0941L4353j2913l0122k4684k2860l1432l5030k3387m376Q451R133N25q380o563R801L1168
120704a34380M1561L1170K053l1387m5082k0997K8849O3641N4693J9795p1M724K410l1639p7603r4667o6648j0385
120686b63963M8175Q8580R5712O7668K5332k339o767k787l882q847j4053k1260k6628j8423L827K1227J8019Q90j4901
120667a4420k5198k9006j6364J4481L8423K7983p055l0071k7653k2996l5072n1801n4687m5485l2834j3587J4031
120650c11311L5557L8436L2146L1813L4784L3483L8554O3400R2235R0390M7587j0102n2751p1121o7426m3464o334
120633b4124K8667M9034N1425L7336J3327p157j6480k4293l9883m8684l0579L75N932j9018l1703j823M2035N2190
120615C6577K6504K517L58L938m839k2861l9660m9814m6630k4997K538J1953o98j0535K703K6790L5091K0499l654
120596c4220k7388m9906o3177m9107k346N3956Q5686P8572M5944J0687j1217j1315J2461M8578P1534O1247K3349
120579B43338j6940m0401m6793m5350m3227m3701m4748l7115j4758R632J2450j0935l5858l6703j5614N936J3356O074
120561a41357j0297k3935j7687J2288M2323M2218R999k7075m3496l4124o579K6103M5284L8038J3012r656k5071m2675
120543a52687n8151n0940j9050P753O020q848p141J3927L5042M7835N7659O0967M8092K8296K4449L5737L0657q891
120525I0726n5196o4793l0926J1234K7535J7519L147j864l233j0247j7519r795J4636L5274L3731K0172J9206L0439
120507A10046K4764j0480m4219m0748j2761p009l8859p1202o8882m7418m4961o2958o6093m0163j8064l1712n9338
120490e30057m8485J2454P3245Q2965N0982K6132K7908K8801P732j1992L12L0287L6208J1735m389J2116L4399K5217
120472a34430j0788l9646m4257k9913L026N6160J03812J03472M9479j0446k9846j5154n024j6143l1930l2714j2665
120455i7007K6170P1008R0978N9529q436o2814p1260m8507k4127l034K2483L9238K2823j9514m4009k1249K5025M5752
120437C049K3538j4596l7131m1878m4613m9359m4376k3040M823K4864L2137K9735K2489J9001L1950O3938R3973R0723
120419A85227M5260j6134n6727o0959l7305j7L8448O1308N2789J7862j5691k6960k6770l9762o6169p8760o1000l0686
120401a16046j3813p654J1612M8084P3611O3537L0117O466M984Q673M088L574K1224L9068K2020k8836o1346l1145
120383G8218L5880O6246K5432m2979p4056n4492k1681r135j8284l4240m1448k5205J5525N2477M9542Q929k4899j7692
120365c1862J7001M3968N0043M4987L6150K4493J6953K1302L0986L0566J4653r077l0055l7743k4083K140J2688j0032
120347B03078m6894o5059o0290n3802n1962l8149q918J0174j893l2748n4959n6714m0985j0474K8996O0491O9101
120330a51007N9027M5636L5530K5228J3714L969m418j2411j2692N260L9151O9343P3296M4423n48l2931l7469k8043
120312A35058k9209m0233l2430Q114N0598N2103J3768j7902q882K2541L4003J3496j0203q030J3163K1191j671l8390
120294A77085n7186m4654j4371J2469K7264L5505M4966N3971M8971J7645k9710n9523n0266k4800k6538n9336p4990
120277b3498l5540L1930O6071M5960R254j163J6969L7691M2179K9379O715j4872k4222k0736j8070k7173l9221l6092
120259D5561j6767j050l472j5324k2140k9233n1542p9102p5756k6031L3811N3639K9566J632m479k639p237k651K6670
120240a46544N9850O2179L2327R59j0692o259P279L0237N6345O8977N6933K1212l1716q6106j10000p7504m800N6372
120222b0951P0262M7147J7493k980j2028n742J5275L4007K9679J872k7153l3503j2600J5163J8339j5785o0955p1977
120204a4437l1611L0259O8521O5294L7519J4378J3248K8145L6010K2009p00q156o98q20j3719j6147M328K5487K4648
120185B83558J2804J0054P831j3240m2084m9075l3977k7617m4486o5587p3948p6134p7018o1969k2647K0431M1781
120168b11323M3976M7872N9165O3389N0338K7180N905j1271l0075n2625p0327o9050m3837p986J7379K3753K1225
120151a36312K4149L5570M5417M0010J6325q463q914J7216L7783K2502j5714l6611k6863j2307j3133j6940r192q70
120133d6347l827l568J4091K7657O408l6396n3295k6862R379K0973J1635m10j4569l3816m1223j9360J7301L5951
120115a36278K8182J6834K0508L2418L8401L6900L2826K6000J4978J845j3702l3417m5924k8137K3637P5258Q7155
120098A77484O0080K8673J2558k023k7974n1055n1936l4648j6027k931J829j2030m2978o0339l7547L774J7409k60
120080c7941n824J9141L4167L395m3069n0111j8057J192j9289n0164n3865k7451J1999N2816Q3670Q8367O5621L8331
120062I2928K6342K1540L249l2163o8597q6735p4336l3782R294J9907q401m1855m7391l0966j7154p761J1167L2187
120044b32527L1595J2268O959K9214N1617M8484L2878K8966K9602J0454k5418m7455m0919k4524j9630k2335j6544
120027a47315j328P083l220k3672l1572j3444J6929K9395J2104j1438j0265J4623L2913K5166L959p837l565R946
120009a01538K7483M5140N2454L7533L30m3577p0920o3109j9876L4524O6028N7845K0095k5948o2741p6351o0363
119992a82991k9532j3218k0930k7412p686K6535M6253M9182N6116O6902N2575J440n2892o7278l7857K323K3782K3969
119974i0719J7424J6961K2762K1678l07l8809o8507o6605l6422l494Q877j734j6721j2105J9012N6243O9887N0746
119956e1833J5177j7611l9638m5293k8837l86J4539P139J444J9666M4828M2415J2505o376J2068M9026O5174M2325
119938A36332n507m9473o7579n8133l6845j6904L806K7473L8887K3631j265j899K3177L6613J8061r92J8356O2046
119920A49785P6871L8338k1987n7930n4805k8799j141J4165R129j5299m5022o0734n4122l4163j5398j104J7901M5212
119902c9103O5036N5931J8444k1831m3243n0023n8175o9839p3164o1040l7145p235K2622M1710M3187L7752M4286
119885a31830O2513O8475M4808M776k3563k9531k5330k3687k1918j0665Q158J7039j800m4674q1350p9306l7346J0611
119867b94620L0425K0395L191n442o076O69J9104M1790M6878K6056L213Q306L8986O5173O8360N7240M3754K5408n1
119848A92759k1962l3147m3605o0639o8824n2665l0249l5446o5106p3457l1585L0959O2043M7590J5848n911j3074
119831a86471o285J9193N6464P7906N8993O594m4600o1120l4174J7464O1646P6044O4933N0598M5112L7225J2796
119814B52318k1283m5979n7299o7793q0513p9966n6978k6864r710m566J283P768P063O379J9791L6111K3166k3970
119796a21042o3221n3088l679L9805N1654M2248K9822K0428J4819J4821J9904K9346M4641N8521N1618J7992j6002
119779A78587k1399o530j17k709R917L6931M7217L2004K1286L0309K9101p920n4977p0001n2505l4092k9686k9182
119761G6234k3242r377J4193L5773K8411j2211m7083m1798j5671q185j7202j3493M94k001j4397j682L5446N5358
119743C9567M2855K9008K9933J8602j9865n3772n4121l5754k0289m03K5104K2990k3605o9195n9504q591K4215J7633
119725i5192K511L558J2564J6717J4543L755j4557k3043r876M014p512k9935k7874l357R257L841R312L0520L3641
119706f7113P082j1708L043K0399K987l1381l8195j3220R926J5605J9037K7422K6036R717j817O955K3558K7590K1645
119687E7568K5777M4761N6525M0443Q277p927Q4L422k0329m7730l9736k164J8566L633j1236N890L0814J8857k8694
119668A56801o7568o9904m8946k7757j3506o879j0638j8610j4809N293K5335K9063K0166J1561K871j9228n7743r0567
119650a95065q6468l9184J9214M8998M6857M5059O1205O8201L3164k7087n7668l3848P104J2113k6763o9412p4214
119633b67794l5372J9449N6643O1812M4533K2885O783k349l860L67J274p737j8385j7966j0253q825q608J4039O3272
119614i0092J05984J08596P7629M4865K2330n633m8200q7912j00411q0263m1485k916K1677K7903K1960J4180R605
119597b183Q918J5858L2792M7551L7911j916m7382o6134n0792k1083K148J3286J3270M74j9336k3802O726N7014Q0188
119578H3508M7217j4241m8042l5903j5352k3832m6964m3669q432K2890K9850L7218P1447J11663J11652O2264N251
119561C46525j7618q590N89r169k9891m5714n1631n2026n0037m3574k9318p412J7387L6990M2606L0313P825o810k51
119542A30194K0660L4046K5952K538k2808m5090o2769o5932m4078n443K4307K7560J1597l542o881j282P642J8993
119524D5664L1659L6759K1675j3175m4051m1223l138L4549L3855o058n3090p8928p7574n3072j0541L5467O2606O2423
119506a6193M8973L6718K1863k409k3388j9452Q892L3675K9050k341l6186n3941n7934n9594n8521m2183r192J8533
119488a83630J9592K367o674n54M054J566R457L4237N1666M1516K1210J8553K5495R653l3382o9010o7315l3784P760
119469a47223M0891N7935N4899L6289J4694p30p648l268J2521K5890J7678j0924l4794l2982r248J9161L9671M5772
119451A18584L4140J0116j2535k5231l1770l7275l6474j8228K0209O2241P4274L2078m2381q5157n6567N232K8530
119434C9786K214j5551R467L4571R781m1405n8534l6970k8192n1144n8497r296O6401J04725Q5138M0498L880k3259
119416G3613n0072p0897p4408o4261n4071m4385j9699K5728O9451Q0168N2837J3961q072p791K347Q802M201j0147
119398g2695k1381j4355Q433K4846J9200J422q758p463m499k734N814K4652M4600N1832L8826J0336j6531k3827j0964
119379D6754M177Q132P105J0934J2551j733k7264m2422l4612j2613P386J7456J8682J5090R441J224j0608k1620k4194
119360a6134j8324j1617n460O380J9897J8189k141j9812k1058k5234n4164r0048r4236o1541k4339l174J4421M0131
119342c48264O1061O3415N5835N3664N7656O0891O0313N0269K2594j4158l3793k6595j7490l1244n4228n3515k4379
119325a17968O338K0948K9470M2696M9588L5705J1126K181J6366K9690J6610j4266k6438J88M2036N7815L5011j361
119307B35735k2776k4855j9234j3204o618n60P69m595j2944j6145q212N084P197j0102l2252l7719k5393j2300o396M4
119287d476Q673Q129l693j0945n393j330q939j0646J2504M1658L4959j6664p0181p5461k7396L3620O4447N5264K8458
119268E2588J0511Q393J1200Q307m81j0164j6890j7815j2962r039j3018k0171j8867r639o556j3545j2996J1200M9087
119249a0857P4621P3791N3424K8747J2044P926R977N774p396j6294p160J7535M1923M9182K8997j4705n7586p0776
119231B19167n2271k8789j7499m186K6034N6447O0164L8891J4190p995l4123n2470m1207r219M855j6061m5413n3627
119213E6888m3294k8587o677K6196M9257L6469n998m5346o1854o2233n4878l4998j953K6505L1850J9343J1603J7950
119195f9757K0752j908m5151p6993p0295k9806J4702L7483L6403K9142L4410N2964O4376M8906J5248m443N872K5096
119177H7001K6800J7625K1594L5256K8465q117m5735n8080n3572n1820n0458l6651j5574l782l267l581l409q965
119159a26270j4556o119J5079L0654K8891J4478n366k5571l2452j1325K5505L9408J0372l2981m6102k1331R811J9812
119141a28063J0229m593j7665k6964k8323k0260p907L451J2128J5386J1557J0369K7945O2548Q6570P5425L7989O309
119123A26131o74P604R761p218l9880o8357o8215l5769J471J4042O841Q561K7724M3064M0901L4414L2909J8441k3213
119104A28538o6178o8071k4324K5633M5646L5992J8445P768L611k432j6715l2751l2153p119K1719K5283K846j7922
119086D7816j8672r339m408Q3J3557K9004K9220R162j8465l7020l9985l5862m1216o0817p3532n1583O05M2521M3888
119067a75043K0770J0267K1930L5126L6136L1347K3051N89l1947m2319o751N0928P9696N9778K1864N208J4129K4646
119049A79405J9510J773j8843l6083m3091l2709q841J0161P111j6863m3925n6554n1391l8268k7258j7529k360J4313
119031a61442J5922l691k4083k0649Q51J1506J646n425J1643M5032P5967R8236J07845R1287M8041Q478J585J4377
119013C17126J0581j8116m8388o6684p9852q3763n9148j0683K3405K0164L730O894K4090K7845J3800K79o048j4241
118995F0991k2476j6096L196J0421r543l8089m4751k3959J317Q747l08q028l949M044K585q970j8889j9174j3578r031
118975a45540p744j0379j7636k3003j2851J6855M8724N8938M3497K2293J6471K6713L5182K5045l967l7471n9593
118958b4466o1215l8682M588M9503O5068L5712j7014n3115n5375m0974l2962l5239l9611m2164m2829l7546j9921
118941c86242J2463N4990R3095J05016Q0705L9382J3437J0669P346j5624m5741n7030m1086j0087J9038L4175L3794
118924e1700L1780M4286O4353O4917L5961J293j3521j1807r903r606n258j439k556L71J1227J3305l018j3889N618
118905A50414L5997L6702P669j2863j2336k2574o2246r9250r2975m6780M294L7247N0244M5248K6219O518k005m078
118887D5445j1695k3938k7325j2993J4066L8125M0188J1150l4409o4658n9429k9543m127l809k6317m8356m0999L559
118869b35065N7612Q3693P6140N9617M5417J6995k9097n7801l7002J5005N1752N4693L8994J6273j2968l4094k4085
118852H6079R823K9467J5259j1943l0419m7716p1050p7997m8506n961J0270K736Q061L2850L8155M50m6174n1584
118834a58200j1569L4401N1579L3666r184n9815r4187r3723o0577j0205M5006R0792J01495O1471n655n4369o6476
118817b05550o0121m9165k4372J5233M4115M4561L5324M1988N7393N6908L8145J8119J968j6457k9141j9010R054
118800d1008K8805K7982K1160K3762L4025M4822N3705N6643M9992M2145M4069M4802J8426l7096q8535j04290q4988
118783A34421n0394j7355r00j2970m1699n1117k2903J5296K3741Q76k1900k5521j8343j0980k496N394L646o036n919
118764a05159J4212M0703N4144N4304N4294N5732M5166J7736r448j8122j5692k5835n1575o4778m2764k181J9735R402
118746B9874j6021l9687n8726o5834m5278o14L5010L5186J4042O364K3713M6759N3635L8823Q905k3334m1714l8310
118728c7207k4131j8486k7746m1684m6860l4943m175L4055N4189L8512K019j8699n740K1172L0045J1087j8872l7453
118710a24917l4350j3347J3784L3610L6841K4303J0019J3853M2477P5793Q0906M5865n804l9724m4080l2005j7879
118693F5345l813J1118K0401J5320l728k6045m0641m5253m4201l8901k6267r580k899j4017k7508j9411J0670L6750
118675a42660L8227J9751l237k0443k2379j282L1303M7148L6386K1347J9468J5090q062k9491k2291m773j7554n2352
118657i5804n1017J1289Q2763R8553N8298J3258k969j314n527k1877m1030n1273m5976k7907p819O268J6260K7264
118639c8560L9000M7515M8677L6729Q417k6306m7239m4107k5821n442J2504K3573J7418o676k9017k9132r608J2156
118621a5919K7846L8344L6523J0665l2150o2695n8269k7244R68O592l118n683Q466K2072J1548j9257l8402k4964N140
118602a19537K4054K8102K9925K6505L190l1940m7760l3058j3965j3657j7006L186M0562O1433N0254K5111Q279L173
118584B6851M883J4219L0527M2606L8289J8826k628j4420j6589k0988l9271o4370o9235l7871N073J6000j1282l2854
118566a12234j1453L3793N4177L2595o137l5054m5830l3923L855M8645O4677M0702O937l620O495J4022J0299K245
118548G0191q078k1659k7607j2974J3124K4895J2526n378o132J1184K7595K4159j361l1252m1635k4774N083L1607
118530C9514N3043P0579P2618M8557J1917j0933j5091k1755m6607q0716j06136j13370r8324n9125n405M2197P0930
118513a48107Q5152R1685Q7791P0152M3554J3007k1124n2076o3523m8971k4790j2220j3657j7033j5676j1565n094
118496d2495M611J1824R327J567J889J3850K3219J3667j2392l2982k8899o051R750L965q208m618R249O405k0456
118477d6778m4718m2042k2997j4331j9954j8759L193L4059N0716M2323J8169l176j2091j4397j5506m707K8350O3269
118459a9377O0970J6839k3756k3438m449j4046n4323q1876p1860m4990k4923l192L6296Q2047J05204R2134N1124k686
118441G5698n3095q0313o9580k6079K4776N4657N1430K5382k663k1887l7291n2021n3743l1420Q91J4957K279j9753
118423a97775l5018m2157l9178j8073J6225M2535N1111N5690O4905O2029L1986q406k9519k6090j3457J722K1346
118406f2124L4223K3598l677k1570k1057j6430j1237J2583N7578Q8628P1293J8059k5436l2147j2481J1126K6290
118389A37219K8163J6835M315P897K6686L5873J5223k4334n3846o0410n4387m4622k4340R523L7173L3775K719k6143
118371F7319l4105l2822l8093m1276k3623J0499L5193L6627K6959K2983K8251M0594N8542P0672N6170J1555l5784
118354B59661n7989o1032o9198q2389p4272l5652M699J5544L618K440K7898N9162O2971K8115k4114n8136n3465k0427
118336g2566J2508K6138K1749P930j1550l1100l6272j6487J8693M6642N4136M5261L0130J5584N494k47p560j9475
118318H9008k6038j5058N657J1787m986k2622j9388o677j2149l4943m0328o375M0751N2181J0875n0449q3603o8321
118300a80678k3238J6628L0134K3780J9857L0344M3906M1559K1773K290k195N391J3826J6464J0002o988k4341k1211
118282A7303P386L3045K3525j2354l1795j3650J5797K2621Q669j993k301m267j1319j3391q546q362j8175k7887k6809
118263e2503j5666k015N613n93j9026l2240k3375Q08J7576J7686J0003j407k1108m0303l9037k1442k0267m6679o1656
118244c45631k6150L8459P3859O0335L4710L2598M5189M3143J8370j2073k8163k1302K251K4294L0082K4935K5548
118227B0454L3833L4268K0100M416k148o977j7948k6428k2552j5263k1010l9823n6233n8680m7347k9347j5179j1215
118209b57079p521J2725M0425L8126o819m6349k5514L6358O1266J4858m9205o4632l3365k354R132J9523L9358N5839
118191a65228N8492M6642J3937m0376q3061o6774Q302Q1750R8580O5888L0155K1350L7094O0447P0526N1198J1465
118174C00387j5464j4055j2636m3023q7665r8370o1637j2684J5704K6037L1663L0374J6484l704k3194m3446o0918
118157e6147o2416m5798k7297j5407L435L6573O0927N0304J6272j847J4809M4498N2848K8358q918k5331m325L3499
118139I4037M8177K5803m828j0914L386J0919L166m549k358K782L261k227j7217m3268o6679o9124n4272m5924n6305
118120a86134p2214p4573n4931j2327M4813Q9709R3429O0232K7589K0814K6501K1890Q620o33j0083l0901n3930n6856
118102a58985l5622q496R866K0030K3006J2622j1067l3783l9785k5723J087L0144N0604N5353M7966M0921M2510M8592
118084F9240M9149L8928J9733k140j7012j6163k752M528j0683l8002m4695j4207K7169L7754J3240p457L834K5210
118066A35674J7084k1359n4163o1274n9775o6945o8870m1770J1407O1298Q0331O1631K1174r130l200L1664N8141
118049I1918N0696K3683O739N458L034r230k2514k6416j7474L812K8681L8827K6996J2685J6456K3730P24n1650q7779
118030A18376p1929k0704K2348L6399L2901L0195L4552L7727K2269k0019o5540p1195k6209K2870K2719j9078m3688
118013D1994j8417K2836K6537j5220o3601q3554p4713n4831l1856j682L4352O1009O2090L9646J5946J3590L4113
117996H239N7822O3233M4206J0798k0379l5682l1368j6346n760p183j3504j2289j360Q382O536l326o207Q372L3827
117977H8011M9662L7845j117m6163p1789p0156n6459m8350m2483k1434J4329L6546K5044L041J4277O4092J06220
117960H1116R8441N2182J1008m354p390j1882j3541p104J385P450J6423L0119L8881L5880K7945K3455J9357Q343r612
117941C98102k9340m4848m6915k8616P56K1814L2263M9707P6555Q4852N6799J9691J1266K4767K3024k59j2502J620
117923F38736J5285M462j5870k1323j6888k0041k2653J776N7217J10752J19660O6433k5167j02188j22585r2757n5030
117906E19819l3242q991L8758R3905J23514J20504J02052P6979M0395l895l8952n4205n4490m9555m4490l6851j7050
117889G74205J8789N1041N0185J9227q37J3629L3759K5221M640J0820L8840M8768L1312J7139K0358J9652M305l672
117871A177381J2358L9189O1076P8628Q8178P5981M7182K8774K9803K9890J8267P798k338l4627q3160j00527o5156
117854A408697k0581j1755k0275m428L1118N4153O5574Q8207J13055J09388P8779N0964L3222J0590r835l918K0679
117837A993634K8540J3565P245K4219M4076N6019P6227J05659J13140Q2185M0757K4018L6848P0049J21618J80584
117821C018383K18322K19866K02523J85569J65473J39624J27716J43709J66796J67096J47543J38019J57233J96645
117807E394517K31727K37324K05699J59603J30973J19108R4231N2639L5065O7341J14177J24661J00053Q0263Q1817
117792G229198Q9673R8730J19267J41241J34309R3764N5696N3936Q4016J18715J39161J41678J31660J21142J21141
117777H873327J30810J43028J59455J87310K24251K63523L12670L88119M90015O00263P04118P91208Q35823Q07599
117763A4911519P14181O06070N19669M36086L17697J67601K6224q0477j60800k28893k86900l42974m21234n34941
117749A5642828o61554p61351q17023q43736q65279q93849r30776r69522r91158r70900r02158q08069p18268o38800
117735C870385n56237m66322l81492l08549k36415j55452p8023k9740k5113n6627j00730j30585j32484j16579j04285
117720I91752j00614q8718n6157j3607J9868L5929L1902M130l6931o0146m5033j1612K815r106k3028k3248j8346
117703E99850j5614p658O502J0194p032l0541l9063l0480j8310j3279j9199l7343o2695q1494q2310o6372m2258j6934
117685D5964L181J1403Q961O713J0496J1355p88j9262k6622j5994K223J3772J2934J895j3767k4922j9938N176L4402
117666D7182L6588m944o4778r0234n4888J0267N0846M6692J9914o110k9500m9015m9146k3099P665J6796N690m713
117648a34787o560j0168k0050k5144j6329P71J5721K5488L1462L2862K9924K8587L4733M4551M5971L1325O058j6803
117630I7612k8455k7435j4272Q084K6507K1518j1180m8817o2038m4625j4566Q600J6113P047r419j2069J2221M5952
117612b9222N7909M3265K4353J0303j4003m8243n8982k5767J9975L2145J0491o436R72J3796J0107q538k9557m4954
117594d2386m8313l3823n284K4389M4317M8731L4374P069j5595k2344k2542k8238l1993k0675o4J6736L3128N3075
117576i438N3801J3385l8341m1253J3872O6976O7002K9990j264j6706k7729k8801j0033R974K053k9374n0254m1932
117558c8072j8645l652p959k8532m9518m9153k0396J9667N0274O5109O1642L4496k774j3994J3802M1599K8667o361
117540G6200j4174R277K2936J2678J1000L3884M7144K0556k1820l6482k1226j0692k4462m5065m3537j1842K7465
117523C1840L9067J0633k8708l9321j8356M467J5512L0022N0786N1767K2131o314k710J7653K0654L908j2147k5757
117505A65127m9815p5152p3786l9373L361L0906L9549L2959J5468l79j084R819J7639J8896J9314J3365j0122m0711
117487G5981m9475k6452M806J7419Q884p347k0378k3996j5748k945J946j845k460N039J1967J3487J7176K6382L0114
117468F2555K0924J0966J6456L2021L3552P277l0548m5743j9252L0588O2839N4914K3135k822j5009k4394l4209l6586
117450A46664l0789k3154j1310Q389J9362m35l7085m5116p822L3975L3524l562l5284l9039k4639m348J9456L8223
117432C7010L5763J0243j8586l1189k7596k1290k1696k6020k3536n983K3831N2711O5005M8194k231p0934j18921
117415i5225j11156n4638O698M1432N6800O7166O2014K8008j5175l1392j5103M030L095j0577j9659j8260o173J9146
117397h8969N2688P4801O6579L1217m791j3396Q629L2897K4916j8884o6423q6479p8193n6531k5994J2323M1095M1302
117379e3213K2797J4872K5728L5997L4905L4786L9807K8380j3112n8416o7283l4173Q704L0791K6799N348k3780m5903
117361A3034m2687j0037L1237N2004M1127J0795k0942m4509n4235m0333J209N0248O8447L5683k3549o1073n2725
117344d6306j7432J0199J5181O216n321j9634m2139o9502q6518p7747m1452R213N6919Q7393Q8143N2899l334m2630
117326a25852l4206J1596N1039N3337L0729J7137K5282L5172K3580m524j9077K874N1720R2283R4060N4880n89m1729
117308C17712n3974m5931l6360l3675l0761j9953m134J1754K8478M0898L1841l942m0635n0930m6204n5137o7287
117291e8240m1377K1992O3669M6206P861K078K1101K3422N436o833j4595l6065n2002k5000K7132M1706P420j2197
117273B1714K3947P0651O5687J5501l1082n7366p8566r1850p6807l7182j255J7581K9535M0188M0721K5612j488l6896
117255f1355p3757r5658r1479o9487m0299J168N4750R0363P6371K8632O2J7028N0836N7894K7452j6187m0797k9641
117237a14104P451M1289N1707M7702M8038M9217L3007J985j8486j8123j7231l3711n4321n2978k4745J1119L2513
117220i671K8132j978m6852q6820j03025q8345n2086j6440j642n677l798K1074N3768O7630O3176O3699P3471O7812
117202B2428L3840l947j4949J96K1529M1108N9254O2945L6810p442l8686m5108m1389l4476j1272K5788L8693k768
117184A42554p1486j07214q7327m5321j6201N653L8345O7663N8614M517n7931q3253n4389R323O5282P2809K4359
117167c4003m4557q7224q6143n3844o720M0390O4515N2906L1766M1899P7258Q3057L1752l2771n1396k1430J6564
117150B2019L7630M2892L1144J117k6128k5354n941N23j0738j5766r140j4469l8074m8504k1371K1827M0294K1325
117132C286j4856m1040l8756m408M2310O6720N1929J7257o502j2180j6112l0648m8478n1478k8118J5195N6143P2767
117114C3031N9375K5234j5595m5489m5986j8274N297n842l7179m5043j8293O226k33j8338j5559O906K7634M2792
117096e9336N9490O6334M4684N018j8435j1315P390J8384K4710L4077L9721L1603J3393m434k0462l9348n6326n6711
117078G8437l6529j8013l1986p6964j05561p0792J3037P7508P7772M0872J8886J7629N360k0999k4704O725K9337L581
117060a6404m0718l9296J6864O7105O3052K9336K0456M1366M4959L780m9155o4377l9229j5976k4033m3850l3027
117043g9147K1066Q1329R4725M7593j6039m0518k1102l043j4523k7314m358L8391N3214L1175R617R968J2212J779
117025A95025k649Q936Q534k2804n0599l2534J1689K2365j6661o1335p4338o5027n3411l5551n127K1738K7930K1390
117007a02429J8214J6761R923Q194K5389M8848M8169J3852l0990n9171o4225n4209l5578j0932J4904L3094L3841
116990h6345J2899j8905l5520j6718K7402O2332O4386M1924J6899k847k0799l0034j4177K6011O1958O3543L0121
116973A82130j0792l0685k1341L900K2822K2076P410o970j9119l8089n8865n6784k1149K0682L2932J4322j1205l6000
116955d725o9601j00640r5037m4647J2505L9048M2177N1609P3696Q9191Q2012N0227J919l9891m2574R99N1237O0099
116937A57604K6337q684j5716n309j949j3198k9372l7799l2727k1012j7262k4413k5986j0720M690k575k3343k4233
116919a05667O702M5142O4572O3843N4434L9743J7853p084k5213k8013j4915R49Q2j9119l1852j7881R288K3987K6587
116900A03438L2446L3705R733k7168l8774k0155q788k0493k0460J6821N8866O0913K9591L648m595r543j3073o868
116882A79244l102k1881n1847o0234m1645k3057k0117k1940k1540k7193l6889l3783j6690n605o596q34J8732K9471
116864a65506J4767r836k5555l8808n7353o3274l9704m960J2911K0704M2564O7888O0221K0937k69K3952N4819M3332
116846d3170L523p560K7433O1517M7469l049m0079l6538r339J2350J9956K3637L1147L7768L3650J5198j0189k7024
116828A36700k1089P355L6957L8830N782l3273l8530k866L8523M8187K6544J572j1345j9547k6017j8100O079K1429
116810A97191N663k8070m9664n3709n7032n8503l3528K0418O0499M4711j1646m9340l2265J7256N0479M2538N300
116793G0298l5539o2907p0372n3429q827N4247J08152J23830R8986O1912L9810K8957N932l4701o6263n7653q449
116776A93984M7426O9837M3950r965n4548o6751n4777m3095m2438m1186k7688j0555o334j1860m274K5837N3674M5847
116758A07084L094l6595m0217j3704J1635J5641L074r973r755J0603M4637O8417N6063O256n2849q8506q8340o1434
116740g4869k4834O859K6572L4956L2961J6175j5130m2873m3189j5907J1811J8127R715L988K797k212r382r969o089
116721h0493q765j8441k1304p126J8814M2540N2750M6429L0584J7567J3160J2532J2585J9561L4385L9801J8586j9636
116703B03529m7364n4049n3567n4360m2451n404M0851O4268N1571K0667l05KR313P340j2877l7918m6586k7362J4489
116684B9787N8729P7202N2068k555m6272n1885l1655j2555J802K4173M9102N4338L6103J4710J450j1526k2123j2202
116666B08691J4509K1077j1498m8983m9701k3346q797j0169K363L2935M5539J8583k2238m1125l3908j6230M259K3160
116648A05121K7709J4418M662J7885L7230K6727j8289o0342o4175l5356p875n702k4691m4514n0085m2907l4643k9384
116630a84211j6114J4743N0797O5746M9908K0955n17j3424k5306l2054k4974j1311q394j7522k1787j2714K95J3618
116612a52266M0107Q0314J02733P8610K6582n138Q14J5372J0513o366j6394k1215l1644m2520m0541k6223r247Q834
116594A2325K8637L7826K2539r892l7666n0355n0881l7860r020J9363K2596L005q276M853J8881M914k9239n0020
116576a08270m2503k5727k4439l7874m0565j1860L5875O2593M1522q500m3460m3657k5269m198K3832N6049O4124
116559a32327K9277j9962l4074j487M3207O6605O6352N1902K3128j7169m6618l8734O237N5303O9715L8435j1866
116542A47924m0616l1351n157O628k452j3687j2687o464j0209k6861m3069m0901j4708J9118L4064K2915R265J8668
116524A0420M3884N3637L3109r98k6300l8088m1977l8933k7172j0395L047N711l483j3530p359J3872K0588j0223
116506c4190n4523o3807l1321m475j8963n0818n4813k4633J2083L7971N3821N6156M1035K4681K7800L9488K7155
116489a7353j3513m7607m8370k8752j3466m192R693K5050L0850K8126K3647J1887j5752m6497n2370k5801P287J9011
116471a58122J2291J0241K1285L2039L4802M1670N8791O2444K5132l7769p4707o0221k6182j3916j6988O13M1804
116454d6793O6595M8095Q884j0803j183J4756J3385p981l3222m1848k7682p728l593j1947p772J7670L9899L4043Q651
116435E1426r825j3819j6076k2544k6417k7430l5129m8923n3794m2456k4607n080K8905Q1545J22732J13946O0050
116418A32504J2320R573L2863L3988k040m2753n3117l3048m333K0261L9745M8538L7134R737j2243j0015J3345L4592
116400B67051K9862l964m4513o5609o6023o7681q1083q7233o6447l1137r332l667Q959L7719O2167O1697M0192J3330
116382e712j0675k7033k6248l811K8491M9210M2317P533l4030m7938j7871K9448M8760K8382j473j4122j4405j4329
116364A6494j0754l866j0729l7463n9803n6279m1516l9861m3568k8420K368K4050L2313M4071N8150N0760J6410j7081
116346a04724k4099q001J4948L4541M1624K8805P992N752K7836M7054L9521J4972l682j3295k4287l4703l1860j4493
116328C901M225J4174J6000J3120O785k119j4741l5168o1005p6036o3122k5815J1774L0250L3500L6580M0326K9772
116310c7599J566j9256n452L2937N4927L9675J1252J047O450O744R46J114J454j0810k0080J694M0344M3628m418
116291A46163n2443m9932j3370N841q225l3531n5837p4316p2636k9980L5927P5778O9101M6456L9428L8469J8672
116274H5565j7206m5625n7085o0221n8575m5765k3035k926Q888K0962L7581M3870K2646j6037l6574j7383K0093L5812
116256a05015K1328O524J1654J6126n595l5252k9844J4031M8305L5212p527l8997m6943m3725l1035j581L1268L8513
116238a22553J4228j6436l3416m1104m3020k4165K2615P2505R3667Q3915O1958L5064J956k0210m844M2409P8228
116221B00797O9830K9935o065j9127j1936N152J6960O939k4342n3358o0432n2410m5453l8447k1300K219K1182L7910
116203E8054N8370O8322M5543l590m3870n2404m0703l2106l5808m7232n5851m7709j7135J9394L6556K9747J5622N153
116185c9647k075J210K4316M8777L8356o798l8639k4969N430Q468j1463j7822k626P943r93j9175l9931o6936q8784
116166b25358p9636l5723J3506M1146M9203M9869M0996J5088j9902m3040m0164j6571N192J668k6692m7408k6323
116149c44149L0739P8833Q0535M2444L680j475L0912P2540Q3309M6273j2766m9547m6530k3209l422R638K1530K8485
116131D7820K2582L555k3282n0492o4101n0305j6882N814j100k0488k2868m795J3223K0033K4232L1809L4008K4518
116113b6719J2483P139J377j4641l0082k2337Q010K9079J6492j2589k2956j2291j3155l9579n9570l9666M445K9805
116095a84755K6211K0433K2913Q871l3292o7900n3977l347L2041K4375l184j3222M003L0190M4178L9426K5492J8208
116077f3336K3934L2576L1843K6146L0617M5647N0420K8469j0452m3347o1124p0626p3908o1843l3381p832n453k0336
116059a81986k4893k786L1437M8767L5574M367j9105j6320J0584M1377N7442N9786O0791N8776L5908j1071n3987
116042A34661o3227m4329k6194k0602j5967q005r594k3773l1893k2000r365j2513k4976k9743k9393l9352n7236o1868
116024c95369m3987j8567k131O100J4301K3827L3761M8251O7954Q1281P5373N2148K3680n204l8053o9973q2201o0937
116006b89746j5694K7803M9826M7388K8549N107j0126q505O992K2770K5946J4599j293p451J861J4651J1568p383
115988h3138j5852M745L2518K9128n685l1502k4953r075q858q687J6715N2011N9251L5019J1963O515K656p660m694
115969E0417K3644N4440N6153K4558k0258n5545o3916l9040K464K9687L0294K1538K0377K0804J2257J80q521k2357
115951A37176m6614o1963m5728q261J4282L824j8487j7467J7825O0631O8879K7658k8680m8564k0541J6902K6532
115934G7404J0852j0578l4462o1275p1620m6884l648K1724J9319J2395K0873M0681N7757O1135M2454K460m0391o3324
115916C4872o1342m5014k4025p911j1121l4561n0841l3993J567J8865J0801M645J5535K8678L2288L4550L7123K3445
115898b6439j0432l9685m3013k9399j6053o80K5500N4550P0875P0877N8676L5760R014n884n004o957k7117n2335
115880F2254n6449l1119J0590M8547O1659L6464j2925m7258m2787j8055m058k432O767K9469N2667O3904N3431J0718
115862B21387n3158r1572o6403l684K9704Q425k5776k8678r188l148k0060l8745l7845j0634L5164P3240O9411J8962
115844F7402l5895m7275j5708J5433J4180j1162l4444m0419k6858J672L1428M3645L2580J3138L200L891K940q934
115826H814l0946n4887o7527n7077k6997J151R473N469R556K2651K3490L648j3080j932K3801K5910q626n0612o5821
115807b43542n0796k2155J2623N4843R2780J02291P4417K8860p191k3672k3403m478L5467P7598Q4758M1405j8333
115790B11472m2707k3970p594k9718o5562o3903k2031O813j3134n0778n3869k2430m482k3866m6017k8133K0044M7892
115772b11973K7794j4654l7049k9086j3793j0580j4498j2455l742M836J3091K3296K7964J7706J111P04K3421M7594
115754a60313M7835K4424R1o046N741K0604K3064J0467l124j224J4874K9028L5857M8956P3931Q7486O1644L579m5779
115735B71095n3725k5355P309J4648j0601m9999p3412o4900l6504j1701J101J0329K1257K6657J7438p109l9283o4907
115717f7662o8134m5372j3372O375R396N841L127M908K0099N1808P9359P5299M4860K4978L5065N0432L7732k604
115699B52135m5123p3466q6712q4923o9728n2472m3052l4896j6917N379J8031K3219L5422N2994N3651K4676j6868
115682e8650m1921l8455j8029j303o78j0870j4580k668J3169J5965Q061P116J8880L1007L7700N1583P8815R7402
115664A72544P8287K1811m2875r0656j15654j15135q1327k1448L0105L9903J2781j5927k5683k9538m0799m2449j1685
115647b77745L5992N7090L8986K1459M3113Q6025R7171N5493p054m9790o4828o8123o9195o3712m6755k1592J807
115630b31658J2069M958r522j4432m168R780J4046P849M6k69J2687L7230N8493N7698L5348J5555J7607L2437L9071
115611I4825L4670L1659L0902J8490r342l6866n0450n3510n2123m1308j8473J808L348o842o540R360K0555J0038
115593a9799j2472k4651k0235j2498j3387k0470k5167k3924j6621j160K2622M6102N6605N0975L9722L4501L3699
115576I3842K3463p193n2895r2106j00593o9308j3797L4599N1782L8043J2457q020j9990k5341k0452k055J8839K0565
115558a18160m964l7483m6745k4438J0040L5018M6376M8043L6167O890k6397m0828l1458j7059j3982j7314j5342r215
115540b20851n376J326J9306L8591L6162O485k7831m2098l4426j7441L033K8292N2054O0168M7077K2925N77j7336
115522d9363l3245m2356l5508j5390m38m274j5827j1095J5035M1293M8315L9698K4595l938n1075r0101q0594k2656
115504b86924L2720M0329Q841k0314k2036J371L7603O6878O0705R609n0727o9496l9546j705J1476R086J2451K1972
115486a77707K8881L5015M0239K9697k515l1190k6510N099K9005K4996Q22k9175n3340n4385k1391K5293M7640L7421
115468i2105K6373L8140N4045M3251P067k7122m1203l5390j4961R290J6741k454k7190k9240j3835j0802k5955l1205
115450a56555j0378J5015K1298J7256K0675K2512N294j4875M99N7067J11599J19490P8368J8175l1058n1709m0272
115433A82401j4784p190k9480n4859m9760j9013p26j7472n0506o6201n3247k7345j0407j2154k3725k3303L842M4288
115415b29641O3602M3196L761j8640j5477j1574k6816m5652l5265J0481N7045O4757L3244J810M215L2100N1204M6671
115397B9021L6351L7688L9548K0186j7816m8338n5249m8592m4366m2534l2846j2670J0551K9934M4625N6712O6850
115380F9055P0537N7292K0557k7370n9068n9548m3538l4602l3139k0905M501J9879R574q496n710J8036L6287L4071
115362D7413K4220K1334J8316K482j6518j3551J8223N5617P0778N6258K0577k6440p1228r0046o5551j1927L2905
115345G2862M7236M5000M6778M5936K1949j9230m2072k6049L743M363l4243p8567q8322n3896P40M1851N0490L1218
115327F9787J506k7490n7565q9280j08155r5226n0547K952M0033M9987L4827M569k0906j9539J0725M3703M9989K7077
115309a33553l030k0005j8154j83K4449L5493J6076k1127l8068j5114K0724K7176o41k7530k6761j0829o798j8718
115291b16593k9039k6294j2965J0447M8980R4580J18657R5788L0962m3040r0784r3573n5316j694L2648L1663J3907
115274i1666R805K3438L0950J8354K158K103R827K998j7758k7047j0947J2241J4640q461l6225m6649l6405j8650o151
115255a73445J261J1639K5028K9967K0294P180M284P002R09j2123j4097k65J0445L466r793j2738j1861k4198m4104
115236a81149m6104k2424L963J2591J3716K8227N1028N4790K9391q75p637N962J2434j946j9189j2654K0419N4415
115218e042N9547K8089j8698m7146m0106j3530N0j2951l4914m3273l7447l0546k5989j8260r669p348n966P082K8279
115199b27838L8834L1639J8549Q421L64L287L3072P6569Q8568M9190l42r850J1545J5748r018k6408j4140N701R324
115180A03215N838J0244J3147J292j5173k0803k2686l5197n0358m9414l6036l2588m5755n8483n7631m9746m3857
115163c83991l3766o166L9570Q3579R6249O2827M662l1188j6107K8948N6998M5690J2333j5752k7307k2996n043K0052
115145i1408M0928N1898N5398M9012K2024k5753p0855q3934n8580j5874J6369K3844J1166m287o560L143N476j5974
115127i3967n3022p8110p1815m0593o481J5428K5995L2869L9560M6161N5615P0719Q2927P2559K9613k7259o2518
115110C7681n8545l3335j9766l1645n4278o4756n5309l6627k2910j7005j0352M752K6665M9391P0811Q9398R5087
115093c0743P3174K2048l7870p7497q0452n1341q410K8897M9061N0593L6960J2106j6123l3031k8199j1043m618j8603
115075a25091l6921l7791j7499J1911L7322M6120K5266k1414n8945m7427R641N9790N6274Q734l2022l2091l787J9894
115057a38036K3918J7706J3504J0874L495p752j4895j2831k924J1882K7913L6321K8098R144J225J7879M4711N4096
115039A24328L6389O403j7236k6484k0246k490J3661J5381Q715J3240L2105M3037K8584m56k4781m3520o2525o9501
115021E4604m8024j2421Jk2020m6228m0093j2014O517N018m34J231J526o754j2214r64J7897J7825j0705m1667m0496
115001a89415p762J7884P695j8193j5683K4659O5104P1457N4378M5051M6460L3739j962l6745m8431m6277n1282o0936
114983a10259n3445k2431J1921K9171L0594K8031K4262J6137Q998J2932K5380K9873J5663r424k9157l5341l0518
114966e7613k0086o713R351K6176L5258K4602o181l6910m4989l3224k6119l5561m6595m4197l4738k5756k922M7848
114948b78369J04421J22436Q6889K8523j3621k6267j6023P988L5157N2311N2119L4821J352m1539p1200o6369l8367
114931b5738k1190k3393j7329J1389L4980K7667J0733J9891M6796N1138K1357j4962l7166m8857m7695k0985J5482
114914a7882J5415l4721q1897o9130j1351K6890J7603m913l394J5576K6563K5358K1477J1831r990k8453j9756Q892
114896a11882K1552L560j6067p998J4397K0145J2127K0077M6593N5651K3130l0615p0812q4419p1968l2280K0641
114879a88168M8987L0362p702k0700l326J6443K8563M9307P8409Q4693M7776r768m5206l6583L739M1176M2661N179
114861A65842l7904n4153n0473n3412o0184m2895m15L3753M4121N3400P2529P0396K2880l8785o3576m4457j4513M209
114843F363J5073K1145J7601O527n468k0362l9124m6989l0431j002J9748L0257M0494M3784K5491n819k4234k0721
114825C2333n777J6379M6114O5354N2389K2590J7562M3558N5200J6247n3359j08411j27885j13461o7895n474L5263
114808g9273K4251j9189m4584k8791M577K3418K3660K1564K5036K3948N991k4090m5224m2787k6653j7162j5427l225
114790a93960K3975M2923L3804R955j258K972J784j4094k8702k5999j2598p474j7652l1134l0511j0139J8577L8168
114772b01363M1690L5701K6941J4457L07k286J4664L3734K5577j2994m8522m8068j7671Q677J3272J2266K6206M8704
114754b8708N6781M3546K3578P331j1278l5646n2029m6722k5029P30K9615N9914O9809L7364k0755n6818m5109o892
114736c18K3721L6499L7455K7018L231k7628n8405q6361r9751p7414j9739L6432N6088M7359M2188M7783M5183K9013
114718F2354J7073J8532K1068J5895J0314P662j31r657j685K3565L1017m665n5529p0306m0894j0197j2869l5242
114700c3695m3057k5886J800K7104M5145M7186K6071m198j4973O66J3426o021m7122p3087o7662m7408k8877q764
114682b39352J4996K6227J3271o181l694K3703N2945O4063N3876K8629J962o598P034J6435m231l7408m1308j4828
114664e0459o766m3672q2266o3653O502O5543P1406M0492J0670k701o548r359j3696j8166j8429j1986l329J796M220
114645a30401M930k228j7150k0205N213L8198L4910j4004o4325p0768l9286j0090n272j4086j8326r060J5437M5203
114627b71310N4768K7652j3445k5407j683J2573k1839q2619j08993p1802m4N9620Q8738R7628R8873R4474Q1998O0647
114609G9829L1555k54k4411l2513k8495k6277l4406m6546m9786l9105j9871K005K7018N6526Q2026Q4779N2053l751
114591A10376m7561n1946k5336j797j195j0236q209K284M191l895n799O501K4434M1719O1428P8166P3591M1995M165
114572B92876j7812k5291k8724k4780p216J3000K1905K7404M4235O0540M8194N749l7816o5300q7065j07065j05282
114555G552p1552l0239q605n54J4322L1570K8375J079k7895l8189k8730r910O270J2073J2512K1114L5539L0415o369
114536b1222m2373l2055K4191P7430Q6802N6037J2969k2387m2762m8133m5522m0933k7468L924M0873N6299M3013
114519G8683K2243J2127P665j093j2410k4469m2416o0657n7881k6013J2370L1595L2271K7342J7041q11j1228K49
114501D608J8455J3552j7889n0311o5624o7719n9380l1551J3473M8762M8746J8835j2997k8047l0822l4645m1508
114484b74062l8107j1661K9710N7087M8485J4885r997o487J2721K2479J4111j043j1152j8864l4296n4728n6717j7651
114466c35287N1300J03853J01950N7148J7615J5270L7677N2925M7975L4730K8187K9880L0884K3586R113m571j1749
114449B90486j5001j9255k1500j3673K832J4117J0627n13q535j8081m1657p3636q7864o9493l7426k2429l0501m2830
114431a84332m6681m5864l9224j3087L1908O5751O0941K8722M076J880P539N739k229p805k760J9451M9979N7621
114413h375K2430k5252l1212J1650N1282M6757J7526M479J3129K0796J5193j377k5626m4689l4410N014L1000Q068
114395G6383m1212o7440n9476m1292k1127R344L4323K5392l288l613K9961M3128L864m4004m3136l769J7012m382
114377i3332l6938m4336k2350J1063L7848M9766N1554N4667O0018N3849K9647L918k260J0562K3984K4568J2615m469
114359B20374j7761k1876k1586k6735l7311m4569m9046o0073p1075n6540p470M7359P1579N9304L0005J635j4968
114342A246j1394P587J9436Q635j3165k6742l1382l3959k8311q665R980J1057N395J3542K8024K3518m42j9093k4697
114323f9430l6990o5531r0331q9259o0937j2893M8072J03146J23283R9596N6103K0716j067j4803j8540r606M657
114306a3814J6485K6726L4445L1178J6407M579L850J387j5019l2018k4990P812L9401M0566N294m4131p2149o0721
114288c4712l1996k6843n2072o6852l6878J6968M8094M7779M7259O1310O5676L9636O61k1726k5871l0282l8583l5048
114270g3480j2750J2170J8989N576j0290p605K0010N7377P8232O8321L9888J9050J7387K0446P414k1589m3780l9881
114252A55485j6477K827O293O123J8291L7442M1062J7655j8161m1490m1517k6296r720m62o36p691j6114k0391j7153
114233F9070m779J4640L0720K9438R944q595p422P220J1966k293k1176l0705l3526l4661k9033j6431j3150l0111
114215e8884n0336m8810k6803m242J4874M1185O5884O1380K5446o283q305J905Q3l063J2782L0959J6517k4988m7368
114196h067k8350M25K292j3246r309K5070O2191P0027M3726M998j9325j8024r64J3836J6075L876k2501n3983o4855
114177C892l3301K4565O0518M5851L200k4501k3446j3351j4535k8503m5230n2955m2603j5988J1257K4772K5896K1507
114159g2955P703k0205m6726m6082j4762K4592N5025Q0470J01265R7714N7887P825j0773R274L3208K9822O076j1666
114141B87692j6012k3307m5117o8888p1026m3585m268J9222J4401n562j6864r791M757J3556J8481K9009M2290M2550
114123A67538K2816k632j3940p318O402J9443L2736M5001M7832L6631J8879N049l924j2790j8935j3177M018J6501
114105C50130J0803l868n486Q877J2910j7030o6447r3676p7108l7522q038L502R662J3461N089j2515j7526P37K1186
114086I7141J5838j2629l3950k7989l476K2237M4804O4386O8908M3444n737n1966p6234q1748p5346m9777M16N3972
114068g706P4678N1213R846j8462k9745l6743m0297k7421N949M4765O9203P0381N0902J7516k3615o6785j01736
114051D1943j10437p9291k1140K5998L5269J8448L029p576k6933m4367k6018L0758P5481O2812J2536j8975j5329
114034d3792j2596l4899n4688l5768Q743K8439j427n0100o5216k3612N1872J13995J26465Q8222L0308j2799l0526
114017H2621l4866l7644l8264l2615k2067r217N553J7389J7037O403L826J9946L5650K2627j5639m3886m0817k4479
113999h8442k0546k3849j1262J7924L8436L5545K3986K2987K7950J9803l994k0823q548K5888M9945L9697O269j8258
113981A12708j8426p632j947K053J3255K4072J9607J136j7363l1907m9222o6019o7216m8529k3891n155J0073K4352
113963a30051L0029K2152R634M829J1700K9162N1808O0644L2355k6028o7317n2453l052J7462k1986q3140j02932
113946b17184o1749K421L9107L2157L378j6935j4273Q716M0086O2679O2639M5470L5885M7738N9854L9858j0070n2127
113928A07650o0349m7293l5992k8664j8143j0059j2447j6035n885J5269L3280M4228N1678N0437L3940J2601K806K04
113910A17226j3400l6343m4815l0056j4523j8933l1619k6534L2K7164L7586L2626J9077n131m4026q6735j07427q8771
113892c14602m3311l567J1049J0025J2670K4321L7539M5195M2598K7258Q018L252J6737K7660K1150J4192K7376M3902
113874A1462K9439j2044l8652l1148j7298k3437l4834k4069P365L7833N5509N8955M6326K4560J1985J1266k222m2295
113856F8701q0841q2660n5738l4852k6851r235K0716L4423J6927r102j6505n116J1701K8653M2095M0665J8025j6286
113838e5280m7782o7386o7261m4090j2405O292J6542M6968J00470J31557R8605K1900l7672m7128k2551Q033L0534
113821E9346L4488J0676k8428m8963l1909L738K3923J3928j7318n2455p3497o6459l3278N627L0811M0873M2274L1787
113803e4836M254k7315l8702k5784j2883j9843l2784k2540J3389M5296N0098L7862K9147K1632p95l3348m9584l7793
113785a54529j4988L233K3129M8842O1737M7268K4033J6789J3931j2781n2397n9753k2462J6348J8278j114m593J4511
113767c4518L7676N4047N9764M4889J0973j5379j7320j9576m9443q0147n8427J2944O6556N5873J0491j1705M774
113750G1472L1429L9151J9689j8412n4115o5845n3916l9020k9241q194L0507O0149N4245K4625P71j4669m0649p5819
113732f7842r2519p5073m0100j2919r01N289J8701M8187R0371J25193J29306R7335M3847j2547n7494p8532p0633
113715D9669m6081k5616j6176o873J1363L2392M3545L9136K3480P538K201O885O426j0865l3511l7552j8042L025M670
113696C5614q333j5921j0287m186j3122l4723m9211m1873k1711r360o467Q171M4156P7294P8384N1708K3350R74k6453
113677G8004n1966m7986j1301J9051R157k4469l9014k1567Q76j98k7019o2369q4840p7273l7771J2727M5205M9124
113659b71629L7073K4038J3695O419O357J2457J3699N074J553K1121N4299O6321L7946o876k7012j2728O444K663
113641i086j7117k5952j1740J3983L3147L4316J5200j3325k8265j4675J3932K8143J7964K576M87L508q925l7432
113623c261n7419m7369j5836M420q967l9970m6249m048O2725J03791Q9096K9573l8710p7978o5075p644N1754O7096
113605d071L4179q122k7580l2353m4127n6677m4014k078M1668O2362O2405N5455M1931J3890k2773m5381l6926n581
113587a7793K1520K2591r55k8060l7268k3546J209K1686L0760K7889J2307j3204l2467k3451J4834N2719O1483M8953
113569A39207M5783N7713N3424P644o1516j10063j11348p3677k7786m546j1206k1547m589L1424M5343K1276r348
113552c3812k0232k9064n3543o3434k4011L4648M7235N589l1964k6166l33J1730J2117J4122J2646J954r411j9634
113534a71563l9273o1476n9687k9545J566K0014M0256N8177L9812j5283m9182k3556K1731L3275K4953L8405N8818
113517a12558L8038j7126m7830l0502r85R645P222j991k4384m3859k5039L0687P6315Q4041P7041P7222O4020J5153
113499A75110m4191o6763m0735K609K6079J5603j4163l1602j9920k475j5500n0961n6560o381N7582P5117L6379j9258
113481A9970n1812m6462r880L3578N2843L8273J2082j994o445j3871k0183j3592K664J7072K9099M1591M2645J7085
113463A42663k6421n8002n7681l3152q599l930k0253l8210l6417j5936L630J5131L2274N8137O8351M4853P073j5135
113445E8376k4424m2827o6065o4497k9331J2696L5525L7542K3236q882m5232n1104j0904M0297N1232J4781k8752
113428i8333m6704m7557n1733n1928k4023L0495P5488P8551M4542M137j9508k3603j5634m942r87o864j3410q163R817
113409a70359L0173M2553M0819K3782L466L420L0093N2174L2271k1531o1054n7726k9504k401K1130L8339K4667l1163
113391c0851r0943j01742n9631r009J6507K3184K8797L5679L9018L8144L0672J3257n444r958j865j14j0129j1592
113373a06020J1478M4560O0263M9475K2214r565l4582l9452k3157p576j3346k8999k6643q244r186m5568q3561q1723
113355c29632m5277j1687O116K8533O1076P3347M3360k255j6212J3954N8134Q1306O9944L0621j5209l8798k7822k607
113337b3108Q082M636J0744L2286M5101K7828j2169m9908o3298m2543p20K2876m545o4928j00536p8916k4622K2118
113319b91622N0438O6807O6537M4410J7326J0671K9658N9769Q3326Q2562M5986q778l8293k3616N72n760k8953k5314
113301A35726R133L2114J5195k6941o8374r5740r4675n1896J3090N1460M2463K1910K9916N1975M1612r642n6102
113284D1224n4516j4387J7893J3103j3949k9096j9982n441o407j9195k4268j2042J1289L6472N5193N5997L4418P781
113266G4087J403J4675J8029p209m1106n0692l2334j1751o042l637J2678L6520M4409K7348K221j1654j4591j5957
113248C6397j3514m36J3255P894j6503l9201m9408n4246n1793k6536J5286L8402K9109K2357M7592P6050O2428J7425
113230A14558r047n008n623k7405m5237m3509m1916n3719o0015m5046k0495M027L7079O9998O4491P146n5316p0412
113212a85449m5070k2233j4901k691J9844L1996K1543p78k1419l4196l2272j2035J6546M0456N8359O9298O0455K9096
113194b3451L123J0191L4932L8583J6078p84K876M699j2736l3087l5873k8535k9642l8505m0020k7706p463J2408
113176a54912K4476K4263J6564J0533M701r908k8185l0639j3231J421l886j4581p021J5773L0277K5451J1225O42J115
113157i5922J7240M3163N6294L9457Q612k840J0040J5305j1008n2116p4923p0137n2766l5948k2489j4376j2286q759
113139b63459K842J4975J6196J2274K0289M1002N3795M3234J6534r165k3017k0594l892J2991J4266M962N452J6456
113121d4859J2829j3584l0537j0014K4244K7074k217k1022p606J3534J6729J0351J2041J7960J7556J7821L0164M5604
113103A16068M3579J9736r336k5204k2325r014J28r51k73J6408L9641M3472K3497P273J5576L2705L0986Q010j8670
113084C11306l9772n6387o4378n8195m4629l3502j9122J0263M7036O6422N4782K1036j9675n8407q6327r1211o8344
113067a29104k9076P433L0781M6395O3924P6956O2490J2114m3275o1092l9330j7216j9421k8162k1224n447P248K5024
113049f0982M8974N0562J3341k6442k3889O659J4026j0551k6702j4279K924Q754J8255L4816L1869m59l2066l9859
113031e049l8432l8000j3925M4774R2241P7353J6610k9065l5744l1080l6450l9850k9343j4850p074l710n324k0129
113013a17047m3710n4623l9411o970K6417N0893O0198N2959M0440L6208L5426K1786k935j6884j0622n49k184j0726
112995A8666j7837k5829l1119j5246K6295O2530N9029K2984p118j1967q286j6220l3887m9844o0069o2008m7970j8100
112977b15996R871J7708R113M067J2669K4626K6073J8940J7838K8692L6173J9676j6755m0934l0370o291r603m0957
112959a35460m9705J064P7384J08385P0258R160k1168j7294j0066j3631j3017N534L2140M4244K9975k225l2465m6421
112941C6692m4927l6705k5155q784P909J6059J6996K2412L4256L7048J9038r983l2299m4248n3269o1422o3717n6383
112923b46482l6615k773L3827M7857K6815q816k8471k6898j8550n737K2060N8994P9850P2247N0717L2744K0666J2770
112905H4205J0083L633k1849n8257p1078m4824j1919j1966l6594m3795k1205l283j8639m6483m3432o65M4776N4986
112887b36306L3835J8116L1855N8886O4554L8751P979K814K1181L1195R357l0215m8929k6012J7305M1169L0752N067
112869G1354j6961l8650o2149o4691k6536K6280M0227M32m9339o2443l9807j1113R155K4626L3671K9113J4375j119
112851a23575j8368m2635o4177o3144l4707L907L1710L8924K6280K231j8911k6868k4911k2400k0053j1051N288K0231
112833c42229K5120J6796l651k8910m4745m1142k3531m950J1396L2449N8500P5976P1016M5940J9448J0566K0359
112816a01592K9565J9614l383j4064P1K2400K8364J1554j8507n1089p4431p2785l9841R422N1435P2280O5887K9839
112798c5261j9982m5626k3825K0158M0760L0282K1604L3218M2636K4044j4180m5050n6442n3033l9777k0556m623J11
112780a45542l070l831N166K4426M5375N1431L4487J2418J3779L9545N7995M6292J8137k817j7378l8042n6934n3458
112762B7979l0085j5257k5315m1664l4903j476L2573M0485K1348k942j4388j6400k0248k2479j1903K591n883m2009
112744a59976p0311n5609p931L2405M4161L8538L0686K1627P464j3102l9630o0865n0511K801O3478P8224M4294J7522
112726g6735L7744P5959P8402L7383j2316m8760p6669r2967p9172l7327j761K303r023m481J9730M1731M7537M3134
112708e5288L6825K7204J1335p045k1599k8429k4580q434J4484L0845L0068J5269L17n499q253k1099m3731n5224
112690a12834l4517J2422N3348O0623L6448N929q406k385J1268J3402o456l6921m9687k6338J8887M8849L8529j22
112672B2039k7251j0752M1340Q3516P5737K5795k0196l0812j8407j0333j1977j4796k2299m0982n5495m4209j8918
112655g8000j7338m7967p1438n1878l429L2596L7703K2456j358k8698m7460m1129q501L3847P0131R4722J03809R1196
112637H9264N6482J0096l1624n2268m0858j945L9945N6172L8916O428j8219k9785l9761n4647o0654l7817Q573M2214
112619a9488L4683K821j2656l864m604l4002n9696m0192J4734N4816N2703K8394J0307o71j7654l7889m4329l1567
112601a08154j5239j0511q944J0757M6029O0231K6046l1005n8591m4594k5830k4779j7936J2373L6188K4339O611
112584a23009K9687P3525O7364q316q7530j00554m8340K0490O7332P6108M4426n992l2500j5040J7111K4760R884K965
112566A2371J2802J8593Q378k490K620J6901K2260J5961J3835K7662M6216M4902J4710k5766n2968o5170p5489q4245
112548d8917p5363m1406K321L2662L7574K0471k693j1877j300J2561J4169J3285K6597M2354L2702K072r659J6982
112530F2535N1454N5910L3211J3192J0324J5170J4353J742k0295l8453l7501j9628j905R951K5746M3012M1048J5960
112512B75826l882L949K3541K4987J029l7865q2110j15801j14191p4183k8500n328N979K3562L2051Q618k7581l2470
112494a22369K497M1297N1195L0597m706l3374l2967l710J7465k094m0718m7005j1305K3252K2242l671k8439m0871
112476a82684l5875r605K1753K6432l605l8886m9574l6309j5658K090R494j546k6134m5768n1229n0145m5953k9653
112458e62855j243K1017K4125J6513J1739J2348J7342K7882L7622L4908K1883J3490J1628J576j8038k4815m394K7731
112440c31541M8846N4866N2021M2462L1076K7438K7759J4743j0118j5353K0235P3423J02778R5035O6840L3718k230
112423C31998m2146q4280j20991j32454r8657l1418K2825L1909J5976J6540M0230N6633M3422Q835k8008n6970p4856
112406a01412p9440o9129m1577K382M5741N8268K9650p662q904K9953O6325O0723J8535k2969l8879l8231m2582n2443
112388a91651m7744k4112r730k6332m7284k7347K7756N9681L6202n390j3697J1964L9015N2566N3977L4336q363m0772
112370a26925k6474J8797M3115K7205N33j0274j0277q629k53J3294J7113J0754J4224L2397M1120K5423N975P289
112352G4407K1256K4849J6724J0978N682j5128m8884o6452m5136O11K9736J5266k7982n9133n5485l3586j9381r231
112334a80889J9184O1378P9405N0623O8l2702m1055m4088m5275k7342J0749L8080K6346j3840m5240m5171k1593O921
112316b04441L0078M1823L4951J2859m305k615K235j5577n0211o5020m0671J122L2678N3950P2393P3806M3490J642
112298A8187j6601j0931j2283k9505l4741j1541J4214J0310j6844l3913k3727J886K4154L5946M1128M6518N4106
112281E6363N7156M7022K4797l88k4337m8369o5418n9813k8456Q562K7733K5329J3316m05j6709l2422l3965j1323
112263f1327K2523L4786N818m2242o3637m0401r11K0740K4446K7722L0519K3144J5171K4615M4592N1408M1095K6383
112245A84444L880l5934o7998n0847M105L1285P95l7683l1345L04Q436m664j064K0984K7017Q191r334j5016k4550
112226A1006l5873k2621J5814M1031L1345J2927J1615P691k8162p5942q1235k4962N0160Q6836O8523K2567j7844
112209G2876m3337o2237p5661p1142m4054j1857O383J5696L2191M9896M4469J1923k0513l0260k4033j5657j919K1832
112191a45404M0758L8215K3708K1237L5987N2078N7871N3260L5388n42m4986p8593r6043j06427j07027p9711k3646
112174c23877K8859M5377K9366J0037R072L0109O4962R0976P6788J7514m2918n2591j3942K1780K3553J3465K2183
112157E0713M3664N3560M7387L5866J9859m608k7856l6425l3606l0688k7224j8975j3669j6830j4314N787K5906K2476
112139H1023M451n694j7607n5825j01643j03831n5923j1679n705q620J2688L9780M5753M9210P5405R6622O8389O558
112121A13352k8612j8574l869j5007l5546m2238l8508l5036l2445l4284m5247m9083k3159J7219K8517N737l834K4613
112103b16004M8798K3882k5393m1659j8574J836K273R220L7635O3722O6478N9215O1216O7355O6393O4107O3469M2378
112085C76347j7433q9106j20908r8843o0469m0307l0652j2240L753n540k8074k4542J5401N4904N8081L1917O297n772
112067A2814r318p176k256q251l2998n6805n1133j6657J9406M1974N9029P2216O4626K9700j0026k9093k8575k4531
112049B2946k0853j1437k09L59j0680k0027k0327k1468l5427n5880o0892l7966k044J8509J5149R495K3239M6092
112031a61421M7310J6117k5013m9463n3877n0024m2058k3124J0098M8361P5787Q2405P0799M9379J9940k0162n9756
112014f4702p1182m0575P393L2845K4665L595j3195k6842l5878k7263K334L6448N8978O7222O0028L5745R875P945
111996F7436K5517K1732k4270p2175o4541O48O8337Q8584N5182q512p0824r8406p2728j2904L5092M2985K4291R872
111978A5316J1837J8548J5910M395l673k12P276M412r930k1232k1303k0765k9956l9054l2038j2309K844Q972J7688
111959h3274L3636M5260M2201K8989J7100J2376J2247P825j0213l8418n4738l8087M558M1011M6429K5080j076j5728
111941G5178j6920j0959l979J670M825J434j1104k4122k1411J73K1335K0148m134l3743n1402m9391k9650n712M276
111922a33488k219p490N94J0757R984P673J7674K9371K2050l79j5513j7159j5910j0094J1681L8915M4378K7452J9918
111903C8195L7431N5235M6394J7190j0707k7392k8201p032K2973K6318j2685o2420q0460o0992k6675N748K7386K5616
111885a4078Q17k0588k0119j9490m5148p4339n9047p2M7488M9840L3779L5230M7073M3217K5100J3896J4510J5995
111867G4064J6804K3337K9840K4007J0103M657R330Q808j525o196M726J7981J6167J053j4802k9024m6046n8829n2285
111848C2170k7064m975m199j9365l2890l7705m0327m6775n3129m7651j9023L0996P8463R0561N8354J0323j6317j1553
111830f0106R335L2454N2181N8068L7919k436l9067n3319m2984j2812K7501N6528N5116L1692J2814N172q464l0996
111812A28596m0543l1217l0628n3330o7381l9874P142K3963K643j8924j6298m958n854j5848j8545j822L7178Q3896
111794f1804J05815Q3693M0311J3579O455o543k8362l3632j7179q095k3411m4638n5841o8135q4620p6388k3938M3845
111776b38888Q4139R3917R8109J00429Q0457L3933j3253l2791j9121Q946J9410r069n9631q6235o5109k1090J3267
111759a2580M0692P4334R3554O5830L741m0568l9238j3953M153P562J799o983p178P697J8298k397m4842o7671n4965
111740B7285l6547l7991m2941k5198R426L6785M8434M9243L9614K2269J1219J2983J3041k93j4292j4035r423j6713
111722G2866k7589k1707R91K3988L8825M2851K6745p215k7834j0729J6810N104m5761q3705p9341o0187n5455m8420
111704b39763j2183L7460N9587M2963J3346m712p670j137O845K254k2993n2289n4297j6997L8156P7782Q3663N9263
111686I278K1235j1073k4297j5515R305L7565N2047M1323J4605k848J279R170l847l4301n2541l8520l050K8191M0927
111667G8933L8550L0366K0002M801j4449k5078j1167K4204N2576M6213P923l3943n7361o2848n9640m9569l0400o491
111649d7378J1477J5956R204J339R26O181Q521O156P140J4643J9221J5075J3136K1917K3818n874n5712p8468m5439
111630e8161J7360N9757N9797L1868l748l8427o5180p0517m4624N452N5813P8422N8546O148m9947q1715p6430l7234
111612a52820J8873O1896O3444K3719k2574l9243k4643o173l777j0976j0590L646K5242M5571N8841N9061L9501J760
111594A30758l4421m0659j1060K1024J4982k6556n8638n1623k4709q011K659K5384M6233L3164q654l5176k4777o678
111576e6758j3731l6842m6166l3679j2561O759J7625J1314o072o170K5091N6056M5442K563k2650q758J4308J8384
111558d5845J5452K4247L1270J4764j3383k2121o517J2334K6237M5122O1717M6415p351o0285p1966m9682k8868k0187
111540d8647o929J1027P376k5679n3111m0615l686J3738Q26r300P702L1952L1257R081j186J6787M1695M4134K2156
111521D8578p42n089N994J5310J0706o455k6916m2481m9566m8168m0259k8233j3429K754J5854J9928J4630P406N229
111502a14949P476J0588J4355J7400J2911p63j0788n318M681k909k6536l8259k3262j955Oj4444k6227k9234k5863
111483b53090q215K8872O4052O8221M5799K8922K8814K3131j064k3050k2650j0704m374L504K2965L3336M822n2547
111465b3256r2362q5890m8607j1610P925K838k9868p4139r2064n6664J7358Q7497J22709J19356Q6853L5232k0252
111448e4944n5903n2758j4020L4168O1525N4766K3222j1776l0076k0060J6008N8401P9152O4449K7369o274k1804
111431A51445k1905j6949j8277l3941n7175o2834l1927J9337N1199M5288K3066J4273K2816L2461L0386J2186k2463
111414A36986o1911p9680n8974j7531Q311L850j3166k0595j5371o911j244K729R834K4319M1624M6069K8088J910r756
111395A8581q724j8065l9635m0082K090N5284O8055L4231l909j5112j1252j3337j6122n898Q061N240j3040k6044
111377a9678k5732k5306l4337m2893l4775m952L6622O6623N7306K992o0816q5215o0406k0810O660L2005O6024Q5697
111359f0991O5733K5367Q167K2953L8070L1514J3154n414k9323n8738p7679p7576o8421n6354l5811j4373j4219l1285
111341c25226k5692K0534O6770P0049N1777O2328R5085R0954L1286k7001k9612L564J5053j0926m0178m4202k9398
111324b4835j2050O757L0677M9626M7391K5096N328O542J8528J4487j1053l0768k0876M042J0132r045k5729j7474
111306F6776O443K2128J8042l08j8826k3178j0677L432L309m411j53J6864K6403J9229R528Q603P162o597k9404n1732
111286F2633o5654n8307k1869K0563K7462o444l5497k3696Q322K3140K3999L4595M4468K3455j6363k2541K4242P6670
111268A19178P6516J8494n3210q9924p0412r680N0836P5568O4785M1921J4948k6907p7529j04470q7372m3757m134
111251a05149J8789K4582J1138j5682l4759l1064j4693n080o385r805q677j57J5174K4746J0750k1263l7795j8827
111233b04157J2576K2590J2302N426M907m970j9875j6234N344J3183n964k2180o934K3760L6025K8000K3488K8532
111215f4181K7400J8239J8405K8047K0539j4881m7139m2386r902J5680K3110K6556K9229J9546K907J824J6212J7100
111197H6305o287k6107k2772j9420l9744o0336m5191q479L199j6823k8030j0493O586k106j6717o474K4572M9505
111179a38812N4686M3471K2112R94n155N011J3522O181j1976l0974m6089m7027k2861J0581J6853j1056l5851l0332
111161b06722j3647p598O321M6894Q2004O8648K4301L591J3709J1074j7069k8145J886L3746K4082r506j6540J7965
111143C4994O2689Q0615N7173L000n0258o9217n1733l0165k9453l7794l3761k3292k6093l7291k9692O831M8928O6654
111125e7865N3613K6538L489j2430k8956m6423m9722k6717R361L0002K5170J2473R691J4585J8334K1831K7492K9192
111107E9658K3453J9746K6497L4869K8578M756k3031l6873k4974R510M3388M9232K5791K207K246J5055J2685j3216
111089B59577m5368o4378o5081n3261l7801k6314k1850k1853j8877j287L7452P9600Q5384L6962k6658m8569k6650
111072D1028j1542k6700l4638l429L6667L9644J3912J295O326o365n0772r6735j09185p9292j8949M6709Q4763Q1104
111054h6159N8423M3650K9476p80k6626j4591J8147J7209k5747n4530k9223K0779M6346L9753K0409k709k3418k4481
111036E928m332O517j3644m1811m4190k4471p342N279K5802M4688M1183K2761J7550K9768L4971J9679l859k3222
111018I1255l7027l8057j4641K3496M6408M0463K1584L579k1753n7566p7098n0218J3475O8757Q1523N7500K4258j749
111000A74189k3599m7211o6735o9296n0196j9569N224J2184K641r409q612O299K1494K7138L0399M0489N0077M7282
110982A22789L7779L2840K1718j3787n6419o0921j5698L7270O0624O3075N8730K6344m7735j15823j12899m3917K2348
110965A6318M3003L6355K6930Q491k1869l9057k7083r066j3204l1918l8934k8154j3013j736N948Q181M159k77k003
110946g6929n324q117K698L0599N8266O8719O3718M9498K0797k3958o4919p7966o2775l8438j8303m500n63j0858
110928i8355k6988k9168o942K6451M3505K7497r114l3282k3715Q192L5198M3317L3198O588k5162l0062J2619O9755
110910B3532Q0364L1970k4157m3433l3715j5800J4516N3919O4274K2604l1244m2981j7525J541N004J7618L7940L6412
110892A80839J3310L736J6021J4691k1114o6132r1399r6324q0987l0397M5922R5467P8676K0429k3346l0891k0434
110875H067j0499m327k291l386n29P148O505q901k3426k2757j8047k4129k7466m821L2837M6610K3386m000j267K3257
110855h036L4961K1701P717J8360M4338N0993J9997k8795o0572o0635l9002j2034N282j367l0876n3373l6709J0043
110837a18007M3490M1889K7308K2028J3539j5720m9775n9374m4385k6631j1500J2770M2143N3915M1154K5903K9164
110820B7911M4152M8238L1212M690j1555r562r33k039j0939q469J3315L6441M0384K8067J5979R056K62j2888k5631
110801B17691l3518l1294j3941Q724J0988j8174n4041o3834m5548k0597K77J9539L0378K0041n501k4499k7787k3977
110783e5073j9001j2408j0915k0332k4505R04M9643Q4431Q0929N1239K0696L757N277K0078K5989K915l4318m7971
110765A21335k9675j2628k0708l4532k4882O255L7677N8914O7297N5354K4150o294k0617k7799l8670m1082k1100N603
110747I8598J0856n093j5762r261m019k0566n3069p3195n6415p495L6482L8484K509l0558l3091j7144k297J4730
110729a26306L7382M3645J6640j6999j7360Q961J7822n402k5680j1522K5430N4749O2394M8790J7430j9058m1159
110712F9757m4818m5092m7400l5318j019L2086L6382J5829l998j0045o338O297L1468N8934O5639M1529K925k4537
110694A42281k8531j4642J678M422j2396l7176m9770m3789l4217l5809m0653l0278p627K125r916j6364Q598M4519
110676a57545M5856O155k8157j6448K9554P0313Q4038O9435K8214k6954o3650n9693l3377j7657j4854o458L814m251
110658i1665k2363j8085Q926J8219q030l3644k5002k140l18j0321J800L3177M6050K6974N411Q183K5836L2652J6871
110639A2531j6019m9698o0647l6008M203K1645N511j4467j0916O042J3389J5567L3308O1185O7373M0018O965l714
110621I6268j391j1530l2371l9260k6295j4525j4167p328J6714L3943J7983j6068k9689j5872n175j5868k8545k0548
110603a13724N28J3976J6895J9609K4289K6841L0518L9501M4412L0792R87k4543k8059j0588R611J1017j0523l0615
110585E0924j8057K4038N3427L8039l692k8587k2277o084p7m019j1528j8466j6273M21J6653R963j4744k5851q889
110566A4921J2357J1400m429j0934n083l899j2270j3910L090K7525L8982L2425K1242J6963J2254r721m8863q0556
110548A494q2421o0860l7867j7669J3489N3937P6729O3978L2665J1836P936P419J288j0006k6421m5085n3901m5537
110530a08996l1989k8176k7981j6830j753k457j3577o376K3669M1644K3849j681Q355N1774Q5392Q2186N5147K6056
110512A58256M24j9690k5171j7359j5791l0106l8776j7227K1371L6507J0858k9672m9875m1379j9427k312n256l7251
110494a21876q4357j05908p1012O57N4825O3818N2442N4381O4342N4065K2168n48L857J5884R474j1911k5337k0818
110476d5854m941J9703N6110R1411R4077M5430l3486r6320j11050q2199l8885p288O296J0924J4698J7062J6576J6876
110458c0860J7440P182j8805m1608l6708r457R550Q822J0027K6203L5286J9963Q589L8320Q9761J01736N3569p655
110440B81355l3817l2441l5045m0259k1361K3919O1627N8681J5071l7757o0545l7673L500J5755j3963m7804m7391
110423E1852k1609l823j908j296k636j8494l7909l3481p102Q340R61k834J3506K7568J8218L112Q247K5046K8252
110404E4010J7739J0863O794q924l1652m0210k8958j0832P746K7723L7570K4015K537L533K2899K1833j1512l5600
110386F9574j3000L4793N8366M5066K2271J0650N826k92r144k4050m3168m6057j4344L2866N1937K9483j194p376L872
110367B06079O466p708k9559n1026o2399m6585R42N4194P8386O5745L6500J2621M486J1760J8636l10m6983q2934
110349A68311p2758l5657k0260l2035k6818J5973N7256N6880L0566J6776J6328M581j4659j1169J9305M3322L6648
110332B52590J3315k24L635J6193K5452J8676r249m1462m9760k8283j870O311l4n540p258j1693k0709l2345m5274
110313H2471n1731l6850K264M4809O5439N9136L7705J0736j6785l4966l3869j8134m350k088o482j0588j5689k5461
110295D5567l6161l7971k5429m482J1404J3393O518O279K5259O1298R5081R9692O1829P51m1738m2044k0576j3858
110277B04812k6024k6771K310M0336N2739K7689j9584o1830p1575l7250J9124N5004N0935K8678J7182J9051K3845
110260B98671L2824M8782N8736N2244M3950N0724N6086K7042l6755r7212j20119j00634n1606N881M3036M5608L8681
110243C95939N9292R9373J07839N9503r698n1285n8327n1773m0813k3456o870N59O106J9419L2943L5190L1331L0395
110225F35667K5292R192n60J7215N0549O6445N6271M0199K7986Q744j4013j2310K2190N0596L0449k5969o2078m2673
110207H83192R674M3986L2141j1706n0518n6084k6644J8469N6442P2948O3986L6318P095p013o112n993j5243k0384
110189A024554l001L1416N2368L6318m394k9368r179M3672Q6187Q9613O7532N2507N1866M4010J9452J945J3392L6329
110171A605219L7018J6905J0127K7868L8719K0396K049K5705Q1615J15837R9454N8840L1324J9374L228k2801m5710
110154B125167n2768l8841n048L4715N5441M6444K9525L6517P2847J15943J42281J40818J08812N6299J1278j806
110138B877624J0625K4610L6095O0217R3738J10085J00733R0329R4782R4979P6114O5536R7194J55288J90364J85291
110122D363604J70339J72544J83485J85056J78342J73806J74165J80172J96106K17441K28979K27862K32891K55840
110108G140632K76958K68331K33815K05839K04182K16049K19343K08832J91131J66666J30275Q6327N1075L6538L8077
110093I674070M1736M0559M0563N3337Q5344J30146J66817J72338J46134J19694J28389J71089K10891K20969K15819
110078A1617895K28193K69844L30220M02282M88435N83966O75249P57568Q38007R13442R57196R36030Q37455O80650
110064B0516432N07567L61035K58655J82035R6798j4479j40865k58617l49887m12267m63097n31959o34844p55034
110050A8361473q61048r41721j010056j074650j124845j145890j132458j084745j007815r16915q24656p19848n81304
110037E935522m20366k86517k16386j94727j79424j47833j04611o2488l4295k9542l9733l8700j4558J1934J8526
110022D196802J5414K6065M9923P2590J00601J50598K06635K25991J96992J60537J59073J87679K12633K19292K20278
110007F401103K26282K30356K22942K09944K08691K26338K45232K36583J93350J42877J18094J21759J29652J22839
109993I036042J02891Q0006O2924N8417O3962O2197M0852J6810J9120M6998O9333P1493P5433J00421J30170J41016
109977A0178085J43110J66352K14679K60610K84348K97624L26590L87647M83918O10052P49842Q74026R49603R56648
109963A6883134Q99426Q01226O84687N56885M16537K70824J33948J0713j03764k06200k84860l44798m15714n20796
109949A8781248o49854p76343q88847r90827j081224j154158j210706j252028j265088j232921j156746j052395
109937F070111r29098p90072o50940n35412m48364l71112k89053k09469j47524j09107r2191r0388q9133p2635m1854
109922A203759j3663K747J3823K0774J0726j8282m2168m0888l0426m0856o9625q3069o4753l5637j8201n678J5713
109905H04296L3210K1849j4625m2917m3316l2010l1734l9121l6481k2379j0580n024L046J3278J2835Q24k566J7534
109887F26119M8722O6746O0843L4034o112m1562m5043j1552K0774R194l6717o5306n2349k8476k6247l2492j7935
109870E02641J0075J7803k619k3883k6141j9852j9966k2567j9145j4493j5177j3930j685J3557J4994j069k4664m8326
109852C05553o9415q0086p1809n0724l2390j8287N435L9171N7765M1069L826k0883j9192k238J6086K7060J8690j6319
109834A33312o1698q7651q4511o8173m9884k4549M319J6494P948N437K4436L5643N692m3532n3696o157N3768P3277
109816a19525M5536J639k4847j7434J5032L9311K7552n144j4163J4773M4352L9187J5205J1561L1404L9855J4526
109799A58820k7689n5489n5822l7534j5013N278K4186L7229K8730q697n0349n6294j9548K3693M3153M9008N8318
109782A01980N4327J3309m4847p3037n9977l9350l4076k9134r732R345J1721Q497J5608K2849J1506r935j4009N965
109764e8990K6702K7062J1769k175r262j5346j9264p915K3024N0419M1540m756n0006o0996m7787l9270l6182j7402
109746a88835J5105L4281L4206M0376O0264N9985J4867m5320p1193n3322j8337J5029M2351N0157K6154q272j1256
109729c760K5890O3520N9933J4669l7163n6107k4815L5251P2912N5178P951j3016P783L0652J8785j8632n0770o2530
109711A25731n2048j9001K2421M0314J9148j7055l5834l6140l6671l9473l1005j1408J869k001j7397l2617l4965
109694a56132j2891K8470N9351N1843J2315k7198m5241m5054m1288m9089p5757j03347r1549k3987N7478R4389Q1268
109677b86419O0826N5484M6002K2809J1536K6789M0204K4228k426n740J0324J6315P806P953K6019M4442M5927K8110
109659A80189p023n3689r1618r7958p4087m3076j8751N469L4886N8640O1987M1371N188k8980l9016j5319K4369M9391
109641h027M6459K4820m479l6011n6589m7066q337K9315L5900J4127o442l047J9089L7142L7105K6381J7962Q614
109623A26916j2049l1025j6527L1609O2284L3815k3730m4735j7110Q479q93j8893j4052k55m079j5597p507J7471
109605G4122L2719K9335K1965K0518K1887K4677K9579K8715J4226o050j8297k3149l0079l7016l2485j4243Q688K8297
109587A73409M0227M1648L7393L7147L5908J4776k3237m1089j7411J2636P17m6396q1889r0463r5991r9070o3087
109570a64772J8082Q6120Q4558K8814k0685l2156j9486l893Q907K0044L1067M4264N4735M9708K9286J5810K4646
109553B55049L6671K1090k1041n7505o6002n3825l6047j4409J4432M2272N0531K6358k2703o7646p6257l9804J8972
109536A0136O6478Q2295O3687K1066k1641l5920j5177J2850J5056q380k7453k1878k795N969m113k0751k5404j0752
109518H3273J1716K2095J3935J739O32M531m909l0464n2393n1155k9279p845m846j6808k1167j564K8420L7281J5792
109499a016r558j3858p306j1278j6178M495M1172M6475j27n6317o8721l9939j5644j6705j7334O664L8210M4281K3249
109480f9435N905J4605L9670N8383O2449N8947N3631M3907K6087L094j4085j0904J7636N3100O2849L5232k475j7143
109462D21453j4204k6794o2545q9951q6775p2993p5003p9850n4171K205N0408N8387L0305q715l6433m1858l0096
109445a16630k1606k9346l5458r754M5388Q8306Q3394L7094j6938n0599n1096j8062L1498O6052O4670L7889J4963
109428A19765J3414K6597L5488K6637L629j4258j0515P396J2873q179l7820m5820k4579K239L896k7404o7335p9075
109410f3051m7368N495M2114M6911L3853K1965J7890K3247M0632O2690O8844M6037O166k6515l9952l9764l7554m1299
109392A20341n0572n3569l5676J02K6582J6506k7027p0205p9069m9408q429J2935J1145R793K5221M3468M4295L5777
109374b7790M0115N0500L5559o621l3598j6474J6541K0583m440k3188j9989j1742j3279k0923k9376l7615l6404j4416
109356a32557J9278L9506L5895K2040J2339Q467J0841K2738L6779L5458J3822j1784k4261k3013j5392k918J6959
109339F4197M2698O5781P1607M7932K386l4684l9648k2837j0291o264K487J0734m422m1318o4424n1843k6016j9037
109321a2962k9540l4580k6044j2184M134K5036M2123M1860K3957J29k0686l3151k9696j0498O125J863j4017j2405
109303i0536J7298N0847N7591L5797J1840Q288K0672K8449K3946K0138K6163K7940Q216k1545l0413r297J7989K8865
109285B32248K5334J6587J970j6598k7452k8876l4134m1635k6339J6643M7577L4366O182J2607M3878M2111q504n4526
109267B41439n0948k0244p376j2890p800P660K281l2631o2959n4423j3574K5997M4417M7851M6689L9583K5709J8978
109249B37759L2925N5241N7472L4480J3126J1040R309j4554m7427o2264o2760p1602q3414o9278k8260O351J9837
109232C7981L4674O1615P2668M7515J1789k561o663k8070n6389n7067k8968p185q575j0805P056L2849M2764L3704
109214A76332K1291J7834K1586K1443R126r122j7435j3784j8127m3091o7913o3343l4906j4141q793O390M0903O1736
109196H5986L6169j8206m9430k8593K5675P2602Q2713N1452j301m1918m6195j8897J3758L2406L9600M4964M4181
109179C24966K3764j2821l6706k3869J1074K8731J6251N634K7536O3196O5437K1071l1629m9637k9162J621J5918P536
109161D28911q566q228J6967M3298L8873P798j0056P123L1322K4166r953l3921l0804k0520k4495l6781l7409j9333
109143C58392O620K5794L2104K9369K3320J3716j015j1567k570K2681L5775J6760j6045l0044k5233l0569n2313n6840
109125C38335k0174L0183M7432K5022k892j3617j8222k7722k6308L808M8955P7060P6131O0635M4350K7496J1816P534
109107F89822J7122K7482K7251J8936O249j3850l4307l1784J399L3123K6007j0965l3799k3749m804K093P302K1791
109089G25319L1309K3428J3136J4458R948j8691m7150l4502J4592N2500N3963M1339L8368L7187K7197K1461K8468
109072A032330K5072j0131n3369o0199k6892M923N450j1548k0834k0474j8822j0108J3443L8148M2915L2047K9136
109055I91087L6601K7964q044m0076l3468j225J3744K214K060M0309R0256J03933O7901Q648m0804n9411l9333L742
109037A166098K9694J2244k2947k5134J4923N2647N0047K0486M58K121J2832K1753K3829J0053k2306n4380n9949
109020A232469l4062N031L7985N5490N3858L6661J9275J6669K6125L4546M1468N9732R0915J14396J07589O9346K0075
109003A987568j4030j5688J4062N5046Q1762Q2551O4306M1254K5412K4810L9264N5158N4645L6239J9943K5444M8268
108986B626014O3168N1742K4406J2426L5052P5219R4560P5498M0636K4914L7947O3489Q5691R9476J01156Q9392P6462
108969C677248P9602R6354J04508R1207O6556M4437K8632K4197L9832O5901P2834N2159M0045P2738J30641J57397
108953D844288J30484Q2856N3190M5139M4132M5255M7298M1209K5448J8594L6317O5222P8421P0505N9232N7574O2783
108936E807947P1117Q4414J00141J11643J22151J43359J75221K01502K11502K12346K12585K08167J94455J77564
108922H034114J60735J34121R6845P6909J03126J60101J97359J87696J52898J23983J01285P1263M2373L8213O2410
108907I743431R3027J11237J17745J19667J16851J05793Q7455O8979O3597Q4174J26238J62916J71481J61160J58133
108892A1491884J67507J72431J69917J79357K07827K34574K44031K48257K57701K56135K32361K15347K41930L00623
108878A4619882L44552L56837L66034L92726M17656M16843L98772L88206L93800M07885M21259M25313M17209M15052
108864B0182026M48223N19033N95373O57434P26711Q24183R23113R77944R87630R95814J033816J095939J167203
108851C1134442J239566J297480J323374J329349J353072J406621J454669J460103J428985J391760J359652J321350
108839D7500423J268847J205178J134994J064961J005743R57907R03505Q26764P36640O55748N95261N54104N32560
108826E8942635N29660N35387N43647N66238O16056O83961P52660Q25980R19150J024065J114335J189686J286743
108813F9530203J434556J624178J836838K078267K363257K684649L027342L407274L863136M390772M893956N215586
108801A06350014N229726M915712M354854L661973K919935K169119J434296P36455P9533n51205j165686j755689
108789A28379037k313382k851545l393837l950758m511778n053515n550243n986859o368380o703443o966557p088612
108777F7640128p002250o696005o218609n641416n026348m413480l816055l231104k672338k187072j820853j568991
108765A7345607j384182j229506j099575r90026q80521p65522o76508o45762o56341o51071n92127m96997m13489
108752F863980l70396l57780l49133l33869l22458l21605l16773k90384k50038k21385k12966k06181j85095j58901
108738B967016j45221j45448j47756j43422j30300j11209r7961j03740j21524j26390j12734j09186j34143j55071
108724A182911j25559n5074n082j2476n1047p8926r0538j01129j07429r3938o5547m5140m0419l4462j1837K0849
108708B85157M4062M5619K9893J3061R441J8412K6776K6168K1680J9242J3962o33j9744l3138l5826k3086J3928P0427
108690E25401J13232J06214N2688n339l4296l9732m5346n8751o8898o5497m8717k6024r106r603k9631n7752p7363
108673B21480p6487n0903p530L3184M9985M1647K5352J0307j1761m0159m6890n965O6119J20919J29580J06884Q2986
108656F48748O9950O3515O2750P4435J01759J35343J54235J37231Q1815J3629l1854m0373k5037l406J7262K9656
108640A489658K1316o790l1269l3452k6087l4597n9456p9101q6086r3918j05049j01285p9508p0216r6609j33126
108624D74425j33144q8843l5166R07K3418L7720L2534O291j7473k2469k5376m5631o8425o5465l8040q928J6987M7834
108606I1156O7131M5659j646j5444K9472Q2484Q4003M4218J8105K3027K4955L42l0174l6803j8126N776J4350n774
108588D22711n0968r0778q9894m9286o493J1649J4076J5344R154r346k0453p161J0860J671k8323l9380j4792J6034
108570I4625J8486o118l1091l7252k1495J2153N1424P2740N8145J7447j8596l0259k4546j6204n546J4262L5815M0161
108552B24151K2570M14j1996k2379m1137n5164m2853j2430q40k5850n7967n3290k576O3517J05984J01874N1310j8862
108534B24476o4221n7473j7104J3354J5465R820J8480L3349L2536J3128p918j8178j9929j7686r088P997K7340L7845
108516B22193L1594P112k9768o4325p6846n6184j2545K6352L6137J5272j5309l1455k5312p189R529K1661L1472L2683
108498A15072J2999k2543m1807j6733L6203O5454M1736j0101m7078n9175o6033p5852p3953n1220k0567O70Q304P221
108480a97403M419Q812K2911L2333J9387j1238l7458n0567n8994o0009l6890O151L6622L8815L8514O0238Q5543Q2306
108462a6508N4511L0214J5514l686k2663j7402J6026N1583O5652N5718K8421n260k4803j9149j2247l9519r3334
108445F3068j21656r1883l0673J2073J7541M600J407K2215N6998P5759N7083J5416j7137l4275n4713p7798p6157
108428a78132m4508j8363k0237j9296K2298Q4156J05661O2262n166l6275p460N3787R3663P5263J1145n0440p7863
108411E0495q2005q3301p7382n4268l0415l0177m4627l9251j513M3626O6588O1472M0575J7830k58j8148m2864o4284
108393b87907n5807q988M5619P0810O3855M6647L1031J9296K2683M5766O3534N0977K8068L4014N9545N2234k995
108376B78382n6250o3628m2613l1402l1729k5173j5775j8749k6253j9620l465K886k509q238j4864k7619l2481r587
108358a48687L3324O7645Q0618P9502O3862K5093k3907m8941l4902m792R952O21k1256l7429k9492N994M1565L9999
108340I8769J368l1755k7107M52J8253J9434J7581J6443R105l693j6039k9096m1988m1435k2052n506j2790k5844r321
108321h5221L1212M8321J8008k7202m5105l3983j6188P39J8487K3892L939k3962k7758m493J8744K6699L0685L8116
108303e070L6958K2598J4351K5759L6431J6575k9004o3023o0186l1531k259J8201L4826M6613M2969K2495L536M965
108285A35204K0310K5278J3835R150K5674L6991P519m8880p3192l4176K7630M6217M132n8082r3962r0898o3024k7528
108267a37802M625K6815L6012L4721L1630L5222L9269J8764m2881j18344j48451j05438l0211J2796Q518k101J7727
108250c19129N8906Q7979Q8036O7699M3454K4320P370j7236n0862p4630o4381k3197J2016P336k9661n7997m8046r087
108232b97110K8224M5731M6435L7783K3364J4186K8985O6780R1597O8870J3935k2140j8217n603j4833l1745k8706
108215D7536j1845n586r348n086M472L061m77J8386N0489N4983K1118j1290j1208j82j0860l1144k3532J6111N1158
108196A46756M9703J3825l0800n3674l4639J6132N4810M2280j0900n4211n3816k3924R77P555P584J2558J8516J4990
108178A23722L2j7918l0995m0122m8867n1927l7990p291K0679K4025J183k7267l7303j9369J7261N0894N9580L5496
108160A3823o445l5567k8395Q673M1328L9855J0011j8034l1136m5596p0212p9904m9051M794M0549M8957N4620O5204
108142c6526N8503K9851J2273K6459M3052K4990j6313m0500l8095l5741m8358n8913m7915j8212J3195L0017K4164
108125g8069O090M551L5839P5702Q4133N7154K9240K1822J7337m613l0618l2760r898R964L157k6712n5000n6004
108107E1315k2342K6067N6171N2797L2567K1327K3506K2284N470k0086l9981m7716m4759l3498j7462m155J279M576
108089F7360J5213K8960K9181J2116k143K324J0209j539j9762o234M1051P0818M2851j6617n0422m1454j6537N442
108071A70817K9264M9280M1007M62l8559m4735k5453o615M167J4841K4399K2923R223r247k9335m9693n9850m8807
108053E4089k4552r451j2260j7172p433R595J1147j0235l4868l8138j8494K929P407m956k3396l9569m7298m0410
108035b43065k1277l472O029J9166M5425O5221M8372R25l1387j7769J9647L8414L0063K1038K9034M2745M5859M0384
108017A35352L7434L7682L1644J3975j0703l4129n0386n5437m6357k5366l647M290n982k2965l0709k4312r718P896
107999e1438K6094L6582K8410O185o845L541J8209L488m4122q5098p6668j9443M3265P0272N8524L3420J3808j257
107981E6927j3013q365K1289N5271N7897K0787k5535m9840n4780o1382p3401p6929o7865n5961m0823q644L7647O7126
107963b19594N8049L1531K5852M5067N7254M2757J8261N239j465j6980l5171l5222j1967J9193M3533N6084N2997
107946A35418L3351J0106l83l698k2066n5395o7878l0122L8341Q6915Q7781N5770J9653o847k2172k2805n988J6810
107928B46791K1135p429n1756p3107m9974k639L0002L3190K1873P712j6177n0385p2166o1024k7896j894K720p446
107910e8470k0392k4098p557K4855M8894M8627L9078L9920L8915J0930l3161n1722l0345j289N480k89K926J1432
107892D3734J1445J1174K9373O0815P7984O5675L5546O806j2188k2010k4787k2546j6294n795N681R991M030k655R98
107873B56977J0073O705j6911m5417n5186l9225j1960J0410K6626M1312M6256K7071q339k7013j1231J2369M934l1599
107855A95852n8480n4864m0748l9733m6622m6323m1330l9608l1383j929L9950O7423O7794N3437M2341M1585M8804
107838A56166N6164N1918K9596k294k8116m2368m9921n0181l4517m978J5448L236l6199o8399o3626k7114R348K3913
107820f1924K3588K3213J7673q966m9308o7595l9798J2698M3707L3494P671M209L1498O4312P5254O1673M0872K6583
107802B38854J7281M897j3591l3740m4157k8953J7270P1223R2081O3542J5748p024P563L7263N6712N4422K8252j4226
107784E63417n3589p4211p8870p4351n4349j7482J1891J1543l7J0152L0735J8878k3989m0173P38N2294N6052J9360
107766C58009p338k163J7761L6254M8298M2294R920k9791m5753l2092p919J2414K5760K6981J6536J4292L7314O7380
107748E88157O8618L8270J4143K6630O2708Q3027O2456J2925k5902k4915j247m66l3253n5787l5646p547k3987p2016
107730F76168r0575o3335l9094n1764p1928n9343k1843N339Q111n264k6446m4423m1113j5656K514j0586l7649m4334
107712F8779k9072k1927l6513m8621k9639J5346N3173N8884L7239Q872j6139m1598o3244n9566j8370L5706N9144
107695b7546L6019o755l0839k0786J1097L8440L8160Q910k5050l8594l1562j8191p10K4242M0721K7171l427j1740
107677I560R455J9783o640l6223k2887K3055M8205K7154j3428l8389l9795k4731K618L1827M0300J8107r729o806
107659C1436K7520N2752L7525l12k0646j6274j3606k0093p325L6593P1328N3546M07l3207k7568q669M467J6690K1117
107640B05681k452m0649m6370q975J8469o759n2705n9777k2428J7869L8511M7305M0279n49o0820q7819n0744J7031
107622e4902N3406L2223j8924n5596n9935m8633m3486m1339k2883J1319L3587K6984J0499R287J7463J4988Q741K4722
107604a02479N9374P0328L0129k9359m5108P695Q5696J20019Q4715J6934l0822m5040m5749m2272k5740m417p262
107587I6642l5521m6278j2504K9730L0597N80q862J3839K8173J1629o247M523K7828K9915O088k5253n3747p6577
107569A4555q1301n5943j2066K3047L7908M5445N8656P0698O5617M2243J9319J5125K5829K9550J1998j8763m5241
107552B46676n8558n7510m1665j9371j3610l9241p4548p6036k9815K5642L8925O75m9403o6076m1223l369J9055K7331
107534b12121M1371O4407P3496N1977J7780L743J5866K8259J9465k524j6100j3734m961J006N451J2414J7655J2881
107516A16331K295M961K8947M9863L6087k198j4435K5785P9126Q5576L6940j9763m1757k7786j158J7373J7413K381
107498C95981r044j509J4101J2679q801k5652k0390m954q7p641j3744r485J102R419J3599K2414M5159P3371P9425
107479E65943M3193k3789q8573j24425j21227q3771l6719j7520l9475o7882n6565l776N1437Q1707R0650Q2811N0129
107462C02148k396m7429o6214o7437o4691n5781l5070p694J7977L5826L5585J1891j5816j7087Q717L0690L2673L1600
107444A27492L8302L4105P664j6015j2785k433k2107p0763j10246j13395q4677l9104J3849O5133J03657J21865
107428D0542J16109Q7042M6246J1203j4789m4410p9581j00265r1515o3078k9455O715L4641K6331k3429o8819n9753
107411b06265p143K9428J3508l5096p1996o6682j5887N3698R8210R5214O6474M4453K8623O2l4701m8464l4755j1158
107393a02477J2637L5221L8655N969l5732l4824J2362N0804M2770J3703L150R871J2459J0088J0547M414j5960l2247
107375D1410k6762j6475k8894n6740o7463m8861j6671J4887M1016N0730L4005M559j1204r516r547j8584k3631k1410
107357a69151k8399n0184o5249n4362k7401n232R328K5060M0047M6193M8884O0892P6945P3545L9727o104l7775m8652
107339g1888m7607l7084j0995K5837N1701N0284L0957J6433J3855R248q727l1278m1901l8008l0377k3968j0334J6985
107321a36867M6202N4350L1759m504k4927j5332J0758K6186J3942k1388n9422p7612o4356k6100J7229M6709N5302
107304a28071M5609K2535p227l2394m0890k7974N84L1323M9220M8310L9244L7144L6262J0053m9966j06731j11019
107287a83988o0611n195J1254n535j9080o391K6598N8159O7129M7202J5867N5M840P864o486k2335j6046Q278K5561
107268e2860K3790J2198O69q376q716P489L0442L3463M318l4237m6646k4388L959L990k5594m9134l3791R533L6730
107249a17161K4834o21m279R737R477j3649l3579l0391j5253n791J010J8009M6318P6690R8823R9499O8840K2621P02
107230B55836K2123N3505M5210p751o3885q9878r1333q7035p9498o2640l8736j3204J3503L5227L5384J0356j2424
107213g5240j554L5523N8062M4261J8005J2332K2660J6046j8743n1471m6087j547N1589Q4280Q7235O5235L1164N245
107195C36995K088J0760Q70m0922q9778j09388r1667n6909k2459R007L1620L0228K428k9687m3238l9216l1006j9470
107177a49744K296K5402K8430P995j2419j2911j782K402J148J0415K9561L6487J8978o068j6114j3232j4780k0854
107159h4790j1991J7919M6224N0098L5685K3755J7324K900k0996l8004l8838l3216l1285k9750k3675j6143p043J1039
107141a30787L3403L6403Q338k5434k9607l789K0939K5203J8403J3987J1214N498l522j9235m4277o4229n5807j9540
107123b22839J5972L2753M4709O5099P4121M3309j9510p3244q6781o1521j7885K0334L3002J7831r70L099K3492K6817
107105h2212k258l9700n2270l4252n764J3283J7485J2019M759J105K678J1360L1036N9416Q1662Q1837N9355K6106
107087A85645p455l1056k7691R475N3096N9763K0918k4813l9841k7107r629N106J9192K2936P105j4494k1165j6853
107069A63132k0236k9724k6605j0490j316l560R62J7071K3636J0037l561m83M499n405j5122k270K1839K7922J4982
107050A65308P815J3427J3207m28j1738j1221p344p44K2012N5563O6989M0041K501j3723j6525l0293m9409m9029
107032A96409k9806j5616j1544L89K2551L3243K3359R368N8j7720m5762n8478m1539j9372j8360k5915j5982M443R166
107013a108n42k397k78k2451o7405r2581p2291l1639k111K3299O1153R1086P8284L0234p897j3153n260m609n143k97
106993d5106k414j6148j9948m63J5927k174l8127m4598j0270K6813L7162L4986M0940M3655K4859j333p018M201L454
106974D4398j5387k4747m668K9987N1196M6632K0716j3600l5981l0578p084N972k026j1233n351K833l418j4106j0962
106955B2593k551j2163l5574l9670p850L5279N2431L1322j1418m8844n9457l8526l624J9142K0902J5017J3806J2408
106937c6777L136o079j199J5239K4653J6705K223k634K787P017P288J5129L5739N1572L9231L96l7639n3790n1571
106918C1426m2242k7300r039j984j4944l1121k6343k508J6449J9589J8954K2588J8917k223k7819l3473j1239K1783
106900h0529M0522L5463K0580J5361J9013J4167J106P086M1580O2248K1087o1677j09099p8682o858M7221O5127N9428
106882A13144L8356J0599k473O121P908k1931n8748n6574j3836K3441K1907p112l6401n2836n2577l3584m648J5796
106864a03448J8318R055j909m779J1318M3071O1752M3906J0444L519K3535K7211k181k5316j0523J2727P58l3116
106846H4342l9460q966J9332K2923K2874L6696M4848K4716j1272l5850m5431n3919o0617n0040k0859O486J5270J1408
106828c7519J0794J6364J5273k231k5383k9200k980K9716K9944j2897o4394p9365m6620P791N3190P6500P6076N2239
106810F7298J2133k5345l9310k2257J3820M3218M2444J0987k3085k9317r902K724j2269l7773m2521j8012K0227N5081
106792H141P4280O5399K8751q050j3654N755J2854p229k6479k0013m204m318p436J5991N3621N5268K754n8656p5943
106773I6832n0412k2898j5241j2914J499K3409L8514M2083L8057K9319J6907M760o92L126R402N010j5155l6444l6058
106754A19104j1090J4732J9964J0227K644j903j2023k1364j7893j4813l9871q5607j03088o5171q910J2164k952j3275
106736b19125J19J8707K9254M1174N5465N3647L1976J5757K2764L9493N1001O5145Q2907P3126J2861o3894r6502
106719B13875p1862l4867k6337m3112o2630p3759p0899m4640L018M9248P0869O6105M9757L7009L5315L9290L1058K71
106701A67709l4990m5953l4351l2365n3484o8975m9387q097J6921Q933j9273m7912n9573l9524P829N0017N8232M3382
106683a40861L7866M7074M7486L2972K9542N0463O4973L6826k0760n6023m2208o724R230k03j2208j6950k6097l8173
106665c775k4958K6072P4522O5584L132m9004m7313j8499j1852l1457m4635l7120k4448j6930q116J234j833j7545
106647a66941k8359k5364j7313p099J6309N1417P2271N9252K5349l935k2266l6723m3088k9093O21K1631J5979q267
106629a25619k5826j7742J1573L5502K7052j3423n4779o4928m1345p545J4720K2006K3609L0829N0073P4785Q2952
106612B1894N5083J481l7539k9654J4067N1384N4940L4044Q485k1593o3504j01205j03901p0012l7308l3336l5932
106595b92606p347M5174P4465N8745L0093K5984L9504L9240K0334P281J1440J4041o11j6136n050K9784N1580L0269
106577A56184k2858o6089o8068l3446P303K6356J8276J06m502J3827M1484N6698N3314M3963L8825L0828Q047k6606
106559B73642n6593o8688o2375m6794l5312l9389n9508q1253q3219n0376J3155P5413Q9723M0477k3322l0868K1067
106542a24220N4113R399o7715q4016j9619N5782Q0614O2441L4076K251l3414n0637l0469P714K7545J9490M97j7846
106524g4014l7563n7189o5229n0374j2111L2397N2654L3821L149K574K9425L7005P619j3692J3579O0025O9029L9212
106506G0317J6625J9098J9143N30j6297j4650p091o545m625N845J3307O950p640k2227l3778l2309p866K1313J8438
106487C8538j8479m3359k4368Q770Q946k0136l6304k5768j7424l0701m5786l6948r082J3870J9794J4050O775P356
106469a90256K2889M9843P1053P0159M7569J7880m414j3107j1956j5367l8691p5275q9481n1370K0056O7980O0660
106452f1828K4819L043j395j1750k5940j6444J7046L5233J5753j1958j2885J199k104j9316k0247j824R388O732J2899
106433e9579L1808L1816l471m0476l8048k852K3678J9279j999j6511j2743P697L1046L6085J3921j8059l3706k6297
106415e8411q728Q676K6671M5342N6113M7445J4349l3498o9723o8303l2473K895R692j830l552Q189J0018j2328m4283
106396a03739o0633m9774j9248J1394K4742K3507K9483N1692O4715M0333n919k9151j7572p597k4992m3889k8511R893
106378a35266L0155K1359J1962K2615M1574N1216N0816M3002K1675j0897l2709k6063l096Q961J235j2964k2542l0221
106360C0812l9852m6623m3929l0767j0311J0327J8921Q301r519j1557Q408L1686M0036L5327K3549m213n3214r5807
106342a38425q9017k7941L9840O5389M9384K9083K6999L0641J9348o166k6387k6241r642P819J7460K4649L4381L6503
106324E7677J8056j1427k5470j7038r426j8514k5390q183J6842J6736n317j3874K693J6899J1513Q240K8734N6986
106306I9737O4477M9514K7065Q98k6528l5293j2314J7326J6292j4735m3655n5865o1036n5772k1996L0709O0970M8687
106288H8481J9985N765P054J4561K6266K7220q687o9478r5851n7164k284P435j6933k6337k4143n2559r8965r2890
106270c48524j2406P2673R3197O2404L1626J3411p243k3032j7111m187j1241k8497k1794J2932M6542O4555P9755
106253C060R4513Q7020M5994q452n0479p4559q6759q8757q0243o3198l6996j123L4736N7530O9027Q0470Q7729P2660
106235A42173L5772N894M367J6594J4640n144k3990l0678l0400k6975j5211M091J5855Q450o247l376K1336L9124
106217A66275J9852k8737o7619p1968n2531k7365M026M1586O1686M2969M891j2144l368l532k9766n5665n6828m9052
106199a17290n5175n8668k4534M3624J00077J11291Q8069N9027L5009J1325j1473k6208l3161m0485m7564l8864m995
106182i995L2946L5277r969o2695p0465l0990M780k276l2103l8564j3869N244o682k6734j4649L2344P3221P2623
106164f2556M3290K8017M3608N9723M2200K735j5194L960K6465J5265k2561m8283l7770l06L8643N7180M6042J4970
106146B35428j1015j4528m575l002j6212l2397m2780m9603n3328m9205m0948m0710m5950l1951J5604O9172Q1951
106129c4049M4763J814j507K6924M1421K2005j763K670K3619K5209J765j5466o769O540p007m5941p9103q3109o2879
106110a40863l9012k5729k0589j0269J2106L4102L4679J0202j9236l3633l3042k7135j6813J914K3553L6307L7153
106093a76305L3809L3993M0348N1658N9626M8447R538m1742p2535n9847j0592M4295P4953P5299O1913M8292K6181
106076B47331j5998o1682p5824n2135k7990l7606o8960q5380p3123m4882j0329K7539N2742M4544J0508j3384m887
106059a89516J9920L2312K5703J5029J2423J3195J995k9760o8641q4670o1046j5497J8669K8692K6698K3504J7933
106042b13057J2755K0004M2300O4227P0905O3764N1471L7007K1171Q808L881N043J0349J8751K4015J6780k846k2859
106024B32469l3556l7545m3008n2695n9867n0294j3665L7264O5979M6866k649m1210n0890m5508l5636j4023J8060
106007g9908L7922K9822O708r458j1563n66K4643N5134O7919N1503K1088o253l4057o6448q4409o6974k4725J1776
105989g7846K8844L3111K7372Q948j1312j3959K341J8167J9461J0501J312k410J151M231j2406n5223r4558q9996
105971b02271m2183M089J4496j49j1660j1181k296J9019N2243P3366N6802J5200o792J4427N1728O0865L2297l624
105953A14376j8406j7410k4960m7154o1548m5311n275K6584K6071Q61j9189j4447L630P196j2237l1377k6612q814
105935a54022q228k5997k5196J8978Q0806J14160J06006P8607M9902J8106j7077m3857n3876m9262l0374M770M3723
105918A07169O1184M6055J2265k3452n6700p9740p2176k7261K4412L8951N141m6811p8731p4230m0419K660L1912
105901a69771L4278J6921p86o811l019M988J3726J6371L930k1022m0584m0450k6745j4491m737J2851L5349M1761
105883a48241K0923r694k5901k6716k5515j9847N889M7654P7422Q0143P1651O6715N2859J6926k2996m0156l9284
105866H1832m2292m3983k1110J4420J4891l4414q2674p6429k8646O115P735O914L1450O8740Q7178P1382K8681k0836
105848F8954n1594m5219r121K4263K7043L189j8578j6216O290K9141L9530L9825L5516K3544o80k9017m4269l9641
105830D2960k4822r263R880L6152N9885O7047N7292M2964L2390K2572O921j6652m3584o2630o1286l8722j0773N413
105812A15744R485J2431J4869J884l5952q2936j06943q9705m6888j4215j0714j9802j3151J2109L3426L7777L6269
105795a46312L7574K9188K340k1432j2420K5845N8618N9994L3162l520k9807k7714K281K7832J2674l5607o7818n1245
105777a06367n241K9346L4978K0322k66j3613j0304K659L936j3642l0142k7788j6853j4319j2419Q219M4566P4182
105759c2746Q5363Q1865O5014L6681J5301J9980L7389L2588j886l4829m2331l7124l8375l8967k4681o414p765l0266
105741G8797n2962o0793n5116m1549k6106k0242l1238m7043m6230k4741l76R492K412j5279l3208l4321o019L7406
105723c67116N7951L2905j5679m1488k1761K2673N3300N2981L7376L0643L4757K9661N628j5811o288K9952N9717
105706b0599O5017O2449O9337P1572M4563o741n2103p5566q8529j02613j10826j01952p6678m2011m783K1929K2924
105689c24610L498p464P618L0631L6858L4351M6717O4264M9164k366l8739j7949L1320M6132J3612j8383j5224j867
105671f2437j7530n2544o0535k2987K7554N0810M1938K2707Q514O95J162J3596K8146K2690r460m2392m1530l475
105653i5078L8569N0027K6859q086k9135k4095Q89K3037J8515j1705l7377l1976m952J1753L845j4797k7923l2952
105635a44582k9818j5521L167J1039Q276J4103L4564M5850K6753q523k9419k7254j4166J892J5979J1960j9107n0972
105617a65779m5294n245K4885K0092M298Q482K8589M2921M6998M9914N3835N6437N8205N0268J4041m5000q1403n6878
105599E9366O431M8557M2562J5313N97K374J0085K1496L5116L8401J9998j4404m8100o9414p7747q0835q7350r2737
105581a70291p3480j1537P0586J16235Q9898J8618l3678l0631N681K6712J2252j1607q954J8518L2202P033l4049
105564B3508m8656k6046Q442L1557M1747M3031L4898K3684K2239L0056L2245K5137K2692K8762K5456K970k0117k4273
105546B77332j8510k1860l1065k9941j8910j0382l270J1672K5250J5795j5889m1184l9459k1275j0605j9499m3680
105529D520o6684o4801k6462K5470M7464K1865k2807m7174m3912l4025l1535k7330n897L2188O5973P0927M3953J1103
105511d7164J688J4213K0507O106j0203n251J7987M3374O8605R6618J10570Q6486L2692r677j5798o415j4470l9243
105493C50625n2299l9326j5661k125l272j2867k6770m3563o0384p2713p3229n2198j0096K9890L8325J5141p844j1062
105475d9428j4471l9826o3299m1465J7574M8918J2761m9795o8671l1164J3919K5931J2248q17m953o459p745o851m016
105456b57609J027R523J6017J1364k96k31J9677M1593M4186L2404L0150M6125O1554N4704K6799k682j9960k7561
105438H6784l1189k4889J073L7480N3697K9754j3654l2398r362K5636L4138J5613K549J4820L5058L2833K058l3280
105420B26721m5417k7627M705K9465L1760R967k3333m6331m1350q331L5349O7358P0101L4924k7895q0898q0985k5638
105402A02545L2913L8714o415m8922m7343j0460K7284M4334L7828J2626j8690l6459l0387j1325K053L260q03p17R020
105383I9056K5090L1069R929l0084n4146l7982K588L1622L3764K0976O872o787j8923k1603r771R034J8101L281l3281
105364G8805o6190o2383j4673M5278P7735P3483N1747K8261K911k2571l2978j3229L3328Q2355J01084P0195M258
105347D37416n3578o9801n2279l4238l1667l0554j3357J7726M4673M8374K1854j7230l1974l925L6286L9344O47l3097
105329B74620k8943j0346j5868m0415m7232k4809J041J0305J2995K0890K0369o285m4156n2451j1204N2013Q9155
105312A99679P9278M3103J5818J4876L2667M8444M3280J3780k1357l5951k4707r360j0300k3646l6574n0227o8189
105295B10614p4110m7837j153K9286K7998J5134J0224Q324L334Q598L4295O2738O7972M9009K4853N825j0593k1363
105277D03148j6394K024J3541J396k5232l6265j0833L7700P2778P4910O1049N3993M8074K8407J0769K4529N6843
105260H00437N8162J6258j9306j0890J1447M418j5297j971L8544N4754K9070l33j149J4089K0105J2564p09r541N972
105241A006624N9389J23927J47607J16225P0886M9298M2174K6104N889l298q668k2269k9573r814K2024K6286q174
105224A614637m7662n6030l6620k5108m7965r1508j13000q8031m4465l4473p1185j13527j20978r8931p4980n6435
105208D93739l7110k5911l5122m9930m2955j6823j217n401m074K0809N0402N4980L0590l640k9761l9951l3894k0702
105190C04029j5366k3244l5052m3389n2382o1577n4214j8638K6350M6537L1403J807k1011l5366m3197l4672m095
105173c2077L1260M6847M0987L2545L0584K4639P974q466j4563j7934k9415m2768m3074k7826o615J3806L1303M1564
105155G8771M3009M2725M3963L4757M851l2298n1738m5778k4086M721K9070K4874j5563n0689k8176L8094P3333M0054
105137B09894j2419k2876j501Q53k4742m2131l4764k5653l2574m1796l3436o327K7156N0785M9260K3230k806o382
105119G3771N172J2859K0393M1891O4379N8871K8594R938J9327L3412L1509K3256J8556K557l5698p3313p8225n0886
105101B06363k1351j3913k8526m7272m7884k2000J0497J8247j913j8040o047J9096K9597K3451J6060Q403j0458l5079
105083G9231m3469k8704j2040j6299l6220m3761k0835J8483M2290L6640J8309O534l892k3878l6412j2487L8752O8791
105065C1033N0123Q511k0762l8701o0150p2262n0519l634L1093L4545K2871K0455L7305O8861R6032Q9335L6947l1309
105047B49774o9360o5237m7149m0875m3500m0938k7868l672L0641O2344P1425N5228L4610K6466K3619J1767o560
105030B20715j7691j7452j2630o273N917K3867L7190L5389K0211L429p278j4846k1871j9752O3K6047L3142J3888
105012C02065j1812k5442l1816l9584l6728p303L5682N6537L6262r190m8529o0585m4259j6686R95N317J1092K3008
104994A39024K2824L9k4302k8760k7950m5033o2444m2209Q436L6193J3905k5641l9175k0561J2971M5541N7780L3200
104976E3838j0399k9121j3732p514l8148o8617n1854l325K4075J6325M427P165J2838J4190J9649K6311J7716l703
104958b9879j1144J0466M4737O5864O1724L3294q757m3850n5464m7848l6233k5574j4559j0537j6864j3917J8350
104941h0191O2101P5930M8803J1713o393o239O05P708M852j7188m4260m8758k9976j6047j7237r327K3214N9253P3526
104922I2089O7652M9912J4180l7444p8321r0018q7774q7520p2749k6174K7254M6045K8369Q361N297Q856Q022K437
104904a21526j1598l6315n4938m5892j3410J9665M4169O3217O6172L8192m785k5202j3691P27m216j9300l1007m0434
104886a90172m3030k2067J8714M3693K9336q55p377J5407M0651M6567L3001J0820p265j1911o112k289l388O83J0467
104867d5127Q926j1226l0213k7944j2265k943l307p622k0229m1979n0579k4415J9828M2538L2882J7475J6081J7900
104849a22219R751P50M218J5180K2313K7371L5679L7676J8268j8246m6631m5829j8035J7231M2015N2454N6685O1725
104831A50356O2457M6228R606l2666n8655n8189l9785k0593j1428j0804j1597j1662j5975k7636l8628l2464J446
104814i9989N3375R3677R4379N7343J7228P039K2011K8307P441k2166l2202j7608O889K9051M1912L3346o569o5226
104796B48238j08680j10669p6607l6337j4966j1042l454J8866L9211L4215Q371j0056r829j1629l1346n0070m0368
104779a66152o796K2923L6814M4550N0706M6921L0076O856k0008n0213p0557o1765k3975K1551N6927P6258P1856
104762F5972L6589j4634m8813n0833l7705k8122j6318J1337M8745P3456O9407L7556p093m1583m7855k8549m804N583
104744B2336K211m963o653R50J0287K714l0591o8901q0142n9109k9089n508J8401M5129N7506M2141R667j9418l3740
104725a26772k9587r802Q740P993k210R100M7422P7239O7507L0013l203j8313j9220j1235l816q678j7885n950K9859
104706B1202N8421O3070O8084Q9187R2937M6728j7667l9090r868K2731K6629R229k1099o6534j09464j17343q7954
104689B9199n1799k2812J3626N5368O9643M2510N544q566p202j2999k3614j9920K488K8576L9344K2805j6242n2278
104671I3671o1483m9203l5383j8268J5646M8729M3409M987j3820Q972K7845J092m3013n0669j9438J3267L2362M8261
104653D6964N5234L6049K817r947O726K9810M2430M3324K2950k8267q4097r5495n1359O710M1195N6924O9121O8679
104635B59768M3901J0801n566l505M262J5742L1626L6436J6724q655o306K2350L7278J4216k0575k5611J664K5161
104617D49711J6934j5392m6961o2695n9202l4884O839M8855O8671N8800L2617Q663m793q578m431N741J5490J5136k27
104598D90294k4315m2114m1153k2321J679J9926L2390M3920N4306N8305N0816K8046q716m3742n1227k2020J9912
104581E43986M1800L8065K7676K2025J6035Q624P231P024j0478m6789p3760o5388k8864P335K3633J8303L83j4669
104563E22172j4097k504L766K794J0799L1571M4005L5159K4774L5663N6455N7661L2861R08k2374l1551k0845P900
104545G75117L2333K9802P251j1230k0574l2629m3303l3416m803J4462Q559q274j9677k5959k5094m094L2955N3279
104527G24705L5305K351p853N991J4410N286k363O022J7310J2983l636j5561j5718q483M917K6506M7688N1098L3012
104508I33970J2524P738J0672l54k6753m4583l6298j2833K862K015q819k1735l0991k9299j1374K0804N9862R3172
104490I20580J00099O5004K175m7155n5588l4998j0276J3191L6392M1101J0427l2205l8449O277O5657R8672R8488
104473A239392P9467N1926K3726P199P331J3047J1252J516r447j7068j5908K062L7594P8555J08128J13434Q8867
104456A821073M3633N451J91K2615M0293L1105M693j5877j8836n510J6688L4708L5347J8624k515j8923l1654m0579
104438A940527m0373l0514j5784M868L4460O1518O5699M4003J4515p771j9416j3713J4529M4705M3996J7701J1980
104421B170930M6074P5977N5999P629j1673J0967L6148L5238J9658Q300M153R192K9135N2877N5025L1362R442J1594
104403B658027K7104L4362L3808M3232P0015J00720J13304R3851M8423L036j6166p277R324J8241K3991L6138N2159
104386C342292O2378O3148N7270M6790L1274J0072j6290m3421o1943o5443n9027n1970m1845j6630K3908N8367O1715
104369C400645K9901j4551l7297j5941M0468R5410J18517J15552J14257J23168J23426J04880Q6901Q8441R6322Q5795
104353D555894O2006N5698P9161J10217J25216J28093J36240J52247J62374J54613J27926R1103O2758O4697J01011
104338F169254J46063J66174J53622J28768J10458R9082R0678Q9738R7660J02475R5030Q7217R8060J25163J45692
104323G905134J46376J38901J42405J61918J88403K10534K21318K20024K12206K03444J92168J75099J59221J58222
104309A0435373J74621J95496K09596K18408K25674K27464K20677K11737K06991K01962J90040J75036J63964J52791
104295A3209830J32443J06598Q9980Q8046R1784R7415J18642J67709K30054K71527K73712K52451K35796K32883
104281A5598870K36333K49310K89360L57274M18699M34006M01208L56082L33830L42966L71829M04205M27749M39628
104267B0661349M44985M42721M20610L77907L41292L34905L41701L24126K81507K52784K56652K66503K59819K54849
104253B5261710K72104K92162K88001K76936K98824L50828L82192L56924K94209K42726K36143K75925L38607L95107
104239B9562398M34057M65657M97187N19023N29262N52774O08130O68390O88969O70937O62253O92330P37492P61143
104225C8050002P60336P58294P71611P99447Q31456Q56827Q76830R11005R74778J049624J097426J111346J130576
104212D9979558J193758J296704J408247J509916J605462J705847J820905J956481K105988K250277K374038K476376
104200G1683557K561832K632176K692143K751516K816096K887620K973713L079386L183339L245014L248658L222315
104188A06977365L198109L170848L114075L021255K907360K778973K629038K461536K299073K158367K031619J901234
104176A38648852J767892J657094J595403J580287J579102J565676J552757J573626J634709J710843J794815J922849
104164A58583905K127431K384933K642838K892784L183903L559111M007720M495263N016616N595964O245521O950866
104152B07686855P697852Q484553R280246R975204J0394604J0382419R882261Q950096P708543O293193M815464
104141C01551290L339269J878506M23544j026807k460405l866819n241396o578912p877855r144410j0372198
104130B60623807j1522383j2547630j3434164j4191879j4798793j5185099j5282487j5063271j4526356j3688339
104120A20383406j2616369j1434180j0251750r100964p970997o888218n919028n099932m407085l801862l273810
104109C9619211k829932k470586k188726j971086j789557j612244j435387j286876j186218j117203j052639r88968
104097A9689789r37706q94063q37459p63855o98403o66202o59354o44333o01448n47118n11242m99807m91482m69114
104083A0468203m39789m19297m11186m10201m13526m16404m07584l83685l59802l50845l49512l38598l18235l02453
104069E147086k93288k78330k53282k28069k09971j99122k01496k24666k54397k56071k12277j46564r8825q5616
104055B205112r2370r5301q2313n8617l9118l2433l0910k1937p463j112m611o33K4120N8586P8040O9599M2013J4790
104037B025442P97m670j8706n0127q5439j02725r8348r1109r9842j24098j45249j39882r8435m2327j5540m2167r5993
104020G71582j29410j27272j10447r2729o7370l9440l2722m6297l7967K0365R4777J29154J17362J01881J08996
104005F60463J21378J17596J06005J05531J14371J14637R8036P4441N9082N8554O7639P6377Q0125Q0465P5085N4189
103989B063974J4843k6466m6927m2825l3358l8782o1570q9446j10199j21246j27317j29972j22235r9789p5657p0326
103973H82702q2075q1970n0452p020J2275m74j8737j4775J5632N5779P9021O3276J5131k3266j4257K6522M3885J0242
103955I11439m4020p4952p4286n8983l5880k823K8193L7437K5394J2651J1200J4797J9680L4201N8470P0418M6774
103938I79710p188n8097p2021l8600K2592P0795O8311J2845n2926p7347n0271q886Q957L306l503m045p386j2247m688
103919G69311J4374K4254J8250K0509N0737Q8119R3779O0919J9530m823j3265j4949j1385o594j1214k5097l2475
103902A039980k6241k2396l7327o3240p9962q1115p4495o4931n1504l6204k1950o501R115J1214j3282n5548q8412
103885C37201r1208o4179k3338J0024K1502J6521J4784K1077J3130k3931o2916o1310j9041J9841K6232J6943J7322
103868A68654K3354K0219J4295K1521L8239M7281M3936L4899J9403p107l4776m5365l6231k2507j6888k1042l2923
103851B14962m6394m7116k6191M260K5634L8377N2013N4120J8280n0912j08251j16888q5970m6837j3990J2384K5821
103834i6698K1239J1648J2150J3054p061m3211o2417m4584o635K0409K3804J2902M068R543L0766N4317O1179M6102
103816F0575K2643O459J841P524K3140M1275M4665K6202N562Q819L1531L9306J1280l2357n7560n8850n7351o2742
103798F1962n8826l1256R035M0831N7049O1064N0508K2738r096k4134j7848k944J2371K9036L9742K9230M75j9889
103780B50048j6074o535j6091l7857m3145k1837P149K2965K1966R769q301k4249k7873j6617J104J3818J3466k118
103762A19588k4339l5569k6902j0987n730j0191j1776j1420j9528k7808j2471K6051N3016M5137K3378J7948K0726
103745A09123L246k9442m0225j7834K120j0574l5028k9375J0829N0591O3661N6132M2664K5306N137n234L963K2828
103727B27888L1224J8402j3605n4609q4173p8603l7787L620J1735m457p368J5561L6714K9658O47k9773n2774o5082
103709e2782n7805l0218p56J2918J4047J4302J5538J7874K8275M2806L9257J1519p113J3637M9434M9786J0887k1717
103691A49889k4508k5174m7125o6779n1885j1136K3581M1318M8228L8367M269k9994k1723L6366R8173J11952P3818
103674C47637K4644J659L240J975j5070k9315j7802J3276L6152L7817L0302K4224J3477n545j9198j5201k037M434
103656D34669L455N117J1987J6384R195j6032n7054r2858r3390n1858L093L7087L9530J6579k2778n6578m9471P713
103638A44790P1081Q7297N7624K8595K3546J8539q020l6095l3021o37K6383J9793j7318n7098o8833m1060Q206M4594
103620B68366M5276J5450j8981l1681j5614R777J6748J969q775J356J2613n03k3696j8448J9776N1373M7219K3841
103602C96066J1010J0160L722j2845k8786l6500l5353k4763o928R582J8303K0386J6379L822j0864j2718q2Q236j278
103583C27549j7803k4075j7227J390L7470Q3734J06320P9891K7300n071o940r122k9456m7450m2883k9372k9805l8985
103565C65465l3015n518K4290L4934K1595k849j5846j903K8106M2996K8633Q464R873K0658N566l5565n7598l0353
103547D07933J7718L8469K7499J8945K6213K3720n357l5260l2616n095J0615L95j3936j3057p544j6520l5356l9654
103529C67112j5931K2754N0937N4317L9862K6312K4619K7709K2295R676P053K4468M7547N1163K7651n859k7828l2489
103511G21368k7610j9771j0079k096l448j4255k1775j5891n358o248j5785j4161L368J4554K454j6651j5947L449
103493E56118J9594K7435M1653O1796O4305L9049Q856j997K001N345R979K3966L5596K5169j818j6708m997J5876
103475I11218J9488j464l2282n0886m4403k0330j152j25n988o27J4713K4635K4340K0382J0539j3372m0295m3539
103457G70852j9675N00l398p462K1680P3125J02184Q9474O0055M0739K7206O697j0025j696K8934N4389N4700L6137
103439A324416J8465J5687K8864M5525M4866J5975k4988m6513l5433q842J1947K5455L7855M0809K0958j3164l3898
103422A467984k7588r679j400m316m787P233L1253N8198P1072N3655J0071l0170l8475j6277J0117J9389J0170q657
103404A597793k7912l6791k5205M926L7030N4699N6516N3592N5913O3457O7377N7887L4293R638J604J4287L0018
103387B049122K3752j1777n5571p4532n1409J979N6382Q6631Q3792N6290K6511J9099L9236O3262O3665M3874L2528
103370B452834L9430L7927N041l8531n0663k0582K4473O1221R2522J23395J40845J32602J10363R8159J04987J20844
103354C434867J33915J40600J41311J35243J20015R4238O3158M0998L9700N3331O3349O2668O3396P5118Q8247Q8710
103338D838864P7979O5745N1900L1595J3234J4235L7512O4503P4633O4272M6832M1417N9013R1324J15642J19202
103322E807902J13933J16489J21133J10686R0966R0593J21303J61424J91011K22666K77225L42134L78438L67363
103308H513266L30486L00890K88980K81072K59936K20288J71024J26732R2491N5584j826q0031j58082k14694k46674
103293I939442k64740k79932l00576l35001l85632m40200m78237m90318m85372m74831m54593m10045l37558k53410
103279D548997j79795j28593j00608r0666q6099o9507l6191l948R472J5700M2858R0377J19189J00059N3306K2065
103263D306616J9605K5352K3863K1074K2251J9774J0409M189N975N146m176o438J7190O1511J00622J14390J03118
103246D850471Q0867O2772N6143N7714O1502P0845R6132J38133J81858K10627K17216J98703J54807R9827O2119N8022
103230F657758P5531R5654J18394J50985J80420J81483J52723J24047J21549J37586J42544J17876P2317L1195J3639
103215H373701J7865K8209L6262M8705P1618R8216J21367J47089J81172K10782K17959K07933K04791K17622K27645
103200A0410936K13356J77103J44901J48661K03427K86925L45536L40214K87937K41459K29820K38566K45151K44907
103186A3758899K36648K13700J84540J76597J99460K23768K17251J86426J62463J58545J61257J54029J30863R6065
103172A6260511O7341O9341J06585J52237J80630J99780K32472K76883L09982L21927L21912L15425L02605K97223
103158A9414854L18882L61602L94570M01014L95985M00257M17631M44789M81444N19224N39350N35291N24442N25856
103144B5675191N38400N51063N61713N73219N81641N81706N77902N80552N96480O30312O86949P65341Q57450R58383
103130C4716302J065636J160866J209198J196232J159460J163019J237118J352025J452710J510382J539151J571257
103118E0333356J621339J672998J697591J683510J643393J594589J541745J481927J416915J351413J284203J210369
103106F8533348J131078J053932R82682R11592Q33876P57536P10984P23414P90966Q69806R18371R44628R93670
103093H0155883J087238J197727J290804J372019J475849J626743J829465K081665K373201K685055L012942L383502
103081A03572093L824693M332235M892670N520458O216763O879984P309623P342070O972647O330284N558861M745304
103069A73497685L929334L129377K350899J595672Q67942J57487n72819j354134k167118k955825l686749m368334
103057A70423417n011875n607256o148185o645148p084421p393786p479284p293320o855278o222731n465749m655609
103045I4560775l845190l054328k291374j587195r86628n03089j00601K71954O40820J004465J356787J706596
103033H7172992K081830K519178L048209L686796M440103N264824O009267O430312O344592N784526M967529M098450
103021A41848608L238130K366905J502090O95086m6209p61617j473030k168133k846844l532124m226630m902993
103009A29693239n548985o182222o804557p377835p861878q240289q485151q529911q313784p841179p176785o398816
102997D0931847n576227m768472m014814l329809k727927k238425j873396j596954j355863j132917r44069p93339
102985A0579635o63401n46837m52256l76048l00334k27010j83617j82258j98615k06804k10913k22957k30460k10658
102971F367467j65705j21263r5807q9778r9997j24818j53677j67863j58783j39770j37195j70291k33402k93361
102957D215757l13464k90372k60898k60672k81677k84962k52341k08547j88013j93121j94030j64104j09634o6110
102943A147812o5476j04194j45268j54965j32298r7256o0794k2015J1701K5066J9910J9681L8985O4146P5012P1780
102927F91827O6972O3131N4417M1975L2466K8025L1563N3669R6189J34588J36930J00713N4806K5857J8305K3372
102911A654805K6182M381n4874j29383j75052j73488j47533j23745j04443q7505q3738r1949q2094l4000K3456M4304
102895D65324K6776J0035J5045K3344J6779M429O8J892Q555K9683O2139P7348N6106K3558K4465O5807J04350R6633
102877A112336M9095J0659J9626O4568R9874R5395O2293K9422Q159q142k1033k2173r475Q237K2416K6850J1677k6747
102859A533037p0722r4365r2036p5411m6418n33M2678M7905J5638q183M390J9589r917p5050j20081j09355n6265L173
102841I08074L8191L4676Q101N0L5079Q4885R9929P0756L0826N017j1457k3477k1096k723J6149K6379L1000K1864
102823A352223j7284p2682r9437p8606m5437l6464l7203j5019J8641K0609j6540m8533l6165J0770N3658O5937M5807
102806A064275R002j9136j8404P711L4961M4256L5947J7346q492l3701l9298j2316L5547P6375R0421P6338M4468
102789A405300J0852n893M184K9688M4440L2475L410j9636k3756j4686n719l881o484o299J478J4611K5157K7767
102771A513008K6694L0582L9970M6849N0142O2708R2161J20342J18838Q8335O5564P9193J11398J20895R7672P2913
102755B737264P2274Q1443P0503L6996Q106Q077L7712P8904J04447R1642M6996J3092K6045O5300P3648L4143m334
102738C582258M529M1370N4957L4706J2787R799J9639M1221Q0595J19194J24771J04562J03994J35455J53070J25790
102722D748697R3725J13306J80174K50804L12384L77537M26805M17223L49876K75607K24045J75336J15893P2346
102708H133758O3295N8569K1204l9078q8795j24727j68811k23526k68888k99629l33352l78875m20921m41976m41607
102693E046641m28693m07996l80941l52999l36056l41295l62246l65272l15648k24838j53762j47296j76853j73484
102679H79262j13507m3513j7050l3472n2562m8588k9315j1797j943o92j2927l7321n3286l4485J7469O3719O6845
102662E36837L4551P450L366l047l5097p2339p7672n2150l3446m0915m9523k7764J7527M7929L6679m974m1785m9605
102644A96022l6093k5885k7540k5876j1695k737j8596m6848n7440m4950l0791k4758j3757N248J2050j462r564J1154
102626a53518M3823N5199M2991L1039K6153J1305j7028l5189k7303j1549j4891l5001m4269k6524M221K1897J6039r79
102608a13584q869J919K4675M5162N2631M4429K6888J4114J7821L1913L4269J3403j2783j7683j428J0747N517k506
102590A66635J758J0279J0287R674K1820L3695J6266k9871o4179n5475k4563j8064m7144p3534n9249j2599K5617
102573h8647L0752J4737J524j751k412k265O357K4750L9483L6491J8974M387M122J1695J3358O446J339M145L799
102554A27284j4980m5898n9261l4262J3551M8328N3265M0000K1169n065l4897m4520j6554K8712N0020L2138r8j4585
102536A44347l619J7742K9509J9611p182k8510k3645L277K8955L9206L8298L2362K3526K1908L8312N6483L9896j5676
102518D54800o0262m6416P765M0392K1737j8897l7951k1850J4639M8795O1285M6062J7841j362o108p900j4072k1187
102500D77311k7779l6378m2540l9650l5848m6367o4808o1800k0835L9844Q8062J06376R5318O5266L3279J2972r19
102483E41504k5451o1926r0667r7890q9025o8434k8442K6933O6937O2818K1798k1621l8911k3477J0432L1540J1249
102466B27367m2450q3582p8062m2874j8781j8481k3563k0003j0064M731K5518M1478L7497K0032J4715L1647M8592
102449A13717L6613o002m9726n9847k8602J4899L2639J8677M44m104q594k4125k9356k612L5137M4506K4451Q468R465
102430A26048Q172j255M616L5806O5480O7126M7190K3284l208l2454m8404m0241k4403k2458l0863l3733l2004l6548
102412G2151m2242l3693j2694J898J791j256M688J6330K2500J7482N859k92Q027K3292K4846L804k2382l0368j9089
102393D0652n550Q40M165N649j51r634p472J1273K8214K3145K366p754N364K6561L7328M0674M8745N5209M1026Q137
102373C48787j5974j7409j8048m1301p4401q8752q3218p7112o8919l7693J3100M8764N0665L9834L9774M3743L6759
102356I8599K5631K5520L3464L3991J8257j4223n5563q0546o0876m292M3443N2544M0369L0815J5328j6214l8017
102339A48230k3814L487M069j3240q286J7238J9809j0829l2556k0639m639j1916j9478N359M9609P4171O6179M1606
102321B84360J2969j7316m3421n8883o3517n2293j3954M1405P3246N4792J2661l695J7745M6555N5874M5808K5011
102304D17347k978l1073m7432m8459l9505k2812N45J8520J5644n078k2615k2698j0003M238J2756R331j0248l9988
102286A75492o6074p9024p5773n3763j6063K0495L8365M0802M4651N1312M3627J6667p152m371K1116M5996N3044
102269B49347L9305R418k6617n3591n8929m0422n182L3076N5321M7529J6004j5814l1180l2815k9424k2502j3234q357
102251A11933p717J866K5963M5351L6438L733k4299k9318j7877m665J313p975l8738p9120r5997o3040P926P0731
102233f3492Q3904M8034N695P53L4037O3433N2481J1659j8040j5360K720R835j025k0805l8247m1958k4379L862J5876
102214A08983j70j9676p542L7901Q1309Q9404O0232J4551k4831l9511j8317K9791P1020P1620L2473j0293k5002j7234
102196D34708j4518k5424l0980j9146p526j5572k7661r353M0026P6305O1984R870l7693n7223n4849m1420j9398P659
102178B69789L0545M1973L8714J9395q021k1785o143K5730M5644M7287N0348O5216P5477O5029M2406K2964L942k2215
102160G86295m0880k6494J9576O3030P3297N1209J5449k2552n9069q4774q6852o4131l0365j427J4265J3223n421
102143F14379l4739n9014o5644n7144m7187m6174n3715o1825o0429m3796j8796l536r074k5857l8607m8491o2897
102126a22546o7608l7570J6888M4741J5907l5324n4202l3166m715J6318M2477P1185P6403N0948K0750N251l372r394
102108g029K269L1780M8030L2030P531K77m968l1707n9857m9107j687L9366M8888L7948J7683j2735l7761k7920J3861
102089D6892M2308K5326j6676m4031m5662l4645j8545K463K2663L6792M8622N8464N5572L8024K3352J9733M555m0065
102071B25142q3395p4418j4145L6910L6173J2239J7315N0134O1678L2127M191K3451P1490Q8227N3118J1368R412
102054E61017L2097K8670j4170n6598o1090l3106J075K7835M1093L0025q47j6550R877M9428M2200k4103r1530j01466
102036D23857o1285k2434j3586k1852k7241k4563j2224J1734L4582L3683R390n727J2616M4321M9209K0189q164l287
102018D39218L0955O6328Q1384P4777N9478N1237N5793O2499N5532L2633N854j5754l3470m7629n1684m2748k7455
102001G96948j1684O506K9270N3618P5777Q8683P4469J9324n6761j06829j08377q9612q7567r8700r4016o7699m1921
101984C81429l0445k4966j5798k630J4649L4930M7787M5853L9751L8712K6120j4193n3895m3241J6447O4485N9575
101967E84570K8754J6904K4097K3559J2437P307P567R94l662J5212N3330P9708P6244N3482K5325q358m8591q6024
101949H62855j09767j14861r9095o6015l2228j7034k1016k6279j9774n801M687N056p206k8927m7736n1713m3693
101932A81453l4741k4225k561K3680K8518o0l7198m6688k2500R646K9006M1463N9285P3336O1096K0745j8525k9450
101914C12280k0240k1479m3575o3983n9347l4003r032K661p1j4374k9556k5051R648N5414P8540O5854L4538Q909j177
101895B45956J50M501N140M09n927j0295j3730j9207k9640m8994p4377q4593n5302K274L6776J2923l9819o0139k9873
101876a63767J0540J9917J384j5940j4954J532K2562L5915L4059K1239P230n518j5872r278K8366Q0020J06183R3055
101858B36673O7711N3096L4245j0143o4831r4435q9586o9662m7589k0070Q940K2595J5106Q86p373j2388j6791j1371
101840d987Q407K6514K2641p2j6675r823J1821K6076K0484r3k2530l5549l2986j4657J2240L5214M3560L3971J0328
101821A13884j8523m0417m5395l3983j6556j139J3112K6167K9012J5612j662j457K0667M5593N1408L3134K062k5351
101803A66168l7793l8168m2536n9100o8663m1494K1222P7799Q8049N4714J3690o802n181O929J9686K5015J4848j1764
101785A76619m1868n4547l8247m656J7651R417j8406l4368j8326J9222M8852N0094K9548J3607J8864K8281Q251m3621
101767A66367q4061p4395l0545K141J2016K4037M3276L9526K581k6952r744L6277O1122M4870P878k3736l4423j5824
101749A40411K1983M4904L0146O54m300J3449J5134j4721m6113m8336k7649r332n611j2826k1638k0671p029M56k2000
101730B6911o5362q7623o2435q923L8577O9527Q8783Q8877N7569P158k7251k2762J0193M3236N7104N1811L7044J6980
101712C19414j3738n6999r8026j14324r9003o6672l4900r555J0254K5803M2266O5852Q9289R0701N6767R64m7580
101695A60513o7774n7328l1192j3839k0230l7017l4458m510K5581K6189k149l8946o9944q7698q1457m7942m667K6121
101677c60747M0886M7067M2945K6148J2213J7903L0717K3985K203l15K6818M9315L6159P57k5538l5879l7820k1671
101659a24854K5239Q0107R7260O5811K5394J1255P382k4893q5139j25164j03169l0705M0005O6907N0924K4394J5277
101642A6031K4105L1765K4172N894q813j1964m613J1570L6080O0885O9311N2098K0705m737j9388l4961n6019o8614
101624A43507o0020l7659j6139M501L0417N0411M3974J5131n675m342o044l6500p6704q2730m5476m035M756j2061
101606i4688k2288j1855M625P295p643k6819l2922k2440j2348k0507l7084l0696P151M0516L1915l232j1283K9893
101588b12410Q1529R4226O6051L3303J8313R758q321k9919l7461k6942j3439j5262l6637o2413o7909m0001O648L8667
101570b02219L5821J2144m73J2155L5086M7705M6184L6036J4936k0580n5619o3781l8622k313K4765M6190O8557P6335
101552G2307N2088J2609n195K332m771n3111j11174j23427p7881j8004R656Q98j5491j6696n469L602O930J4595L0926
101533b25276M1792L1165N979j0148q715n359j1568j5132o65K4703M1136M1462L2847K2773J7282K3205L6695L9412
101515H1588K1924o40j4097l0659o2789q6090o4536p294L8854N4880O5001P9062O7692J9140k2760j5737J5984J5814
101497A55337k5844o8772q6824r0680q9999p5901m8070k3401o359J9887O0760R3727R6327O9689K6300k1595n2980
101480f8398m5922j0419J1960j87k0420j8373n125o129j1974N421L9143N0640K6901j804p932P59M572M71n000q310
101460g0126k815J7991M0086L6242P915o750J2398L0964P875m0615o1670m0136j2820q914j3917l158J9697L3194
101442e4559K5912J072k8499m0240j6215L1301O6616P2082O1948M6741J4393l3254n6889k8319J6825J5767l8861
101425E5821r1582r9556p7576n9209m8453k9917k898J7875K4599K3318K4185L2892M4722M3960K0099j3432l0647
101408a65799k5107j3438m945R095K8986L6794K8468K9243N3189P0086M4054r393m0060l0716j2127q973p844P580
101390a0907K1838J2572j0101j6532j357J0898M026p892m302J2080K2620K1842K3304L4694M0873K2275j5839m5223
101372A14869m6441k8373j3026j1044j7788k4025k1783p145J2369J8678L672j3456k714L9682Q0413Q0670L4314k8538
101354A70334p1653q2239p2150n5575l2398L098M3790P1310P6121O4364M2306Q223l2950o1559o2971m4947k2303L804
101336e5395L3601M7590K4800j9173l9922j8518J3724J6737r586l3207l3202j7415l072K666J343n017j4419k1676
101318a30141j9854o453J2404K6435L1294L0716K5931R829j9407m3665l7782L64M2854N8307L8153l986m7462p4432
101300a06895p5172n3123k2262L724J7818J8638J2098J2547K9104M8109M2505N173l8100n6080m3137j7242J861M755
101282b15679n351j1289P225M8235P9724P0697K6860j5596k8553j3751R456K4312K3696Q946j2163k9775l6607k9140
101264i8753r260J2634K3376K1270J7340J6144N238k4997n9329p0627n1647k0347L991J5808J6107O870l585l170
101246b02937J0254K6279L5435L6420L0263J9775J5562K6878M1992L4253l415m4695o1325n4150l9793k1885L576
101229a47513K4291K0267k005p929K2625O7335Q7475P1277M1021K4881L0946M2946L3810r716o7521r8482q2776m5182
101211E750k4042k4170j7989R939M1910N5643N2411M4337L1521R789j0982j7845j8426l1799n6084o6792n2410l1125
101193a00364k1736j5863M465L3692M7494L7475K2648K3176L6571M6124M2297K7310N730j8298l5266l2208o306K6827
101175A23768M3819L2829P65l5670o1282o7093n2773k8105n970R996K4996L7657L5092J1228j9609l9285m7169m9954
101157h6760l9755o110L2807L9868Q552k2824k1226q42M835o951j2484l310N777O037L867l51j5289l4544l5300j3203
101137a97206L210j0149l6396l7469k749L8362M9543K2266j9487m0547k4509J0160K8574J8937M361Q180K2057K4450
101119a38412J7283J8939K6427J5455j6086l4654j7133J3816K2515R763L166J1285J8898K2953L8984O6170P7568
101102A56937N8391K7441L954k1358n9086q6810p3683k9023M791O093o247p328N375K2750L9071M6772L5134M914
101084A28088k7906m8852n3960m1873j4292J3988K5956K7162L7280N2235M2851L015l0341k5841l17J2252J1128J6767
101066A27340K6865K2356R147J4551L9227M7540J7040k9216n3784m8775l4707k9266l1456l0672k2022j3102j5582
101049d516k7361k9070p210K4978M1146L1707R103r990j4553j53K2740K9352R536j1682o012J3222Q310k3349m2174
101030A4024k5118L825J6365K0579L5806N2362M5080J3938j4541k1590j4073j0685k1198l5424k8492J1943N9471
101013A02272O7220K2770l2185n0280l0553o865o11n335p632k347Q406J5181M497k4663n2676n8662m1375j2177K0432
100994h4583M6595M9209K1391j7795m2009m5845m0193k9488j2173L448M370p707j7783j6275m031J5246L4307M1628
100976a01688L6091L4004M5703N4690L8226q35m2173p6263j00564r9565o1400j0557R963o371k2309j0775J3144K4528
100958b76151K6028L6871O2649Q9217R3981N8459j2516p9219r5673n8079p004K2185K7677J7314r581m0727m3791p406
100940a95766L3139L8352J5442J01L113N940Q26L404K4096N1579O9013O9462N3380K5861k097k1579l4330m3909m4107
100921E1920k9099r085n89n860j6694l2123n3251o5121m6601q46M3472O5057O6385N3918K3433k3246o2190o4030
100903a04550k2648L9587Q9972J05199Q2626M1408R789M503K0124L6158L2598M464l1160m6513l1507q269p307l2078
100885A82396n8639o6630n5442l2229l735J6959J6097Q83j244K3667N6212O7987N3303K5986k024k4878l6860l8341
100867A23468m0621n0618n7622m9442l3969k7436k6643j2865J7134M3337M9447M1236L2610K7525K2345J4456J815
100850G4157j6316l2706l5611k3754q503K116R382J0065o040l3973m5741k2627J5479L2787K2572Q078K979l298j7601
100831f8555k6910k2384j7418k3768k6817p320K3113L3915J9249L631J240l033k0244l0229j0479K3059L1455N268
100813a16227k3666k6808j2875p444j6888k7533k9153k3330j4269m987R65N784K0557M8361O8992N8915K6680Q237
100795f4689K0601L9645L6057J6405R916K4802L8884L1884R052j0426j5957j3226j8121m3255q0942j00052p1893l048
100777a94363O5462R3510P1388K0072k4574l2138k639K5396J1427l5158n9341k8004K6781M9609K9496J514q605j1895
100759b062k6344m4913m5541k0883J1887K7007J3832j1276j9017R77K7376L4084K1520P856j393j3861k4913j8598O21
100740h3641K736k7617o5448p6500n8947l5479j5126J3696N2958P8547O4599J8026j9734j0110M1143Q4151P5311
100723C8565K5885j1921p530J6423K0749j854k9190m3707m4031l3138j7535j3395l0487m9244l5299J6862P1017Q7270
100705d0560O0574J5915k1081l9527m0418l1276k1174j3980p899l837q431k3740l8258l4832q103K8206N2231N3210
100687a22980M0392K9929K2697L349l2876o3109o1108l3402j2426j1856p954K5019P5788J07049R8178O3397K9234
100670A49321N668j6129m2132n8236m1536Q236N7472P0929N0881K8355J7477J162l1690o0100o0349m2630l4348l7752
100652c5401l0322m073K0088K0185l887l7743o4004o3266k4881L2914O9610O1388K4319q082j9031j3741m716l047
100634h3690j3543k6125j9340J6831O6579J03119J10636Q7300M0397j1376m4014n0324m6261m4708l7988k0929j1858
100617A4706k5562m1365l0890p576r142l2281l0173J2542M6625K6858k1914m2887k6096q724j1594j8574j7136j8900
100599b42083l0876l8785l2989k5413k4736j5987J5568N4665P1420O0596M7100N1778O5856O4733L9875J0066Q66
100582G1654J6514L5512L3368N382l2849n9636n9703l4274o664n875l1490m5525j7069L3076N4620L0870n225j8995
100564c6309j0601L579J7624K7406J8572j3137m2770l9735m423L5058N5337N0956K3400k2261p0312j00270j02758
100547b10644q1468m3609J7L0370L1281O917k1803l7831l6643j8651J4034N2501Q2187R0275O8623J7702m2624p6298
100529a75664o3137k4818k624j0455k5452k3158k962K2715M4399N3613M1286P406l6842p8220j00844q1797j3775
100512d70329O2849Q2751L1079k8407k7997J9382M3562J4577k3890k3517N289K0298R895k167j827k289j4230k4624
100494c29595j7880j644N231L769J6938N7827J06881J27875J02707M6569p577l4864l2551j6736q684k0145m5642
100477d7521o6118o2348l0515J1692L7154L3382J4983P170J6172K2763Q462j9060l4025k2504L508K1786K3520J9429
100459f2070K5278M2830N5548M6060J8913L98J0321L6956M6353J6716l9635q6572r3396n8151r130J7306O716k2632
100441d8191l9701l0590q329L180p692k9970m0533k8264p674j614j0621j2074N509K3047J8022k105j0869J291K1120
100422b06058L6938M7695M8985L3371J0145L954K2364L9555K5623j5985n1230n2229k4415J944N732M84J9421O9524
100404A5818J12287J05611N4990O17l7969p1406r4472p3680l137O1041N7372o746o8792q6918o9524l7914M07L4452
100386a07963M1509J6912q453k107K8094M3442K1822j8253m1156l1768o737O470k065j6958j6416L341K4432K7215
100368c8639J1404l550J187K3413M1521L8461K0604P109L964j34j1207j7714r137M651N454q127k0988k4831k8733
100349e292m3760o4979p3253n4757j9574J810j0293l6577l6288J59L3234K4404j0863k3148O701N0239P5903Q1328
100331a05006P5377N7643L2213J8891K9252M5767M5203L1284K2728J8327n3l2041n3187n0528m0212l8909l7996k2133
100313c380K121J6074J7747K0032K4465J8554P39j2749j2703j0593j7697k6770k7641k6825l4157m0195k7672j545
100295a42195J2881L093j7046k9531l0113j8466J0836N4680R0634R4682O6149K5814o821k6375l4862l1733j5019Q666
100277A5274J9990K444l2758m8396k1989K2591M3265L4887L1227N0413O8004N6455K4010n174k6326m4611m8927k5642
100259A14737J0058K5290J0169j5454l3649m4665n2988n9491o7840p7448o9704k4918M2136Q6313Q0871M4691J3609
100242a8283L100Q784K4898M5496N7408M7580J6059k3696n3597o0140m5045k7961k6299l0696j5713K1825N4167O0403
100224C8290N2822N1353N0106L0451m854l5128n4436p6119j02132j10613q4590l7781J626K3626L8922N2971N3612
100207a11874L0451m093k4605k1316q179l04N265J7659L0006K4379j001k3740k3071m298J1393J5454J8812K9740
100189c9322L6056J8468k1400n6770o3540m4456j8705L893K4988M0585M2659L8834M6336N7822L9589j6817o4777
100172B3443n3876K624M3271L4620k7k4975k9766j7831O641K6197J5403k1388m1678j6594K7995M4847K5166R61k393
100153D2640R242J9394K4137K9025L5138L4801J9594o312k2357j0034K3236M9746N2802L7875J0539l3992q7315
100136B28159j15991r5001m1222M993K2196J6386Q30j1825q178J1698K4568J0879j3315j4157J2601L5567L0232N168
100118A03588j7953k9094k7832j5982k715l280k2089m5000n4304m4216j9425J2106M1847O3989P7732Q0931O6727
100101A65030L6725R115l897j9155n7406r7292q8480k3312L5667K4688m3615r8053r2969m7808p762O908N843L910
100083b91863N652P663P922J1833K6668M7332N4924L9540J8982K0074M2405N7128M6078K5022J6862J5493m978m8474
100065I8263q2454p1698j7832M0178O0535L2484j6743m4941l1527L613K1918Q721j3880k0282j3886j3586j9170j2393
100047i2680Q235J7287l230l6554n1487l8285j0879J6728L9534N2218M8123K9811R347l320m120J0005L6481N7130
100029H4344M8276Q781l2344m5195k9357p400M661Q524R135N016j742N55J6769L0296K1820J721L680L7541O7396
100010B32477N4315P875k7900l2949k7892l1387l0742p961K8011N2546N2969L0160j1005n5314p6336o2905l6314
99993E7648k2856k0723j4077n974j0200k0387j8509r718j4820k7081j3448L0979O4912N6365K6744J5320K3166K0916
99975A18257l535l5084n9992p4768o9743l3750J8496M8119L3472m873l0247k8656j1824O399K2434L6208M4441M1561
99957A6915K1765j6649o1258q3659o1261n337M3091N3277L4476J8687K1471L1397L2954K3706P900j0645k3481k0056
99939B3293m439L056q076k2092j9354m719K513j117k295L103L872l781n808R379L2573M4079L4801J1371j3437l0479
99919E2443l8233l9595l3783j5770J1355L1302L3304L0379M3590O9815Q1571O1532K2617j0443k7011l3945m4736
99902A94392o9236j03043j23514j07448n6666K943M7795O9698O4924L1176j7501n1106n1066k6433L349K7203L6595
99885a27938K0111j9525n4684n6125k2850K1052N1481N6923L6642J489k7792l5405k2681o60K2549M0413M3818K9332
99867d3850O541j0912j6446q746R722K4919J5743j9938n3685n5390k6981N516K5453L6069M3974M8737M7124L4677
99849F2527N778l5133o5158n9984k1266K1230L4840Q149m1541p6132o2471m710N4052P4091N6251K6622j369k8416
99831e2640m3637k7930J3521M6118M1719M191m2652p3756o7674j8946M1674O1067J7883m7952p6163m9048k05L0775
99813b43655L4723K6681K0985J9198J5196O022k437k056M347K103j6999l9540m2467k0662N947J6584J4012J7017
99795a85001L1446L9809K4379p488l0161k7506l974K8564O0547Q0033P5048M9374K3241Q258o447l1650n4626n5386
99777A8460l6657j7835m793J2046L0782L2873J1242j5512k6257k0226q756K341J2418J9184K2067K4289K3984J2521
99759I2171j0050k6821k1688N04K0041K3647J2758l179j3293j0704m55J688j3118l3617m0970l1413j7226p360K144
99740g6941J6231K8355K5974N700k0889l6859l5838k9234l5697o0320q5225q4365m8723M024M3994N2562L5104J5142
99722b87005J4907L6197N8308N7911L3229O359J24J5757L6505M8969N3378N3876M9201L7687K2659M993k2014n9327
99704A61714q9819r3879p5223n5036m0177j6076K3066N6617O2331M3991K1136M857k026M844K1888K9965J7869M429
99686H0471J2795K9640J9899j6992l7683j3359K8839M1631J7504o774L622M6749Q9857R8117O1415K344m3896o1041
99668C53138n9261n2918m4662l5293l2264l6590l5112k0361p336j3323k8310k4259P802M6260O4443N3110J8015k6916
99650A26163n9204n8416k9175k010J835k277J4870N2162P6286O5677L6254J3319m229l3171p0429r1942q5625o3780
99632a13692m0108j6511J550J942q318J272M0797P1487M9719j2423o0461o4699m3679k3498p135J0278K5840L8776
99614a48863N1487N3088K8238q748j9346L899J8286q892m8317m8563r024K3407K1518N311J254P066P273o38r930
99595h1494j8427k4744k0655r22K3130L1025J5717p927k0341j7978j0478j659J2242K2293N591l8556o8608m5602
99577b47393J0736M3842L5467K0473K3137K5361J5557K0201N2573P2611M4510J883M77K7717K1423k8681o2806m3387
99559C3701n958M672j302R884L6999N1782M1906J6549j3687l8471m5020l4122k4052k2108j1107J7855M1212L5130
99541I3863J2479L03k875j6408l6531m0763k8815k4581l3798l1565k939K9513L4556J1748j3453k3222k1144j7159
99523a10791j2502l508N315J85k4107m7985m0617N283O2531J00617J15612J18289J06826P1996K2387j7960l6683
99506C14888l9138k8870m276K2588K7990P341j5442k0742j7437k0785k4529j5264k055o960k8998m0052k1641J0207
99488I6825K4357Q869k0861m2159m6476m1896l7642k9835q159K3369M3669M0669K9594L0749L6052J7817k8716p2252
99470B3974q2085n9737k3884J7147N8858Q0703O0125O988l8052m6424k7692p168O163J8664L2351M2189M8218N6594
99452A66932O7822P2508N9632K4910k5495p3009r3057p4226l1692O211K4307K5901J5041j1611n0131q0023q1587
99435e7567n7737k9156j0646m78R026J9690K8298L3460L9049N1720P2694Q9717Q3702N1560J7769J0256K4408K5497
99417D01262p450n3574p6252o6125m3588k5815j0420P502K0927K2004J5378J0316P113K44j0298j8703k0114j1263
99399A41144R655L5256M6341K8930o000k8774j9384J4583M6956N4942L4727K393k0621k6905k6200k7870k8786k4294
99381B06093j9758j9003j2436N731J7895N058j5618m903M1622P9892P3805L9444J4786Q764N535J955R809K6341L0248
99362D95260R897k2876m8123n2456l1510N009L2297L1883J4009L454O189R526J2955L2811O9425R3702Q1103M3202
99344G85757J1122p27r26k94K88M017J0291J3179N671j0755k0678p517K5343N4225N8694L8443P597j6142j7042Q027
99324I48573M0350N5591N3060N1710N3842L7572l077l7393l8986k5450k9344m6367m4933j7096J4914L8674O1089
99307A112729P5037N5101P34m8613o0783m8295m0066m0969m1721m4904n2281m4688p525L5267M5836K4114K157p138
99289I13992j7473k6515j1264K2182K9925l755l2966j8974K602k7245r3693j19973p5870j9328j3151m5158n8549
99272D04787k9643J5795M3975M1685J5415j2829j5995J0548L6636K9950m455l3360l7570k6623j5462o149N468J9880
99254D42053L4146M3153M1377L0546K0409J3452j725k8638m5770l2037l135K899k1908m1661k3631K0573N2783N2813
99236E55699L1691R074p942k2705l4174l1872j0804J1420N961l1991p2060q3668o8776m6032k0261Q107J8435j0606
99218A99496o1162r0534q6992p7150p3844n6100j4526K2295L0597K8477M1667N8659N2472K7623J0947P711R78j0265
99200A0349m660K6344O1000P1219M9269Q602k9767n1636n9366o4416o5441m5787k675L6472M3722K4674N589j393j373
99181A0726J910N237k709k4693l8541k2605J0125K9702L2275L4420L1252p56n4273q2003n3272O267M6465M4293J3409
99162a2771j6780k0172Q972M6314N9945M8383L7468L6553K5448m509k6732j8028K582m94k9875n5768n6869l9174
99144a5507j9612q811p240o515J148Q354j193k4124l2254j0064J9755K6861J3929M390L123k918j2580r586N428J0479
99124e6937k581j2630j515J6445J3096j4775l9809l5155k351L2115M3287K9054O608q221j3077j2447q484j805P166
99105f2016K1543M2738N7524M4268J754m1310n8036n2081m0846k5038L549L4862M7713M1477L6405M1234M2645K9814
99087A66199R341q094j7461j3437N162K1808J4672j1881k9435k5110j5636j3770q034Q201J3276j2848n1997o5543
99069c4587l9086R178N3136P3140N9089K2153n348l386J0667J0554J757O217J7774Q744k1100l9640l2814k4109l1495
99050D0844l9952l5934l6465n5746o8523m1475J3103M8980M5386K4237J0255M577K785J0623K7890L6188J9878r088
99032b437k0671m34L1706L8638N475l7317m1116K441M4491L7808q52j5635P594K3759R68k8645j7443K5800M8511
99013A02641K6971r145k5014k2465k3760l5346m1910k6838R991M9229O4426M5088R117j5262j9317j6090j5331j1490
98995D5495k9J0011Q638n98p279o501K739K0826L8553L4388l533n5231q2645o7460k5888J4057L8374M6839L9156
98976D9912J3128k4800n5657n9358l1321J1493M2421M6534L1698J6900J1106Q810N855R511K5639M3034M2607K0864
98958B08376p379l0291m9037o2134n7106l1519q147q036j6512k618K7597K8300k1962p9963q6459l9871N792J0426
98940b20543j1073j8987L013L8224O0302N7249L9648K8888L1718K9621M293l0952m2930k1967N986J5141Q200M05m955
98921b8719j0458r530M404K2744L1653L0155K3657P137k6782o5828q2664o5095k8777L403K3521L6667M7318N4424
98903c2770N5465N0731M4485M1255L8580K6543k27l2608n5106o1861n8733n2620m6289m1353l7792l1923k3480k2162
98885b39865l5126m8001l3516J3828O3011P6872N1202J4401p178j2298j3367j3156j307K7698N9900P0452M7649N527
98867B6726k9501m1514l1362n487L0664O5664P9596N9741J7369j9899l4526l2374k7767k2496o964K0107M1985L8098
98849A28060M570m1929p7066q2929n5712q929L0994M1508K2350m738j6635p296J3003K9930L3926K3595P085k282K473
98830C9978J4376J8769O416k0365n0769p0739o8336m1336k724K5017K7182J1806N062K5703O2454Q2356O4649J9924
98812A49423k7782o5903q8762q0897k9854M3508R2316R2483O6745M8017L5933Q043l7249p1758p2116m7977l0681
98795a6511l9420o0052n7666j5923L6902N4023K5323j0803j8489o153j734q124r074m150p125j6617j8298j2868j2087
98776a98846q863J5307M9538N5924K5079l015P427M0053N3490L4994M439j8297k7192k3879j8251k4871m0773l8936
98758a16672l254M1698N7577L9558J4540O62o414j1658j1594q192q676q256O249L1949M9001M8714M2701L8022K4344
98739B20299l096k6028k4061j491K0333K8671K5935J9163J5570K1674L3178K9522p178o5767j08425j03407n2291
98722B2601J3740N8723O4467L8047K820k0430k7890k9911l5163m0378l7374k7629k4365l6438n2266m5972l429N9600
98704a21247J08198J17036Q8130M3382L697k4059m2457n0957m3621k0693M903K0014K5137K6050J7636o898l2345
98687A11906l0116J631K9104K8362J7614K2783L1155J1143l2466n8558m5067j2408J2457K3907K1617m82l2048m0801
98669E9733j1734K7479M0389K3447n197l7169o7532p4893m2737N492K5987J0907l962P398K8250L0248J3258k617q131
98650A8616j0075j4296j8941k0438j4915K904L1083N1365L9602q512o4972q8729o1066j993M9496O9059N8743L3286
98632E0217Q323j68J4581L2714J9432l0849p8924q8270p0939o0133n3091j9736L5361O2920L3685k1514n4484n2996
98614b73871l1245L547M5122O9749N8185K7627J2393J7575J8008n4k3184l7240m3454m2664k7329K27J9607J5009m931
98595a96923j9141j6570P83K7633N7808Q1188Q6890P0940L9430N050k0824l5040m0350l6174j9514J201N577j3284
98577b1320l2241k3972N445K3262J3322o198j1255o59J0297J1396N371L021J3706L2518L8653J8680j2005k8252l2093
98558G676m6169o9117o8777l2222Q048J9928J8135L5035O3229O3338K3872k0058l2289j3806J1053K4110K0033K510
98540A4529j3678r506J6984M2842M2332J2957k4546m6342m2333k0174J592P696k335j6841k4235j9494l590J4637
98522f9505J8717j103l1271m3099k2190J7152M8977N7829M1122L174m1184o5122m8753k812L6900M4677K9121J7321
98504a0049K1005K8245K6895K1583J8734O751l0203p9687j02325p5566k3000J2971J9128J7835K9789M6904M6852
98487b4138K4846K534M671K9178M5273K7309j3039m0440m1789m0326n5723o9575n0001R72M6971O0695M8638L3175
98469a0769K6978K7108K1927L038k1973l4642l2492l7052n7758o4546k6596L1424M9812J2278l3473m2172k1267j26
98451b10301J4076K5372K4881Q025o240k879J036j4530l2330k0857J3089K9889J1537k0889m2715m7830l4511j018
98433c06195L6287M6837J9809k3220n4713o1647l8694J2032O5278Q3170N7885K4521J6236K5383K6244J6704J2360
98416d1723J2139j76k1365k3558O539M2362M6940J9424k938R831M4554O1932M3594R632j2354k0515k9454l9873l8404
98397F6587k4841j6306j8232j2945R884K9200J7754j8850m7842m9563l3834j7067j289J8068L7104M6469M4447L9282
98379F8026L8414L8850L0046P670j6984k6889k0573j6379k9317n0055n6946m5860l5159l8120m2239k5858R084L2487
98361a79802J9004j9954m4616k8107J5938M9280M6942J5920j5707k0326R770M9880N5505P125n7801p9442m5904l815
98343b26110R568J2642L5317N9905M5904k508l8738m0504l0649k6795j5612O839J3040r375k5107j686L4544L4741
98325a64584K541j2712Q300L0925K3874N01j1805j1796j5306k8534m7300o5150o8084l8790J7965O8131Q1462O1357
98307a69005L2244J1929O919J6783K7240J5119k1630n2924n3157l3146j6088j606J7743K2971o813m3246k8965M1901
98289b33731J05406J07965O8696L7549K4340M310k8284n3052o2303o9213p4747n9091j6217K7889M5256L7224K3903
98272a14100J7248J7627K4521L4511L5164J6260j4135l6163l9779l0325j4898M171K0845K3912J0583p860k0492k7399
98254a00309k8996j7459P212K3780J3922m987K859L8622O0680M1415N112j1664j3837l1291o3417p6657n5233k0460
98236b30708N737K5966M6167N6900N0953L7866K5452N631k5734n2171n6842m5037l0896j6632j132P368P841K0326
98218a68945N7590R3285Q6710L5994j9936n2597p0748r0378j02614q5713l5471K8192P7868R5300P8814M1704K847
98201b8098k1956k1664N249L9471M6665J2116l5494n2113k7994O328K0572J2872j179o872N449L4779O1147N9055
98183A08333K6112j4381m1886n3357m7613j8032K8487O4725P0113N0789K1650j4642n4956p8471o5398k6181Q736
98166c5972K5904L7939N6663P4798P7842N9891K2941k7173p6491j03153r1965m8094P411N3417P6921P0499L2331
98149B13709k5716p6156r3371p6740n0413l6520l4257k9367j6711n128l629j0124j1749O745M7881R0316J03822Q4164
98131G6756O0838N8455O5053N5805L1832R339j6670o2674j14027j29935r8246n2266k2734n311J0575J3826m908k8426
98113a52718l6343l3521l2544k6197n16L8970P3775R1512Q3919M6870L94j6121O493K5964N217l3987m7760l6149
98095d2742k9543k8341p900K4197L0698Q600j421J7712L1646J5412j965J5478N1828O2495L6560M370o899k00M693
98076A84678m813k0887k0664O276L5470L1330l972l0195k5539j4587k4604m3556m5725l4050k7412k4633j3571l047
98058g9501j1605l0032k7857K207L5053N1470N8248O2846N4148K3546j1823k4358q614J2226J0706j7982n0557n6181
98040h060k6438J5160L6684K7621J711k1572k8125r488L0120O5744O7013L0391j1682k1558N918L9109M1073N678
98022B39299l5364m4226j9027J526j6633n8985p7470m9352n147J0687m869j3013J3512N3478O4406L7318N018o629
98004I4529j3617m2355p9617q4413m7992q720M202J0506L9236P4291P3435L0891j3443k7412j9334j1505q528n879
97986c5725r950l0706o1979q2515p5321m1492P08K7866K8850J4151M631J0945K8252M6927N8678N4602L0622k112
97968c3568k2596j9898j616J6944K3858J3161j1036l1893l2918j5909L571J7194K7293L0954J9311k894j5084o980
97950d2106P850J4191J6918K8476M5347N0668L5409P574j6489k5270k1995k3319l9686n5908m3770K752N7664R0983
97932H9289R1521O0589O242m7676p1205o2872n4039o2488o4925l7558j27J1844R65j798J0327J5983J0130J1633K2058
97913g2107J6479j1746l2036k1408J001O934L130J5806M5247O1922M4134K421l1609l1721J098L5906L9941J5756k603
97894H6545L362J2757J809j6722j4259P177J7561L997j3240j3337k125J681p029j5635q404J8867N2270O6258M4009
97875B25542n814n5886q2705q0191n8294l6172l0847m1943n0186l8819j1753J6835M1461O1336O7262N1167K3918M285
97857h04o912k1020l2022j8505J9562N1151N2942L6534K3389J3123l767j7496p704K4488N2557N2184K0864k5162
97839B13402o0597o3638l5445n943o006l3821o0167o4205m9537k6803J012L0822N2175N6078M2280J4331k1258m7738
97821f5058m5820j8576M189j019k3756l7797l6342l0994k2664K032M1561O9291O5751M6355M1091N4707O3085M6179
97803A52215R518k8110n4992o9535p2849o5784m9707k6714j815J5234J7324J1478J5311L6684O1721O8116M7088R365
97785G4548k5418m0991l1428l007L0290N4112N6945L3425m660k5969q342K6476K9638j1595n1105m4950j2758o027
97767C9184k9707l7218l819L7721M9141L7631L0609K7942J0677j9058l9074m2282m3175m9220m9985l9967l2323l9251
97749a92174n0442m2812q909L2001N3306M8324L3066K1186P302j4177k5217l699L4100M0203l161n2900n4670l867
97731a82540O0960J04025J07661O3647j4773q1568r4276o1561k6728q213J0532L3298L3589k672m9681p4024o9168
97714b51492m3402k82M9295P8657P2622M8301K9798J7046j637k1590k8516k2398j3917n091Q239K2664L2875M1965
97696A3137M9167L9338O661k1321j0609L0801N7132M0173j056k9275k7249k170K8474M5266L4457k100m8335q6023
97678A16468j00622q3158m1323l858M822o659j1305m318n191j8595k2426n203J1836P177q698j3522o968j091Q147
97659a84487L2862O3209P0572M1856o306m6950o2822n1516k6307q321l441P297L8679P2238P8688O1556M8897M3800
97641A69504J8823l1214o6062n0476j752L6598M7928M4129L2085R227j5163k2832j1698Q90j114k2032n6303q3705
97623c167p5111k7181J8876K2120k543p306J5086K3067l513l0311k4373k588K795o309r946p597n657Q123M0164O1224
97603a4147M2578P664L115K6386K9669l637l4386l0026p656K969J751J199k048j3932k4087k2061j3537m031J2011
97584d2206K9640K6428j897k4289j7809l568q940j7158O058M9973O6080L5269j1436m2246n7625o4898n4811k2199
97566a55634J3695K9443K4777J6570J6631K4883L3963L3630K1210J1468K2131M5521N1809K7913m587k0359k0770
97549A72294j9159j4212J4R801n596l8669n5757m0467j5084p806j4258q682J3742K5582L728l6230n4887l4997n72
97530a21215J2834k516k2901k1488Q430N3199Q9783R7380P0557K6879n090j1142k106K428m497j5441k2471k5708
97512A06915k8666l0589k6504j4702k537j945j6430l3112l1207j262M3060P2848O6090K5796k2803n3942n9189m3816
97494e1995j3983K2507M8365M7070K4350M043l107r884k3251k5030m37L0248L4303J3597K580J9141M1345L8384N335
97475B03581l9130p2881q0974o1382k9953j0489j2725k4915k8468j3230J7506M5677M7387J8698j1820j3657Q086
97458e8689K6339L4829M6824N5356L5099p904k9310q179K0925K1405N382J517N577J098J170K3992M5942K8316j8376
97439B31313m5177l6714k4631k7069k5162j1734j4069m3853o4291l8141J8596N9119O1696L9507J3520j997l114m323
97421H3476k5571n5067m9246O834O3915O4935J8404j8909j8260J03J3460K2777L0809L1930L1565M2952N4880L4004
97403C32991k5983q3872r6910o7825l2046j6023k0963l0410k1648J3854N1266N2400J4484k3221l2547k8740l3306
97386d8499l6007k1039k162L376J1509L9977O0632L4482j6061k8363L568J4304l1916q3088p7895l4503j3443k4667
97368b49795k5021P129M5277O0057M9505K2691r839k6235r935J6906J1800k4508l7922M994O3016O9910J9521l0958
97350d3407l5685p552J2837R971N27Q09M969k826k5139m7086n2199l5932m954K7706M5075L5572P669j4547j9597
97331a43789k1404l1731l4583j0952J9994J5674l0761p5035p6160m1059j235K9915N4912O7709O0185M4119L9625
97314a34576M3844L4848P914j4939j7662j1774j3371j4373N502M3661O8882N5651J4792j7570j8401J714J5567Q499
97296E8208j2961l3086l8648k3559O604L4392M3701L3751J3475j3196m3957o4145n5890k5425k732m865j5305j0165
97278a53803J0015K7447L2586K7319J3505n081j6592j2547o16P061J2103K2552L3232K9290O909k2312m4632n0739
97260h4303l5372m465K2277K9982K4398J5564l737m1596p6910p4725l3217J2531L9919O2934R3259J06197P2352P228
97242A32316m0494m6594l1747k2033j3971P611L4207L9421J8443l13N836J9279O790k8603m7443l0213n705o249j8450
97223b7912n540L6181P3721Q3370O9952M2930N838k6487l2483j6726j0891k9732n2566o1720o9794q8189r6759p3702
97205b80509l4090o718J0838L8528O6856O5052L6264K3007M4573O3822L8811j6567m9982l6814m660O369r800k2428o1
97186f7509N3401R8709J01026O7774L6444K4685J0623k7659p1552q1554m8672l991K0816K1200O920j4838l4403l8225
97168E3195k7139k0902k9123l1897q346K7956M6208M2965M0908M4694L0771r686m8769o1196o0467p1834q8603q3895
97150b55160n4485k4082p522J988J1812K1409L5288N8817P7152O3581J8078k3455k9005k739L0105N1598N4311L5718
97132F3409M869j8463k4644k3366k2701j4049R623L5696M7855M7353M1691K4417j3169n7326q0042p1132m6895k7539
97114a24413j8171r908J0704M9035Q9118J00952P4521L8131K5851L3570K7991m296m0244n5509n3839n2556n6277
97097C4660n7214n0440l7186j8936K292J9446K1995M367k4974m3622l3205k554J7629J2161J45R30k548l7605q6483
97078b81142r4546m2012K6118N9140O0559O3979P3205O1817K3652j1813k0284j2407j1396j9072j8578j500K0607
97061a23673K9128J5185j4677m3494n4940m4572k2692m989R92j43j103k527r471j7657j1341J9078O2451R7281J12231
97042a4933J07745Q4206M4609P455l451J0208J6948o634m6111o8996o3000m1547k1645j2330j8106l6903n6928o7977
97024a87390p1646o9377n0924j2750K2516L1256K8668N1778R9278J22795R2511M0079J3375J4642J2618l998j9958
97007A13473k8943l9504m8039l9809j9741j0549j4054n805K1426M0195L0151Q072l488r354j8845j7718L395J5312
96989b3825j2754n5046n4232l255M3521M8854L7213M2169N0568L0535j3401m7687n5165m2389j4883K3534N4450N8276
96971F6483M2304K9619K1692j652m3714p8631q3412n9527j7158L6689Q3423R1525N0895n752l5412l0268j4713o649
96953D5742k371L415N015r9q11J2153K9114L2680K2874J7011K0936J4383k1621o9865q8454o0104j2333J9718L2333
96934b84L9639L8232J2385l0648n8963n5110l5058k1189j6746j5882j8449k1155j1851J0323K3229R231j5588j9652
96916a87536K202K4269K5095R097p813j7925k2859k6985l3966m1546l8198j4048K2533M7219M1542Q262l3099n8800
96898c02556n2117j4435L1670N8941N9075M5761L5576L3504L6016L7240K9028N248k7197m7507l8112k745L3636M3045
96880c5929J7258k2495m2829l1942j1402o458j3106r553O426J3810L161p924k342J3254K3224K3206J4357l978k1411
96861i4673j5441J7197M4539L7063O776j6104k9654n0109o6478m8594l052K2875Q072j1037J202K6129K8044J5681
96843a27564K4013N0515N5095K2596j5121k7103j9207r608J338J8230L0024K3174J909k0712l9612n1265m4447j6010
96825a43755J3720K0328N141r580r134N469K9807N6076O5585M4959J1257j844J2260K5396J7575L346K077O326R50
96806A55959o890m709o386l1928o1607n0120O189N3592N0235J8622L246M261r602l9023m8926k5121L031O401r498
96787G726k7022m4001o0340o2102m1988j7352n398L081K1419L4993K1361q415k1812j4143j1486k2348k2170K625
96769b67372K7737K7520J3160J1176K2180K6030J6860Q474R252J3120J6455K7221N2211Q3615J01660Q9483N0275
96752C29057J2101N832L1278N4741M8253J9872n796k3411m4333o6819p2849n6851l7483l2147l2898j8762J3379L9740
96734A62904L3620m124m2412n1001l1029p547M699J3213K4107K6218J0144j2926k6358k9096k6239j2850J2409K9631
96716G3363J8972o982j8533j3916k0715m8717o9117n2370o201L7034N5782N0809L3939J7047N014p219k4856m0079
96698a6745l9585k5420j3583r331l43J9994L8859M2306L3649K4575J9624J8209K1008K5385K3568J3207K134k813l425
96679A71273l104j562O36J647K249j323k3576o8123j01906q0256o388O2024Q0241O4245N2446M6892K2753k0158m9080
96660A48930l9429j149L5075M1898J1176l7305o7714o3618m5374l9578m3487l7823k1420p650M825K8359N5415O0933
96642a7936M0678K1114K1641K8949K1409J398j1908j1173p266j0294j5216r076J0492K7568K3768K290j2297k893
96624A01248K0478L6062L4363J8018q672l6022m6751l4920j7737j1752q519N969K0010J1493j3038k4707j5986q354
96606B1183j4687k3623k6005k7084k4693n357K5599L8784K1799Oj928N123K83q653M29K4274L6208K2712l061k1130
96586D0179k1440m584J9004L3024K9785J7061L265j3871l3364l9298k0451Q012K1635J8629J5101J4199L960j3479
96568G7367j5586P207L0363K3420q889k8667q393L6924O5622N3421J5021j9383l9520n5924p0753o7849l9972r390
96550e4981n206k7734n0365n2765l7985j8542p05J3820K1974K2299J9469K1086K9609L7527L1862Q000k0288l1138
96532i4063j7282Q704L3837N7782P9797Q5366O0405J3510k8859m7580m2115k1058O532L1149M4518M3472K8294J150
96514B43559k8299m2651l2662j0278L336r0j3090k5505k9532j7860Q667L3183L6360J8642k069j4329k2227k9749
96496G5406k9865j5053R563K9057L1415J7600L187O667K9463N1175N1674L2087N653k1762m6976n5830l8168j3228
96478A22065j3096l6388m5190j9172J2550J2253j3328k5009o046J9287K1109o71k0173j3735J8249N1253N8593L8262
96460A60813J4466Q226J3765J1818k262j6573k3522k7155k9900k6485j5086l635M69j86J973J0554K3313L2967K8478
96441A62038M615k5103l3981r433L0035N3840N1774L7055J9458q115m8374p9884p7957n1567l7286m9119n5100k2576
96423a39680K7741M1727N862k8673j0912M2966P1968M9059J0141K157K6524M7040L8776J1558j0283j5281r119l175
96405A58396o415k3005m8752o9108o7760m2759j2677j934j7990m4271n6210m2902j3317J5553L3861M3343N0272N6516
96387h9159N7117M4434J3980k9916p0389q3931n9701j4932J8135K5593K3530L0588M1494M1538L6483M5594O6365
96370I6823O9897L8716j0179m9312o9668p3897o0166l1900q930n590o183J3618M5018N1184J6230l3706o3775o3892
96352a45712m2193p249K9829N3205N8578N9918O5556N9206K1879l5859q1663r7174q9245o8610l6581L465L6859M7750
96334a68041L1545m625m5599p2040p1927n2409l1819j7050K035L2048O0338O7182M7508J4332j4208k6005j8920p40
96316b68395J6795K7678L3221L4145K9204K4293L1641N0465N7382L0383j9761n5371n1187j7615J7575L9315N0011
96299B9779N3351M6125K7069M949q045q997n995o579q200l500O503J0148j191k0030k7627j2432J8166M5161N5538
96280A94193N0609L7115J5532j5439m5114n5649m8289n1090q2962j17233j04784l7045L6042O1149L7385N402k160
96263a22338J6478M4366O0293M9457J9331O82J6471N4059Q1862Q4225O2857J8037m2529q4027p0733j7950J4935m364
96245A81112m4321n7432l6634n060K4039M9505O1188M5895Q887l1365o4646q8198r2327o6426j6864L5233P0201P4979
96227D7766M4908l626l4687k7718l164N592l689p909R49P718J708j3581l4917n6377n5509j5429L6860M9833J5937
96208d5335j2542P366N4505P9313O7551M1391J7253o322k8371m0891m2199l6042k1410J026J9537K5141K7097L6708
96190A43776M3724K9737r90k6511l9197m8363n2073l4226L015K9519K4135K500p506l246k552j1486j6649q429L689
96171B8867L009j5686m2521o2207o4304m6813j3738K7143O1943P1042M2666r037m7309m4045q343K2035J9575n765
96153h3488k0510o334K0289K9263J2348j0776k0236j6402o937J0711L6436M7286J7851l4813n4060r862N5686P3328
96135C9780K8824k5982m3759l4552l5145n0056n0351k3743L933O521m757p91J8515K1132r720m6668n1300k3127M254
96116b76992J0357P767J1219J1082n744k5233k0654P000K5833J3928j4651l1152k3696J557L6208P1717R3357Q7656
96098b0441N6596J6796j4270k6732j9589k331R065P111J172L782J4480K5973L7852M9878M9524K6371m475j7131j4938
96079A78693k9695p2060j09064j07671p7803n0265l1893j1097O566K827j7239k7193k0302j7038k3548j4867K3537
96062c98112O4858P5179N9026M5587M4523M2960L6082K9622J5392k1643o4925o7330j0179O1488Q6329N6318J5739L18
96044G1232M924J0835J5165K0442J6859n047l4340m9888m5463l0314j0680J2048K7708K2630K811o227P887K5450
96026E6032J8880j4114n1010o9355o2065l6576q520J0304K4323M5081O4774N7135J8825r535J0677O0409Q2792N5201
96008B53258J1426j0795j3912k1045l7771n0157m5036j9706J4459K9965L874m7144p2315m4635L541K2056M830j3261
95990c2368r941J921L663k366j996J0245K5792K9350J2386j2646j7004J2405M9894N5072J9183k5915m4213k8211K721
95971D7972K1744J2628j6458l5705k3452O620K2130J4628O762J3744J8508l276m7342q2124p9101l6631J7296M3086
95953i8971K3771j3144k1634Q746M0172L6111N799j4033m659K5731O3582R6008J03943P6882L5479J5392K2347K3048
95935D24570j0183o1793r1409p9093m1582j0207j234m404L201K7668M3188J8006m1717q8854q5529m3288p76K5047
95917a8389M4428N9069M8959M390m8252o9493m9205j3993N567N485N130J9652M0525M5460K6856L866l16J1867J7364
95898A38970O364l977M881K7797M6456N2551M6958K6392r693m2499m5026j5267J6602K1675K556j7223k4625k6847
95880B06045l2055l1318p664L6450O8948N7286Q433l4449m1683k7386j8506j4270j479O675j4168m8591m9153o902
95862E6213K6671J1607k2716k5212P79J2082j105o272Q964J3963j1443l9945l6391o352K0586L4959M5458M5272J4606
95843A41724l9198p1790m8501J2712O2123P5754P2730P3563O5259K7323k3062m3936k7698j4572l3324n9453n7557
95826A12097l8648l7885n1320m0296K281L5823L4633K4886L5699M7795K4688k6039n8845n0187k2120p049j3779l0768
95808e9034m2158l5854j1930J2097J7404Q513Q938K8720N0457N4643M5770M1409M4600M2867L2817K8424L7298M2542
95790C47523K4819l111o718J8422K8513j2967p6471r4961n0472J745Q080j5701j7400J2783L1678O448m4184p8639
95772G9387p7677n0084j3010J7429K7391J4198p148j5695l112K2528M7227O0026N5139L2620q33l2970m9403m0954
95754F5059j4111P856M534j8146l3589k7941j6199j6496k1338j0834J4078L4370M7323P1388J07214J20108Q3064
95737C96340K0228j9316k2119j6863k4083l1080k2700o580O333K0144L4404L0131J73k5557j5053J6838K5490k144
95719C64586l3271l6572j5299J0937L0036L5007K1902P87j1229j6315l3407n9617n9510j1037N7579R7923R4263O6571
95701E03334L4196J279k6630l5285j6824J8427M7589M9870K2355j3216k8586k0146j0080r692k57L4137P2926Q2315
95683G05712O1790M1677L8759L9286K6756M073j5848k3473j3320J2489L8264M7245M1615L5364K8866J0959j2460
95666A067754j6714N321K7225K3846M694m063K853Q951L791o832j4071j2804K661L3254O4218P4064N8318L2281O125
95647A360872k8013p3216j04433q8547k8599L0240M7886K9653P954k468r737j2421P515N0140Q2382P7732N3855M7662
95629A448457O5019Q1113Q3451Q4419Q9635Q3835N8685K9681J0892n218k4112k4648J4774P4012J03799Q4923N3579
95612B312296N7669J00672J39581J31764P5055N458l6068l4572o627J8972K5410J6548P710J2343L4964O8159R2041
95595C021375Q4357M3118n88n305L7314R0197J12049J03700R9184J16151J36849J42659J43953J58810J77181J68637
95579D629641J22526O2865K2971J8075M2252P8764J11140J34064J55014J78062J90088J75500J42319J17644J14747
95564F295672J19706J16060J08436J12884J34561J64854J93069K11686K16113K09340K04027K10966K25559K32331
95550H755264K24127K11540K10085K20736K28455K21847K09155K08691K26703K53965K82032L09034L28697L33571
95536A2223902L37210L69392M29762M66982M34534L56557L04336L09348L33281L28006K90367K45479K08228J81831
95522A6819215J69094J62087J39928R9773P3755R1108J35940J66810J68739J61746J65329J80881K07582K49366
95508A8991353L00021L40312L57532L56093L45666L30791L14194K97418K73899K31476J66084Q7205J0598m6952p0866
95493B2284824o2023m7260o0460j06137j52726j68759j56156j39499j29291j06304m2811O5263J88579K86292L38011
95478B1991543L52814L47438L23549K73352K00909J24773N8573o12o2139j29116j99165k68970l32283l80294m11640
95463B1888732m38894m77509n27099n68160n80334n63315n36922n18034m99260m56657l80803k93078k23509j77014
95449A5648144j33624q4206n3668p6720j52382k33640k68876k49892k13352j98717k15639k53088l03153l61021
95435A2850166m11732m38722m46397m55645m72836m81518m71513m55754m44837m22983l69003k89722k12987j55936
95421G320581j19097j02681j04621j07347r3663p7638r3013j43221j88013j93563j75192j72830k00069k37794k68023
95406E043816k91096l10707l21446l17420l03156k91326k94096l15300l43409l52600l20469k49662j68481j08061
95392A056587q1236q1220r2030r6668q3742n6563l4575l6025n5341o4992m6155j1565J1254J4601J3946J6921R279
95375C82476j6224l4114j2840L6783O3216L1269l7667q9929r1824n0171N143M4287N0179K5211j0345l4044l8889
95358B22517l3896l0026l0580l3603l6895l8580l5992k6112p429J7006L8022M6049M1520L5620L6143L6513K5896P502
95340B33675l377j236K56j2291l1239l7470k7258j6914j8388k2361j3446N961J7933J2318k029r463l836P573R758
95321H8166r318m4968p2413o7140l2348J972J1180k25j0179n594Q434J8836J7689R404P051J5170J7155o749m6074
95302i9951o2605l6132Q836L6115M1483M4508N0601M6189K5751m6k1260l3625l0576j2841k645k1764n5046o3622
95284a86630l8095r110J317N337J3008P162j9707l5108r336L1790L6583L59k9915k2313N066K1519K3024K1334K0255
95265a63460J9419K3382L1471L2100K0688J1585J9254L6604M3818L1868Q279j2961j8700k612K5418M2378L4679J2796
95247A96006m043r938r705l929Q774K0157J9327R687M016L226l893j7600k0948l424K3239M0911M3149K7629j3864
95228C08777p9053j36323j44109r3095j6456M4013P0806O9846N3595L3864K0373J5145J1880O312J494q64m534o806
95210A54865N773L5238N3796K8379l4289q5106q3401l8634N863J8565q54l5368o6045p7192o3824l8009j6806j636
95192b38685J8558M1698M7338K7492O967J3702L7597M2649J9686P77J0635K7469J3562k9071n9191m8696j0750K6582
95174e1681N1571O4123N9642L5522N819o816N145K5384K8410R61m5895q2396q3657n2035j1721J9271M1694N8050
95156F1391N9171L9463J3990N288J8185L8374M9119L7848l788o7777j21432j31046r6968n1422k0664l786J0054K1705
95138a42295K7170K8903L1206L1423K2897K505k6759n4182o2498m1957n755K0116K6361K7638L5246L7107J5993k2359
95120d9240n1863n1582k0332K6154O1747O1757K4372k0554l7769k3670o463p665j6359r128J4972L2847K8940J5307
95102b8529J4569L0852M6680M5052K4714n948l7868n9468n8295l5931j4145j2613k2730j6213J8887O1292P8471N8128
95084H6905J6261j9066l0105k1045q618O3J3610L4971M6657L3688J1797Q236J6796J888m4376p9781o7354k9202j5697
95065d4372l4210m2647j3878K5559L4490J2198n647M310K9449M6102N0361N4097N9550N2107K0693k3257n3050n0622
95047A21233k1844P790J2302j1854l8842l8580j3698O98j7444m6776n3729m0176l5735m9735n9048m5238j7213Q854
95029c39035K7541L4268K2808M515N278K6596L2935K64m0834l7387J9378Q3032J03542P1148J3010l4882n2005m4168
95011a03996l3210l0617k6050o834K2404M8981O8180P6924O4886L0699k331p684J0532K2713J0248j7733m0032m1078
94993D6002j8533J0519J6066j4191n3583o2744l4067N950L2624M0595L0563N184j8619j8472L329J7947P562j2352
94975a6220j7481n021J2110K7158M1457N2913N5600M7273K9453L785k5556m9440n8779n0320k7035K218K3034K3596
94957F8745O946r116q497P674K2302J8723j339j5037P30M2815Q2838R7212Q5551N5350O233n5739j03295j10296q3636
94938A08164n3729l7719l0747k8200l3083m1179m1066l2306k4073j3019J6510O3583J00921J03401P3424L2192q93
94921A62181j6091j5344j2515j9559k8937k2023L267K7228L2302J8496m338k2955k1588K315K3290J3477j4589j9067
94903H5550J0364L4305K0721j0961k6160k8387m3943o9286o9336k7548K8957N9736M9975J5793j5700k5988j3301
94886b5209J0722K9607K8536R63m1009o7807n7618j9351K1315N2158P2718P1895L7973r661l3916l2208l8824o2505
94868f2221o3038j6040L7001M1804Q079r172J0541L4316L1321Q958r172j2360m919J299l269r389Q398N4345R0501
94849A36983P8025K7802j7940m2231n8758p0750o4507m3649l1056l0738k2859m077K449j0985j9209n362J1214Q738
94831a56910k102n73Q027M198j1987k2549j8532n956Q681K2077K7666J9440Q81j8067l0192l3792l2789l5931m5680
94812c24090m6874k1177K3679N6795O3132O0713O8358P6456O6286M1193J7414l451k9228n1105m7991j9208P145O709
94794e5244j1708j6847R373N1292P4031N8935K3596K037O580J9070J9986J0581l46j4034l1191l7978k3515m796j1285
94775F8537m3042o3623m2330R685N3794O5634N3611M0114L3587K2923k069l0616l9214k0422O734K1347K6009L5965
94757A96624M9593M5764J2510l4319o5859o6177m0894q661J1456J1355p85r239p797m409p375j3643j6088j6781k4660
94738A0615m1295n6671o0468n1642l4634j2660R720K2165J6071k237j3841p532O902J1142R30r766n884J3373L6557
94719a69155N2224N7624N8290N9986N9851M8299K3366n00n728O754J6958Q563j4605l6907m8660n1123m9166m4816
94701b8745l7187k6233j6091j2417j3752j0227K138J0681K272j1688l865L0121N9407N6798L4679K3828K7075J8414
94683A05208j2889m1999m1655j7637K301L413o537j5537j9148j4750J687K7156M7605M8361K6813n985l2450l7677
94665A6280j8887J0284K9975L2230K4927J5639L46k4264m5781m7287l1521j8782j7857j3183J1094M5309O3362N1343
94647H3227J7576k0488m8970o0330n4880m1122k7976j6318k911R723J4412R886M271P500K2447M0332M2415J4609
94629f597l1034n6922l5449J7538N6360N2279J7172j6641k6683j0914J5639K9040J4025j7825l4948j7326K3706N9631
94611C1051P0387N2396J1894l9199q3519j03326r0574n4857k0794r437j5870j3010J2381L6715K8823m787k6241j6671
94593b34638M671J5857K0099K6321K7048J4239j894r676j5145k3617j8443J5124N5655O5235M0430J5333J2098J7134
94575B5831J4597J6146L8269O6728O6963K8011j9686l5708j3271J3571P229l2246o9374p5655n8035l9328k4631l008
94557i3597K5631M4332L9438J3382k0430m2220l1968Q429M2251L2673o378k0491J5040O1708O9851L9446O578j0113
94539A73562j9550k6127k0321l159O087n237k6617l7931k7978M14K9235L0866n536n0202n6077j4113L3764M7093
94521B8173L2755K3238K8403L2716K8814K5015K0202j261m0503p0963o8606m2694k2246j9466k0376q224J6717M1006
94503a7300N0602L6478k466n3358q9652q7476m7046M928L8936M8110M6643M5481L9232K0459l672j9035k2932k3114
94485c5182k1875j4575l752q29j0521k5758m0538n3033n2263k2249K7514N5511L5084l503m916M0140Q3386Q3525
94467C6166N4797L5771L2490J8922j4878m2963l7676m831K5753L3364J8915p052l3814m9517m5838k9020j6185j4536
94449d0132j3531m503L394o70o554N389L3842N5778N6356M2468K5689J0296P5l788j5173m9316q9823r7428o4386
94430a52017l0218k3523j9557J4305N9729P4739O0277N2777N9422M9986J5477j2027j0441J240p70j1965k0881l2715
94412G3838n0111n4772l0484J1855M6893N6931L4241j4450n5438m8687K148M5740M6220K3845J3926J5395O998j1603
94394A12485k6343l5971m2115l1330O47K4737J4447p927Q92M0328O7691O0052L5358J1442j6129m6361n7630l6509K46
94375F8010K4738K3822J726k6358m1383l7636l1743l8530m5808l6188k3197l2010m9502l4389J8045O2768O8766N5688
94357g3181M8359L5439L303k2657r686K8840M8552L2335J467k3463m0423m6314k9841Q275M7332O5780N7377K9508
94339A61002j809j7890j3086k771j952j141J7163M1202L5282j0276n8624p1532n7079n1676o5417p0006m0480J3381
94321a95709O3500R2400R4242O4225P818m5841o2513l9566q928K216j79M416J7825K2194O957j5112j9707L547L4697
94302B6482L5753q364o1468o7806j8861L2375L6918P913p351N607J8214N220k8463o4174q6092q1359m6993P90M0869
94283b60790O6605P4366M7346j8305q0976q7233l9154R824K9064L7858N0166M2700L619l0534k3005R030K4429J6939
94265a28051Q067L578l978o663M912J2178n843k7394j2331L2420N8260M9139M2459O2708Q1301O8680M6116M8083
94247C33641N9527L3115m0759j18139j54471j43108j00039m1310J4289M6311N3931N9686P5689Q0259M7734q437m5563
94230A52356m2582j9313l327K82n37k699l606L691J6396J8256M621n226J290M995j4967m1690m2055j7365J546L598
94210A3664L936K354k1375o0628p2633l6731J1832K9424J7163M475O736K3056N0189P2694O3583K2221j2179j4325
94192A03456j4834n1870j02915j09766o1235o226J4336Q451J666K77m337j8958m2103n7426l9621J1144N2963N1316
94174b65682L1616M2136P4304P2807K7671l074J7361M8597M0909J1211M544J4549j880m6558p1366m9295j0038N629
94156e6559o402k4231l2006k5954p301J5102K6274K1528J3617J4313J6842P403j1625k3038j9367j3302j6633j8102
94138a39441M160M8784Q3918Q0898M4655J115l5103o4713q2269p3051l6583L848K5148K6803K0413P277j9671n4210
94120a58022p0309m4995J3550O6480P8659N1992J7586m486k3014m7256o0457m1846k880K3947K8318K8691L6229L8856
94102f8957K6129M933j6905l8265m7484k4369K5904O5457O8027M9233L5247K5464R385l580k180k348k2675m4498
94084C8518l5986q488m102k5024k3700K0005N6973L5629k3143n7684n1241m1041m8236m5537q001L9737N1939J8949
94066a10433k6718n1024m5095j7862J6814M4386N6776N8774N7088M4678J1553k8053l9688r725L4040N5701N0741
94049A01953L6491J7607j4517n2766p0048m9370k098M6587P5990P4195M3972Q843n553k698r702l4533n1347m0697
94031G2309k1176k1073l7467m7860m7424m5772l6586m296L9168N8504M5388L4642N3661Q1174P9207M6973J4691n419
94013B58644k9885o4586q4972o9323l1679m803k742j6075l3864n0462n4527l2632J1174N3882P6493P6438N5476J3693
93995G0250l5411o2612n3509l0358k4917l6732l7989j5792J2216K6345K8430K9331K9044K0763N906m472k19J8282
93977f1444L5889K9840q196n6241p9616o7246m0084k2127j5824r048P524L4716O2596O9009L6633j9584n6833m7381
93959b07417n260L7833O6138P6349O0539J7415k8911m7787l9747l4249m7103n9282m5130o195L3320N5386O1428O0387
93941e2286N3441L4929N772k0633l1468l0517l1985l7863l3445j1109J3251J8452N865k345R924L5280N0037L5388
93923A0688j853k6671o568M6604P9183N4151m036l9810l1634o234M703l737k0999l7068l8927j4393K5839M6575K4905
93904F0718k1762n8104p0444o7089m9298q476M3787O8372M0627j2216l7505j9032Q964J3755N778J2099K9045L0004
93886c0777J1335k518j130j633j0316n226K1696L5909N928m3348n9963l6182j2162j2056j6636o484M787k088j9129
93867a79993k5981j8687n212J1981L0251L5904J8708q218j8300P76L7809P0942Q1907O4964L0964k213k7674m8670
93849D9258n7311l3752J9602O2085N7084K0029k174N982J6299Q741J131J2048K4320J2802j0941j4839J061L241k1056
93830A53610m2345l4994j4500o707n709N781J2174j7259o9448q9367n2738L7K2473K1441K9258M3794L6278O057j4347
93811a6511j0434o106k2600m5667m8928k9852o528Q431J6527K2988K7271K1157m223m1726o1963l9761J1007M5565
93793a81353L6469p81l3820m6383l7895j1281K2596M2423L6052J5821K184m57p72k366p90Q050K6382N3172P4713
93774A964O7840K7008k0066l9283k8188j4247j9883m1257n6895m6392p097L6824N0994K9783P796J6215M0797M5891
93756E1804K6983P500q687l9879p6939p6469k5763K3408J9567j7842l2495j6795j4397l9885m7968l223N8733P3875
93738a38472L3564r077j0837J4933K8907J7451j519r765o994r93M516O852q02k1560m3677m6437k1758J4500L7937
93719a53231L9980L1501K4067J6297J710j7778l2846l7549l2782k1438n960J0775K7206M3676N6109N3157K8988k375
93701B9507j6685o411J1156J6183P296m870j5125k5240l3773l4299k2410Q76K9303N0691N2861L7894K3865K2414
93683A23233K1196K513k4972l1808q183J9144K0628K011n265J4322M1949M7821K2910j5762m5534n9140o5950p4924
93665a5811q0709p1576m9532l2610l1281l0763q295L4518O9558P5233N9609M3353L1051J3568p150j4841m198P565
93647a2311M988k589L721K2900L7253M1264M7924O3019P0327N1546J0713k9201m7899m2557k9035l0452n4321p8596
93629B6694p2478l4399M631J9508J6005J0481N328j700k795N795R422m554k3777k9016k3297j9304r592K0469N5937
93610d6642O2613L7454J6991K5604M3037L7671R387j7585k7758k3834j5286j1801j8515k5751j3141K3455N6464N1536
93592A63899O099m5951o8386n6962l8917l8929m8413l7366Q30L2164K3369j3104l6255k8973q580P866J9156K3053
93574a45400J5763J0715K4411L8036J0885n4407r7784p4969j1843L8960O3430P7077Q0097O2323L6036K4791K8274
93557A26395L0233L0885L8247L7516P307l7133n4843l6259j5071j7296l0645l3436k3850q492J0826K4325J3090k0916
93539D0883m3225k6080J2882L0730J2318j3320r518K5903N8801N6248K2795n800o192O410N444o607o340P082L786
93520A66200l3188p7594q9085o1352k6496j5311k4177k2236J3299P0884J13858J15009P8283K7826j3657l2429k6291
93503A63543j2696k0548n5624q4116p0722k5134J1616J9875J3820N522j0745l2715l9966k3988m299J438L287J7217
93485a44235L3779K9361R79k7593l3072j6043K462M071n840l734J8823L6639K2725q595j6421R022L3538L0947J5785
93466a7402Q496q4k3068m1437k7740O933K2821M960k0732k4775l774K9028O0593P9271P6580N6594L4342K0242J3200
93447B54048R588R788J3257J3668K027k5971o2256q5353p6643m3482j5910j2073j8102j3510l162n723j9867k5855
93429a05531j9257j9250l6552n1946l8622M301N0572P3683O8342M8855L1621J9783N624j2067k0276q034J5437K9375
93411C6058K6099J6950J4156J6546J4768L966r361r208J6443N6295P6197N1764j618m3695n2283l8230k0637o537P47
93392A48420p120l1189n5753o3906n6603m7438m4107m2774l6036k0009K020J8967K1741J7561K4400M4492N5698M1200
93374c0436J6521R415K0212K4106J2233O141K2662M5193M5551J9902j5034n0763q9156j18884j14741o9908j2504
93357b79490K2286K7490K2274K3189K9099L0351K2347J0430O739J8969L7779M1966K3170k189j4977j8496k7479l9344
93339f5886l6150j3865J1234K8938M6888O7149P1287M5070M760j9331j8670j0566j1497k1400l1808l4930k4665j674
93321a5116K0830K7571J9922J3743J5841J4617J200j0680N98L2301N3165L7406m788l9209m5897l4296k0508n449
93303F1251J4134K6146J4450j3102k8254j9120o774j5977m1858n6363l9510M268N2772Q0607P5398M8709K4932J3775
93285A95484L818j0601j2444J2718M7393N9110M0997J5101k143j6560l6075n3781n8662m8543k4784J2999N7334Q7223
93267B68584Q3157M6073k650l7409m4500k9098r475K93L136J0571K4184L3926L3348K5210J1084j1173l4986m4142
93249C26133l4171k3642l0732m4858l7036J602M5088O1337M6451K3822J4571J7331J6712M686j0918j7593j4052j2156
93231C32575k1298l2330k3359J3048N3322O4826M5163K6547L5398O1750P9533Q1141P2256M6797j251m4155l6009
93214G53954K4784P8664P0308Q813n5519r0669r5468p6237m4505k5454l5134n4238n2271l0339j0447P322L7495O2851
93196D73910M2724k1230p1995p1436m8990m7848n7410l8446P998M2195M8050N0540O6505P5913N7789K6929J2383
93179E47581J4935R761j3001l2515k8450j1334o458j5051j2364J1816L2659K5625M891K134J7101J9222k862k5334
93161E38356k9728k8269l4114l4900j7912J284J216j0321r538N817J7187J5720Q187k570k0459m1598n6268o2762
93143B39328o2812m9757k0488Q535K0521K7636N3865R0276R7138N6476l081m1803m6634k6470N696L3526M0777K8028
93125D50757J1541k402k3489m9801n8043l6988r698l266j3652k0392j9379j7433q392J7435M6991N4978L8718J7648
93107C75133j786l4295q2143j16540j06364n3376J0091M9515N0029K1967q575k2959k7346l8371n2347m4941o653
93090h8961L8245N9326N3390L8027K4221J2262P106J7503L8240M8802L5357N204k3977m1005m4256l6460k2695r181
93072A11148R05Q096J1032N052q863j7360m756K7485N4988M9444O651m4670o6110m5804j0663K031j4927l2944k5236
93053E499k220P64l0420o6608o5574j7841M4920Q3013Q1320N0986J1150k4228m8124n8446n5672m0693j7013M485
93035a44702J0114q49r960J574K8906M7192M0233J7251j056m626L010J6497L3944N0798N5649L7876J802k8619k6907
93016A28127P039L9177L3060r581m9446n3223k7194l962n647k5944m0555l0297j764J2450j2596n5425o2236j3592
92998a71609M1879M3376o041m8158m7425k5271j1738J153L6071Q3099J04198P9944L2297r16l389R796J4465O194K657
92979A40582J4404K4100J0005j7341k5633q257N793l086j8379k0691k0352l3807m9731m6719k9133j7041j2958p658
92961a15902p449k2172l3588j3566K6400M2500K2288L078J3500L3531L4471K5601L0424M0139K6384j0882m0412m1271
92943A3074k1434L378K4943L5539K9275J6806J9645M0840N5592M0930M831k3608k6468j1036M228Q857M408m652j7773
92924A97375l3379m1537l1162p891M367j0930l9942n0526k6344J8473N6817P1575O1368L4620M050j8338k7012k4178
92906A37406j5453o181M1L893J0163J9633K2894J0763r050j6653o090M097m212k2110k5876j1813j712j0553k5362
92887E3825k6167j4611o417l784N279K1305K7621J7243Q323J9877M3303N2726L7273R095j6501l3723l9874l2623
92869A22170j9550j8278l7293o1452o4187l3073K0346P3849J11751J26928J11856O0088j5424p5106q3433n0330k3515
92852A45347k9784m1847k0165K8460N9320M8748J6512j1175l3314n9300q3572q8959o5167j7881L0415M9168K7264
92835d5930n468n548K8633N1257L0323r341k2227p54K5871L6398L4307K6809J3315l657j5082j6325r746K021J3493
92816A28349J1098j3986m7944o2874m5150o368L2249N6581O3593O0100N7106N7254N0761L1078P286r377k2018l6302
92798C11436m1944k7202o391o631k4410k1714K2666P8147R4599N7163n416n6943q1796q1978o4773l9973k0780j7909
92780F6151l0179m3675m4894l5689k9821l2162k9758j1699R835J2257n801k0419j2933Q060K1302K0102J7047K5692
92762a16584M3452N2430L7205L779k2398k3004q689o250k4973m4667l8458o15M8966Q1680Q1624N6599K8218Q050
92744A56365j0810l2744m1752k1464J3189K6469O718j9840k7086k1489k4301l7107m1887k7671k338J9059K7243K2735
92726c6711J5522J7895L0291L7120K3568n565k9445l1317j1359J5916L1504K3700k350k7481l5373k5995j1328k590
92708b3998m486j5450k7277k9085j8371n084R86L118J1297K6760M1184M8673M8965M0085K0097j364o741N547J1955
92689A26811p728l9480n0470l4420k0262k7323l3408p664L8373O0069L8741N095m129Q704J4145j674k1728j9721
92671B3931J1376M7959N2750J5061k7223k6566J0472K6247r914n7675o1791k3267J6054L4950M0250L1145Q22l3828
92653G0753m7171m6418n6111o4206l3685K5935N2508J6894l3018m1373j5385N123J1020J6758J9649J0011K517J5335
92635i0864L1395K1528k255J924M1856P6533P1677L9207J2066L802L441n746k9509n5169o2042m8157l6491l9742
92617f6546l4368M563N5327P1177M5954J9600J3340K50m0834p7484o2341j996M5115L7453o086l5136k4737N115K0661
92598c0973J5097J1400K6785M7840N0940L6507K5223K4618J9970J038k0564k7913j9062l932P851R780j084k0033
92580A53488l6684m2895l3971p336K8769N1460M5219K4286J4417J6530J2377K572N288J2741j0296o4981r4285n4774
92562B1925J5414M2210J3129j5340k554K9666M2573L1211J1109j3012l9734n3589m1900j7893n307p606j1170j1129
92544a1997j2406q659J5812N7491Q5494P2617K4651k8271o0225o2880m1077p227K3436M1292M5838L7831J4811j8098
92526A68433m0466l3812o217J2839N203j8685l8374m7220m9506m3376k0446J7332M9597N1457J5807l6852p0890o3186
92508a48362k3290J5057K5052Q789j0930j5305k976J6671L6857N6912P2317O6416K4056l9646p6835n2284J1416N4135
92490A8050M6041J4261l779p770j8440l6668m5147l9373l0298k0679l151J8979L1775L3410L5933M0786L3085P128
92472G4143k0970l5385l9713m3424m2633k7220O74K6251L6211K7778R755l57J1829M0997O2458N6055K6967k143j6396
92453A44877k1172l0469m7107n7461m7928k4490q594j1918k5266l7434n0939o6694o7153l5673J4077N0065O0233
92436b63046N7602N0541L4698J6594J5691L2328L9804K3706O377J3705L6348M5237L2305J4401M946J118m692j5646
92418A42017k9958l9822l6205k2439j4546k0481k9909l2020k8719k1009j901K1723K1576j3702m9852m5971j1126R796
92400b02548R59p866Q220L5058M6035L6764K0431Q619Q432K1571L5825L3241J5782O679J6586K5877J3322j3170k8993
92381H0824k3223k798K0439L0821J0309l8943p9985p2525k0914K7732L7706K1553J6583L8180O6722P3455M8828P057
92363B41821k9936n1141o1114o7152o4695m1479J764M1484N0257K5391p554k1345j1874N459J5895J3818k376k8601
92345H622m6449l2608J1497M9346M3314m128n4687p5752o4100l2147Q650M4284N6744M1057J5709L792Q214J4348
92327d294J1612K765l484Q86J9770M5266N6559L8667J901k8375m0868m4935m7837m1615j9532Q308K6904L4047L4167
92308D9912K2779o939m4633o5603n6945l0075l299J8773M2752O9713Q7047P6580L2211k6382o2438n5640k5344o846
92290A5623n494N295L5573N5420L9021Q553K871J6676J0366k1128l3390j446L6088L1523k380j6287j306K292k7107
92271A50763n8889n9143l8464k6331k2410m770K5535M1419L2115J9524K2264K6894J2055j5261k9681k5874k3223
92254B6523l1626l6071k4096q456o555j2140p739L461J101j9070l8351m4461m4993m3783k7155J0620M7353N9412
92236a96026N4845N6315N9979M0193m002l5898k6407Q840L3405L5390K9806K5756J5108m948j9141j4923l296m876
92218E0120k1057l3629l2357k7240k7718k4764o615J8351L2421L7115M9829P0912P6802N4659K2575J179j5381l9406
92200A85796n6409l9968N260M1981M2977J3255l0686p7035j07327r6844m4498J4954M5816M5750L1799R673k1147
92183c6653m4359l7038k017L2821M9748N5016N4389L8009J359l6331m9882l4261j806L4390O0287N7376K1565j9440
92165A43173l1464j8541j9424n2298q6038q1751m3235l841K2743M8898P4010P2251L1517j9751m3554l6004k2118
92148f5427j8064j9228k1114k9731m5824n4246l8259J609M6788P3590O7427L4159O55n629J5341L4315K5167n134
92130c605k5268j4954J5328L9177M2123L2378K7807L5692M5283L9417J3557j6937l0061j8880J109Q840J745j184
92112A91567J6611M5846N8422L8124r86k8378k5165J909K8045K9016r41m2754o6042n5172k3494m12m311k7362m4207
92093I0316l5642o943J7171J8524L890p167p501m942l714N76O039K460r371j3867n921k309j3610k1812n791K3439
92073B3825L5471K0862l046k0307k7116j8712Q146L8144M7520L5377K1967J2116j1878n0142o6430l1782K9948O2903
92055A06866L7658k6550q8147j14909r7560n1430m857K5718M7759P2754R3061R2430P3289N5563M7922L6877J0626
92038C17070j8685k7145j0004Q224j506l9038p0802o4283k3624J7849L8686M7574N5615N0061J4862l2981n2717k8377
92020A80779J1401K9403K0235M768k061k615l355q044k4029n8503j01469j24565j07508n9601o677L5703O4749P4930
92002g6459O0515L4283K2041K9768L4520J9901K086K168Q867n056l7197n5310m3836k4526k3711m0856n8628o5053
91984b16483n5104k7517P136K8975L1839L2619M6457O3974O5236M6561K1127J351p362l511O746Q482o640k7057l3629
91965a6800k2088m090J0348K1127K9505L0266J6370r821l1668k9852m659J8526J6366l941j6694j3035m727L924K0674
91946I731L8154L3202O453p602R183K5440M659l9202o2157n0971k9949j5871n5K5730N4420P6742Q6074P0688K4439
91927B59108l3798p2878q2945p8554p1758o2865n3449m3987k1277K4702P1525Q0642M7442Q279p559n874j469O105
91909c8610J7716K1395J0126n914j6878k4499k6732j3495J0471K1268R140m408K114K1599L5740M0475L8037K5441
91891A22986R089Q570K4249K3815j2190n2486n5163k9497k0243l8696m9496k7900P264K8854L8742N3102P1666P9729
91873A82395O9216M4912J7651r85n706n436j5372l5101m3770k5050R214K8383J4491k0051m5389m2711k0060n30K472
91854A08573o268j7081k5812k8153j7701J025R679q76j4547j1729J902N932k335o662o82L119m978k0188l5919m9275
91834a11976m9965k4629J8230M6414M1480K4606K9747N8849P8385N7835K234n1828o7697m0922m517L662j7645l2185
91816c9922j0574L4917O6824O3077L1984k323j6789j090L1157M7517K9314l028j3587J196Q091j4515m4606m6747
91798A20896j9294P266J1378n57j5218l1574n0960o3083n5240k9257J005K4927L9844M5301M2286L4740K2145n165
91780G9440n0240r1277r5699n6249P41M6510P2768P8646N8231J8886o868N240L3837L4981J455k7781k1984L657J6445
91761A00739R629m96m835p770j1370j2894j4885k0896k2127m867K5582M2428K5872j3988m7960n5169l5602k664K8877
91742b2396M9780N8207N7357N0405L7940K0699L098q259j0236o720m897o319k939J3122L3977L6821R175k8340l6269
91723B44206n6M7803N9469K2949k8978o0407o7795o6564n8693l4576k464R757q186k9793k6670q753p892k8395l9764
91704h4802k1465R778K8685L6948N1742P1595P5463N2876J7046j2645k6185j9644O510L7777M7823K4068j3865l2968
91686B48737k3378o483m996j4765j4237K755J6115P236j1419r103J9527M0063K0857k0470l3906q05M1144M6909J9280
91667C23061l934n514n367k1832m2708m6062l1202j3691k719K09r436l1296m7125l7596j2386k023j5081k5083r968
91648c9753J6189K7585K5583L0154M2283M1440K0645j27k956M335M388l642p458l506l139j8381m8013p6655q5387
91629g6415o7609l6408j0959M825K1227L9422M3441K3626m719j8728j4198M6K4342O2910R8227R5948M6922j2049
91611B19851l4865j5615J1983J9855J4846J9763L7327M4236K1518j6898l4296j1973K7159M4001K8479O994L576R552
91593C95493K826j4955j9052L129L4928N1750M4603J7451k2251n8677o7639m0882m725N332j1391k1495o013J3605
91575C02037J0591n751o260J1196J8906M525p997M528K6645K3656r878m0849l6359K657M8213P3171O9039M6821K6628
91556E61519K0391K0523J0708j0258k3682j4379R993L0582M0039M2627L7982K0777k967j4803n772J1793K1733K3255
91538G80061K3884K3442J7990J2142J1434O579j5889m6745n8507m3917l0335m2352o6144o9414m5803j8408m665M33
91520D33786O200J2182J6854K2785K6920K0815O433l864r265k4246m9935o0954l7907K065K7340L2514L4438L7123
91502D93284K8957J3491J3088L3596N0062M0617J4511q137k6329m9004o9265o9764m7645j4830K1920O0873Q7910
91485E73335Q3884N5741L7559M6650N6328L2132j6317m4463l2556j0687j3747l2051k7075J3313N8427P3755N5138
91468I09366J7802k6692o5328p1964k8978L9533Q0842O9390L2966J3746J9680K9141K9165K6462K5377J9387J0308
91451A130203J6662N0025R3075J13412R5873N4755J9559J5464M9593J02218J32034J05055K7606n4233r4774q7251
91435A769276o0432m2808l8239l5672l1958l6549n5375p7100q0129n4772j8716p445m2521j06053j51926j48438
91419G81143j07288o5896m7160m5994m8472m5579k7259J3830O0115P1434L2572j3498q229M7547Q8417O1615j3224
91402G34074p2723p7831l7971J4286M9533N1599K5672j914p400O030J8815K4993L3448M0635K6027j4386m8199l8368
91384G26320J1727O0713P6182O7110O5182Q1918R3861P2952K5262j1562j2759L207O89k4434m0327k4237O487J6862
91366A195153m886l8091n2313l2589Q026L4525J9838k3011m9856l4456N320L9736O5601R3347J14570J12150R3591
91349A546655Q2718Q1340P1348N5486N8738P9260P6116K8111k6839m0535j8610k546n337l718J2435K2552J2640k504
91331B027310o696q244k5162o1393j07965j52496j78002j67908j25572p9840o0639p3677j01781j21161j14365q1953
91315E60456m7920m0029n7782p2994o7537n2788m2795l0019n455J5803J3841k833r580m935r517k4934k2183J7640
91297A16439P1181R6815Q0884M7977L0290L6102M7765M5526L0003J7683J5643J2377M47n754R170L3047L9879K7393
91279G52867J6498J3336n26l2001n7476n6153m0953l5710l7463k5157L273K6661L1476K5744J9713J1151k189p976
91261F05115J1205N5181R8159J06647O9456J1360k7931l0913j3057L991J7144L2049M2572L7867K4576K3045L9092
91244A105558N4778N3245M1335L9503N5837P7488Q5215P1250M4018J9124O650N670Q725Q941K765j0956l2221n9900
91226A577025q8818j06054r7477o6392m0041m3218o6390p6293o0435m2241m5123o1770p2381p4557p6252p3668n8990
91209D26925m1973m1784o0455q1641r1262q3741n5870j4141J9030K8486L0000M6822O7931N8644J2795l5906n9460
91192A24400o2328n4096k7590J7273N3339N3672K5277k230r635L319K7571M7174M4646J9438q333k3756l3689m5924
91174A48528m8640k9157k25J3445P753l46J69M681P508R886J2343J0610J297j3477k5775k5073q686J0498J7853J8946
91154A12138L0795M8945M6911J8337n105M990L6111N7486N9381M7899K2154j5444m3218m4348l3387k9411j7854K5700
91136C22080Q4604J13000R5177N7133K1792r275k9742k5839p682n083k1429k7782j4385r594l0226n0815m6273l2066
91118C83595l3826m5280m7050m3800m9870n5406l9638o501K2267L9403M9353M3827J2646k4940l2235k676L0648L8940
91100B39457K9079K3996L0998L8898L2940N559l5734o5543n8582j9416J4331P445l7758q5774j02056p8777l3313R514
91082h4736L3174L5375K5514J6553J4006J0268n692k9710m0689k5656o41N587j3740l7563m4975l5543k1039j0689
91064b10196o972l795J1298L9118N5130L3655j3004m2190l2730o040J0430J3790R392n630k3796k0383J0580L7795
91046a43548L7106L1122N2607Q8460R7642P0931L3248l880m8001q5184q0346l0853J7708K6908P680q341j1068n720
91028D6471J0002L5456M9020K8302j4750l9506k0703K3975N3074M3455J1961m647Q365K7232K0880r030l2219k9803
91010B07535j3884o222j2769k4404l1288l0799k7496k7037k6742j8249n895r694l4785n0754k5550K7062O0705N4402
90992D136K9581R773m550j4783j1035M809R804q231k9994l1721j4981L647J3788R722j1400l5444l7016j5504l148
90973a32547j8137l2747j3010K9780N5923N1580L6701K7991K2972J6934J0149p30j7475k8888k3705j0939q171j4358
90955d8677j4570o928k365p77Q361K1930K4838J9543K8829N8597P8200N3529j0109p0450q9752o7304l2903j2593m226
90936f6827R245K7188K8443N366j9561k4843j8528j5855o909K4648O2558P1306M6533K1521K1009L5810M6752M6939
90918B94795L4853J1218r696r315P314J4763L577j0974k1071l7833o0965o8023n0181l0143k5132j9459K319K0609
90900D6656R122k0650l5384k9327k7397m4098o5805p2438n5986j9758K2894N2777O3279O7827P4274O5332K7376j3852
90882D4842j7296J7116M6545M1374J4556r622k6664m0285m5320l9202l3511l8399m7275m8595m1393k8649p349K2106
90864b37021M5379M6067K4881q0q722P512L8751N9644M9455J4674j7546l1587l6293m1284l8436j9950j90l40j7710
90845a62796k7546j3874J4848L9823M9705M4406L1867K2725K1186K0800J3846J760r316j7711k2473j6714K658K1567
90827A4761J9877j382j5621N84M0228P0643O2875J8287k9754m5134k6450q175j5112k7462j1488K3528L0342q899
90809I1648n2279n2997j8809Q616J4655K0403L8940N5167N1889L0614J576k6035l9722l0525r728J153J325Q208J8254
90790A12353J293m8034q2431n5510J4595O6833P2107N5128M6880M7784M1244J6695k5774p0831q6171n1713N200L1705
90772I1353J3442j2992k0050k4768m4044n1841j7275L9036O7292N3943K6251O57l1120o3631o7784l2879J3183M0845
90754b0382N0329N1882M0266R123k7046m5224l7841j2156K0837M4922M2632J7522r8J2910M2166N4715L8755R440
90736B92752j4926k5462k0287p541m158j4749j9263k99K5505K6108p50k5856l0675k4650j7626l641J7197K6673J5606
90717A93958L161R169K1330J1111k5308o1313p1768n5134k6160j066R998P887L702N587P960J770q690j0285JJ2796
90697B8706K1736K7321K4604L679k9841m9098l3963K210K6615K4835J3071J2636K3254K6545R749k0050m4284n2262
90679A5463n0214m9486m7960l1744J6K2925J4890q520p046L0397O5517N8534J8865j3450k3857l1163m3127l9593
90661a19553j1533J4105J1271n288l911J4970K4041J6169J3561K7195L7541K6935O677l484l761m495k702J0778K8558
90642G7074L1994J8675P473J2078K2268J9458M025l252R925K3998N802m4722q0627n9696l001K5398J196k9311j8447
90623B0308J3420J1673k8362n5356l8918q512j334r487n489P951Q421j237M276K7175L8318K2427K986O908K6822
90604D1990L8303L7981L9718M1381K4026j2175l6666k6853N4J1978P640J4180M0392N6650L2796k0461o5257q2816
90586A42861q6163q8109p9358m9678j4101J986k006j665J6107L6020M0758L5801L4015L1357J9047R425K2554M8156
90568A17007M9691J5194k1267k3670J558K3055K6890J8330k443l6430o4667o1044k7239R664L4267N1468N7385L4103
90550B01852j5107n4421n7618l9758k8495k4475j2706L560P101k893q600R39K0253L9608M9682L8776N041k9218l4041
90531E9480n851K8546M3227L5512J7206p18j0343p716J54k672k4144n2506o6209n5013k9901j1242n666K469K9261
90512e6126O2923P1017M0448m292l1518l6672l4886l4481l4793l8449m6203m7311l3641j6044q132k250J6562M0287
90494a93561M7585L9981M0349N4227O0890M8506L0991K0450Q726r823k0205j0233L919n396m2761q5045j04279q6634
90476b02313l8777J3769M1880L6926J7540R048K0671M2481N6109M8542K4679M282l821j7168n1632q5572p9241k9953
90458a92550K1153M2289M0593L0981J1410j2335j1735K4453N9726N2162J1615j6294j1140Q365K2910L2221L7421
90441A51245L3800K5701K3570J9911q696o3863j07189r6814l7281J9955K9945L097q524K2402N8410M2070k4946p6025
90423F768o0209n92M4217N0501L6206J8131m253k9680m8617n5601m8807k2907J7971M8488M7627L0500K8655M1112
90405I9510L3084j2819o9449r7211q3355m1578Q805N2098P6770P7984N7617K2404j2458k4616l257L4773N8147M8398
90387B24847P463n1208j05511j30062j17751q8570o0459k4694K6409O3286M8298l097l1329j0770J8843J4408j1859
90370b31756k0480n053P428L993K600K0392M7037N8212M4976K0695J754r314j6408j4221M551K7898L1962J6124N955
90351c655Q532m726m5823p2250m1838J7001L9551J7165J063J6142K9700J6999N37J31n247l2953n5255l9628L28K9266
90331a24960L9861M4909M2437K3247l004k0039k9766l9423l9612k0865L401J5388J9049K4604K5426J5693J1498K5934
90313A3778M2032M0538L5053M5554N6137L8905N255r809m865q111k0859j3647J6336L0678O787k9622m6548m7037
90295A50555m9736n6161n7405n1388l5616k004M3934P4816O8360L1870q972l2116k4419J4149N8574O9458L3456j6872
90277B10483l7201j7774J3662K5950J2228q522r481J8046N2310O2144M1320J0576j4072l6767o0532p1022n4490j8094
90259A18764J9511M5341M9626K2933k6803o6241o6308l5101l837J4896L3957N6951O1625L1559j1806k9812j5872m068
90241A95315k2042n2589n8616l6322j9106k6378l4334j3078K6980M9580M2503K6141J4808k087l2216n6936n1603
90224d9980j7334K0306L7361K8126M277j2984n842K5068N8880P1898N5816K0446j3753k4981m011L2974N2973L7634
90206C16874L294j8642j8849j6722k7074l2940p014M1637O2996K2996m7878q5811o9697l9256l3340m1263l2516o897
90188c0102J2786J8721J7362L978k6946n2672m1397k756J7212M25j8337o229J9110J9168r655l5714l5303j4179O850
90169a57678J0423p800l3668m2761k5467P49J2959J0265J0146K3343M2564N2624M3840J8821p296j5917N23L3323
90151c1007O5276P8918O2263K0358j8281k2427Q079M0239M3484J5540k7820o9090q7659o5287j2315K6336J4311l1937
90133H981o1213m7471j3171Q302J3546K0882L3920L2608L389l6506n7479n3353m1826l0275m600L7314O5013N1824
90115g0115J5735m307k475l987j4288q765K0508M4300L8124J5077r59q639j5730j6183m817L165o948k0279q301L0778
90095a8106O5993O6559L0164j7380m3527l6105j3594j810l180k784K361N692J7857N4289R2749Q7926M3107J8956
90077C49167M3161O0370J5150n7970q4599o0517m5373o0059o0475k0657K1081K2875r65j0670J21N908p499k5000
90059H4049k1982P956M1455M3477N409m2228o6694o7968n8032k7230L3266R0263R5360N1590R783m469j5035l7776
90041A21194m7554k4210R869K5835K9312L7119M1576K8564R290L963R427R571M805O755J4307J6851J2935P997K761
90022C20367j317L195J4646J5292m739k9482l8934l5092k9962k2723q648K328k135j4418j6421m604J0590K1653K4625
90003B04221J2873j2172l2812l4262k3742j6040j1931p128p932j6853j6462O982L4373L5607J3828l35N376J3727
89985A47318J2673J2033K0007K7675K4606J0606j2488m1166n9022m6824j0315K1081K8450J7091o691m6181r0497
89968H356j05594o9205j240N6003P7046O2988K9475R73J549L0144N2734L7540o915m4031n2093l7298j0811K2987
89950E2608N2400N4950K0623l1955p1902q2187o4742k9756J0155M0318M9776L9388K1138R055J0509K1833K9775K2380
89932A54366L140j0330p680l24m625j4869q807J6850L4079J8901j3744k8505j6548k863o237j4530r472L257N901j761
89912I6199n627n121j4591l2192k8974J4229O9979Q5974M7024j760o556K9407M9980J6688m4682p9899p1850m8072
89894G0156l1164j2344J7630L8641K3910k0913o2536p7816o8568m3653p620L0262N4730O1488O3694P2401P8440O2910
89876B49648K1720k7604o1989p0499n7098l1498r04K9445N0894N2024K8298j0272m4289n8755n2703l7898k8105k5528
89858g5113j7205R319M4729O0129L6986r592m3910m3729j7228R890J9232J4996J8104M0817O5857O0705J7985l0297
89840A61675m8985l8695k4608j7919r778J868M649n268j4506j5049j6175k2646j8732Q708M2574N0514K4781q612
89822E3796k1076r626P829J4112N094j1087j9654q105K2125N1016N2523J8122l1293o1456n5784k8683o802j820n472
89803c6241n103M973K4647M8609O3440N5066K6075j206o669N608J4098P325k285M835K7998M1421K0855k6736o7302
89784A99408p6352o3353n2346m7434l3133o225J3368J1423J803N087J6337J3533o257k0640j6609j1676k6214m7283
89766a46563m0628K035M6913N7628L7296J7683J4724J3296k992k5389l3607k4132j1427o430p017q262r446q744j793
89747a36855R462J4124M297j4784l0695l5223k5526r6L6772O7222O7868L3855r115k6690j1380J1981J9471J5837
89729i475J9153K7538K0064r098l6724l8348j5684J2362L2707M1056L3983J2743j1047k4615k4091j0375J2678K8848
89711F1675J7663j2461j9111K2016P6433R1692O5080L4929J5077j5381n4580o1569j9186K7896K8609j0160m4503
89694B04119n3730m7125l1291q115N352q663l6233m3483k1051Q453K6542L6586M3229L8995J8702j0858m0981o6593
89676A3855q1416q3476q3450q8481q0386l5021L4381Q0489P7527M9258L0392K5024J9780J4786J7567K1257J4167L610
89658e0137P933K7827M3765L9981J6702j6768m5022m7902j9010J7591K8668J2006l544q81M504m846j9697k3171k0387
89639e2388k5850l2206j8585J2132L1807K9388K9394N2814P9411P1650K6300k1584m3990m6294m3752l4054p786K7258
89621C3665N0207N2108M3117L5010K8290J9331J0444N952K538r162l1769n3374n5989l2539N944M0315N7934N6693
89603B58715M0686J8024n62r449j4072k2147l0533l0204k3186k1677k7824k8066j4036L392R382L411o862j8739l0382
89584E5871l3914k5502j4028p625j526P509P860o052j1427J6602O0230P0619K9753k5156m8477l5201j2745m967j8072
89565C752m3812o0283m3966K018M2387M7265K6038J0427J4580K7272L4219L0922J9308O951M705J2068J1686p745
89547A37792l1167l5270j8463M174K5538M4085M6134J8943k1490m5210n1111o2953p9347o6298j4871L1334L2797P178
89529g8205o118p338k1429m0555l1124M455K1634N24k2447r402K5333M1005K5576p53j9851k7878k3748q120J1047
89510a67394K7146M1266M7930L0033j2682m4522k9053K3447O7136P3194M8750J2589j8222k2617Q062M3126L5007
89493A63196k0599p4793q5027n6389j5169K2974M1493J8027l7996p2576m8266K727K2367N217o953M940J8755J9501
89475i8571K0648K9166K8623J0702q544j8084k8838m6451n3464l5769n127K0250L7262M5644L6101Q660j5743k0264
89457i3799j2903o648K477J8750K7070J4004n033m359J5190L0556K9750J8962L367j6314l1828l2898k2318q008J3682
89438f0300M5712O8201N5395J4522j8466k5162k0789j8745p820K0835M8941N4926M6257M4844M9703L8506N367k5378
89420C16549l1323k2495k6270m8212o3017m8136j4639O447L175p368j0299j6480m1244p0273o6699j5382N2281Q4720
89402a8665N8887J782l5281k6140N580J5909p234l3751l5278j9889j1185j2168j0720o148l751P652M2063Q1903Q8500
89383H2066N2939Q916j3505k0445k9070l7089l6069l3261l7091l6019j5506J3529K6460K0916J9427L4820N1099M5476
89365I7593J8814l933j458J9773L1909J7754q944k2753j9774j6217j6869q051J1541J7378o620l8184m1710j2107
89347A8142K5785N2565O7999P4248O6462M2491Q477k5962m9549n2226l8205k9343m0761n8781n9027m0325k1989j2112
89329g2111k02J9099L6383M3707M0601K2319j5323n4968o5862m2655j3507J899J7800M7701O8018M5383j1493n6055
89311A0734n7518k7186O886K8068L1831K0974P975N681R547M799m578M880L7401O0491M5631J0255n536N539J3054
89292B08928k856k6410l4707k5635p148J7504L8477L4717K253k8115k4603M808K8015L4268L6285L4500J4039j9445
89274B84875l5397k2770r893k2340m5058m7169k5131Q84J7916K4515J7227k759j8000j3489j318m349k0155k4198o133
89255D7258K0257M2681O1794P4294O7854M0338O148k2490m4245n5786n0825l8342m0165n8854o7128m4037n926J5224
89237e1950J2469N139P389J4060J6585J7802K6424M3174N5353M5430R355l2726n1123l5315k411K3616L1764K2829
89219A57864L413j2555j0929L401O722j1878l0789k3076N337K2176R084k1217m5329m9745l1321M211L8067M7305
89201F0741K7184l033k2081k6015k1211j0219M463J1223j42j9800k4837r551L997m760k4756k7208o083J2570O169
89182g3349j5091k4974j5706j349P263J5096L0322N1299O8494P1916N7794L6051K7385M1393O0265N7705L2192N550
89164D32256j0554k6298m7702o1127n5909m4581m4314n0535m5893k7661j0402n422j0576j8129k2557k2224j9859
89147i1487j7754r243J5777N0653O9168N3569J5793j9159l9064m1505k0825K0102N4680N4845K7293M917J572o61
89129A28671j4577k4248j2849O053O366j1240j9929o523Q539K96k2838k5520R276N4498O8484M3442R739p344j5946
89110A74350l3447n1313m4004o481L6611N9697N8791M3433K1445j957k0828l2733m1191m8635n0411l9314j4542J4721
89092B4192L3726L2660J5838k332j2898j8475k0722j1791J1760L4347L4708J1597j5867l1644l4853l0571k2741j7390
89074b0456j9019j9666l515L1050O2293O4798L4186j0569m4880n6411n0311m0385l4244k7139r872K1172O1957J00741
89056C9730J17975R8425N1228P224j2802j5976j4803m602J8511L3904J8458j5089k9900j3898Q421J2573k990l0497
89038B65892o0775p3096m7157L514L5902K8674P302N957K6259M7182N3954M1980J3366j2749o471L5996P7461Q0483
89020E23674M8458J0011j8891l6974m0928l3206l2716n0722o6905n7000l4615l4550n9310p5166o3601m5063m2323
89003a09827m7216l8215j2277J5044K8827K3824N103j1578r199J3081L8824N3898N7641N1274K8859r901m6320n4848
88985b3006k9107J0462L6331L8812L0010K4504K1989J5343J0587K1796M1109L2897k3840r7128j26764q7063j0794
88968a13862M7702N9200L2269l088k0564j7609j2363j4231o093K8680P0383P9490M8295R202j3564l1379n6976p1457
88950A4035n0998r405J4276M625j6450k2566r717R343K0085J4783J516M594L8628Q0255Q5454M2787q861k7451j5801
88931A69132n559p928o561M484M683k1042n5227o8579n5648l5125k2955j9619j7982r647J2175M2338O0694N3862
88913B1496L5274K6445K3241L830l0186m7985l3212p695K671K469Q351J6505J3735P724J8773M5152N9846M2865P62
88894B10061m5011p5210q0678o6699m7485k7615K163L9725N8276M0161J0897J0147L4846M3842J9834p373q344P185
88876A18722J5014J2765R724O31k5059n7346p0528n0846o909M0619O8046N7701J5957k1609k0410J6074N1269N7962
88858B11777M2944K7017J5995L652o271j095J4267J1033k7297p3948q6124n9193k7807j2163L154K3441J5526m0990
88840C3918j01085r8089l0628L6237N4110L4873R889j0078k1642j4628Q608K8052L6623M9836P2198Q3332P1971N2473
88822B95970L1757m672n2015o9732l7528N726J6318Q821K1688M5373L7009n694l7811l4107j6882j2183j8361k5618
88804A48059l1567k9165j0641R888Q100j1234j8180n555K602j782N404L3346N1357L5662R389P009K3789L0357J8504
88785B75342L207o220r282j105J6742K2884J730k5387k3388O051K5534J3043j5547l7722m9642n1606l5210k035K3472
88766A30861J9735k604j3237R70K4716L6284K9369J4114N735J1810K4035K3765K290k6279l9797l3594k1473j2048
88748A74652K164K6518M8143N0180L4794J8853J0605M878K34M435J8077K6680J7282o587l2659n2397n8945m5198
88730B41709j5247J1471J9174J1566l46j4401k7923k5896L36L0462L4434J0801j5836l0834l6158k4031J9488P4193
88712B62962Q5214K7925n0703q2719n5160j0426J3060R801j2863m6617o9845n5527o011M0108M9359K8081N982r07
88694A31714J331J918k446p527l895J5396M1561N1363L1843j187j9292j2065P707K3732K7957J6965n263j8991k166
88675B78655L7866O1333L9522q208l6887l0044j3894j8410m1795n9101n2188k3272J1490L3533L3673J8913L087j0969
88657B23304l0471n1549n3696k5459J5966M3122M7180L6389J6809p739k3987j8896p2J2195J3263J5176J8528O964
88639B37027k2011m3371l7027j6535o793o121O458L1481M0726J4149l2191o4925o9763n8192m3091k0710J8156O5786
88621f947R5934Q8371N0986J2755m244k018K130m538k0636l6143m3736m4428m2873l9550l1783k0952j0565L417K7807
88602b7013N2702N3556K5938J941J0032L0962K2803j5393l9519k4695J346L837j1969k1802k3711k8711k8517n645
88584b3858L2240N7859O1005N3502L9395Q165l8095p5404q4744p0164m4112j3113J4834K8557L1976M7570Q5182
88567A10795J17830J06571M7115k1520n5580m5717j7786k572p892j8028j7388j0326j3189k9782m4595m3188k9564
88550B5184j5985l354J6389M0883N4284M8951L9312M2827N2065M0831J254l9676n1304l6403k1460j6376m971K2597
88532A95048M9841N6279M1983J7169j5455m9659o1807l3822J4297L9585K5781k558j8534k3380k9822l5487k9666
88515A39793j4741l505N39N368J3076J2817l302k4073k7048m356K3929K8320K915k5822k6593N185M6748P1771O8423
88496B89444M1470P577j4629j9702j8833k1843k2770j3514k276j519m321O171K6669L7568L7515M5111N6805L4706
88478D63629l9374j19157j35033p4639L236L6162J8893o831n171K0878M0454L0206o20k0306j1824N699Q67k8469
88460A78600n0234l6773L216L8716N3839N8837O4372N9128K5036k9951p0749p3588n3022l7910l0224p375L5780O9800
88442A97498O5475L0638j083j0054o519r934k2514k6037l890L3545N1088K5140k6320o3506p1494o8338o6724n4096
88424b7125k2110R209J7875J3611K2453M8544P2962Q3036Q1937P3910N9092M0189J9124p628l6423m9520l8949k5273
88406C34914k8543l2380r012K6147K4250k6052p4188p0655k5981J2176J7470k1j8430k1821n037K0490L3004K4612
88388A80943R956K890m40n372m917K724K035j4724k7950j8807m33N283N970K0921L7142K4665n638m489M2828Q6077
88368C38664P5806K7301r449j7857j8407k1938j8982j0893j3192k2398j3527J6790L5151J8948o533n480J2502P440
88350C73946k7402n3247m2641j5316j395L675K1752M7030M9799K2558m563j026K9430N8684O5084M6700J4527j8031
88332E69564m3598o3985q2423r2621q2005m6726K680M9565P8004P4928L8754j1948m9041n7072l8854n017K7238L1413
88314B98856n942n6173o9220l6492q192k8924p7447r5008n7595P485O5045J00311J07621Q4336M4839J6585J0568
88297C00653J1396M432k704N141K7418M9409N8290M9828K6558l184k8574m3058m5515l6461j9846o302m129p170k500
88278C33682R711J5809Q616o009k3732m5633o2326n3852j9072J0509N380k1728l0413n593K3331K1268r994l7393
88260A12561l4864n332K9108M6072L3772k125l6667m2536j8875M794M539o773k12K4475L8409K7883J2087Q202N993
88241B00511o292j5892q842J097n386j8427j7403j1024k2841m3736l8741l302K6702L0571L0702M7975O3058M8174
88223B56904J4622P18K2442N6132O5088L2956k1706n7913m9623j3488J3072J7403J2714j029l8981q5806r1162l6104
88205I6239L0093M9930K7039L877l726j1204k2838k5621j7429o615R478L4091M8131L2163M755K899K7134M2365L3250
88186C54011K1460K3309K6760K0872J4790J3410K652k4569m9788n1625l0642k617J6042J1107j9395n0277m6677p150
88168B21673L0053L3110R896j2386j8947q621J3866L2734K7656P8k3055k3360j1344k551M526J1538L758k7763o3145
88149A97716p4828o0630l6839j0094K2556N3537O7512O3623N8146O2809P0969O6804M3126J1196p298m959l202k7530
88131D92614o8177q6037o4569l3385k7473m3816n5562n0557l4949j3771Q715J9500J0956r41O856L2445N1033M7386
88113A90268L1360K1888K7014L8864M0942K3865j914j6651j6401j3775j1565J887K2820K5609M781l847K8194P3343
88095D66682P9440L4623k9830q5287j18438j12191n9357N060K8048L653k0725j0513J8761M0380N4717O8558O8817
88078D32398M5034J6910J0643J9447J3178j7525m8039n1906l1300j1177j0778k6144l9960m3325l9949k9446k350
88061A85711L7981O4009N3369J9706n922j5282k2040l0017l1360l1729m5502o5301o7886n3002m3002l9152j6142
88044a05561K7992N4980L9625O709p825j641J2471L7702P3933R4136P6892M4060L0858L4250K6817P935Q60O347Q61
88025D61401j7931k2833k208J9858J9663K703j5076k9913m0492l6763j4243J4734L6118M8095N0714L6412M377k5279
88007D89337k6734L087L8182M5932J6124k8346n1087l8477j4193j1337l5322o4314p9221p6570n5014j0760M6310
87990A47597Q7545Q7694M7745o422m2621m2710j5363J2378K4700L1962M5087M9196K7688K277J1562M6517M8542r865
87972E53509p8361r1139m8709l634J4771K1442L0773L3642K5247K0697K8187L0995J2510j7243l4909l2450j9913p414
87954D38001M105J7537L2048L9854L0659N103j7601j5903Q802L3330M0279L2206J6934m074k5350l2426k0535n801
87936E77168l576o498M79J3404J6843J0918Q889J0346L35k1272l2062j7569Q623K5469K9172K6418J8634O722k199
87917F70244p510k1438m5767n6255l3353J307O679k2456n0288n1345l7047k3689o510J6449K3878K176k3652k2056
87899C19367n054j0833m0401m9702j3535L6562N6860M8375M4961O0661P5515O7723L6456p448n2833q5146q8706o2334
87881C30488k4864K565J5322K2031K7870K7677J5272m064j3258J088L1434N2574M7668K6993J2986J0682M851j4316
87863E72999l7464n2658o1721p0727p5137o5824m2154q250L4811P8951R9876P9390L6798J5904L2176N0056K6377
87846F13403l4291q2368p7134k6101K7722M6856K5560j4820m6275m9026j7047L5950P3765N9445l274o0484o2219
87829D09662k2248M93j9968m8059m5582k4673j6633j5261J1009O1503R5715Q5883M7955J3374o380j8556l1489m8114
87811D28631o4788p0315n5879k7632K05K1385L4226L0494R281m218J6508N3996N8017J1492m4800o6581n5042l3859
87793B41121r076J9608L3244J5580j3279j9389l120P360M005M359R522l956l7696n1954j6922L8505N7708K7383q455
87774B94548p521J8720K4339r410m8236m4979N213O1257Q3364O9441M3565K5638K1462K8600L8276L9807L3829L2104
87756G10017L5142K4267j0000m7353o5118p0556p9631p7569l7131K7258O3547M8877J7216O122Q864M06j8231k9198
87738E06929l0283k8605j6949J2944M1893L8572K006l6239n2031m7298k9721j394K6105L1308J0396j4256k5697l4142
87720C53538n2080o5524n1989j6636J3210K6033L6215N4894P2232P5653O7212N1804K3467k0775o2355p3117m4322
87703C87460O791N5243Q1328P1211K4664l2554o0593m2233j567K2179J4688n681j4165m844Q543R342o380k8232m3619
87684D41581m9110m7487l7904j7180R896L1604M3373N1979O2038O6298N4404K5927p550k8815k6949j2959j7666n5408
87666D86072r2629p9099j5436M0194M5656K3887J7446K7013K9181K8464M5663O8253O1338K6526L595Q137J1786m619
87648G31428k2194k6213l4631n7879o7346l8243L935J6609P53o636J3184M7030P9125J00649R7647O2803J6177j5906
87630I00292l8651p3284j07408j01219n1259q382j2762m2592n1429l0264l238J8025L9713N3635L7954k489k7322r741
87612D89579K5122L2103N985j4070r6K7615L0876N026j9919k4153k1390l0927m5755m4526k5233q170o661j1366q133
87593C55907J172M145k473p375J131J9405K9022J5025j5505l7423l4767j9608j5715k6142k8648n865L0759N3664
87575C16709M8531K4146j355j5407j4679k782J3248K7686L7894M0069K7310j809l4322n0818m4636k6621q134J2283
87557C47313L8146N8234N4053K4914o238j7740j1738n074m890l509N448J6914K2916K3732K6260L4760M6291N3679
87539G03471N0972L6147R868k4931n8434p2833n7438k7829j6774l6009n7972m9511j4700J4159K1651K1597K4466
87522D65900K0133L957m300J2708L9966M8348L3511J5274L592j1184l1371l7167j1441L1974N8640N0242K1925J674
87504G12381r49J34q781k1961k4319j2859L708K2750M8212P0928O8047L4473j49m045J4883J9094q752m4914n7179
87485H10702m1875j9523o498n265j6916m4583p5962p5525j5700P8834J36172J05552J5382n5212o1292k9056p968
87468F91267j3323k9135m2258m8265l7679m438L4803N2340M1397K0019M511l968p644n519q11Q43K562J1306K2365
87449F88373K5833K7497M0847N5059L7746j7152o7795p1317l6248n916j032l826N537K3526L8874N1253O3196O8562
87431I23017O1769M8762L6694K0669m993k7289k3903N282L1392K8717J612k9257n4210p3574q0575o7266m5140l7145
87413G14562m4797m4368k4301o109j3811l8858n2554m2003j7093Q451K5593K7031J3672O49L467K2873N2914R0617
87395F75935J21926J15368N7659j3616m3929k6009j012K315m685p226j2774k4710k4168j313K0995J9533O398P843
87377H68530K4672L9052M6385N3039N2721L4096P561l234K841K375j4297k5885j1997J4344K0740l499l1290k6637
87359A049517J1421M0348K0739k9603m7924l224N9755P4104L2250j5016l1909l3705m4488n4516l9959k643L3350
87342A018497N3246N9901N7669M6582L0607J6661N119p043j4233o076J3728K3802P438k7434n6188o0436l7745M676
87324A128771N3834Q7997Q3512L6004k7888o8656o6088l2264K524J1631j2522n1226o8799m3947L734L0141J4024
87307A080782k3408m9771n6347n3047m5940l5675k5857j5442O889M1631O2034M3575N127o733K3620O3837Q0201P3475
87289A168951N7418L0658p350l3261k2136J4669L9082L2986J5370J1856K5165M0301M4642L6067K0466P552L490L597
87271A489523l965k5111n2716p1624o8791m3320j1998R93j0787k5270j7394P631K0660Q624p975l825J8628L5889
87253A239172L3658J8878O079J779J443m481k0561l8688m3050k6220L044L0073M6520M9892M0139K3094Q824j020
87235A368575j4739l0072k4959J3242N7705O5206K9653r674j8245k964J0098J2528J1452P427m010j6671j9080j2370
87217A423102p174n478m00Q197J3444J6359K5089L6422L2734L895l6960o4386o1562l0576Q821L0611K4146P109O968
87198A430361K7552M4921L8432J3263j1814k5584k6337j5042L449K0315L1491L9544M2406L1286O859j3966j7440r680
87180A610016m363l807l098k539k482N192K5338M5909N0879M1092K8002J4136l239j6198j4825p450r596j4915l137
87161A734915K0763K4442m276l4054l0396K294L6327N7412O3716M6921L254m5522p0014o8632o0686m8725j7357K8262
87143A638644N4664M3853J9495J2200J9332K0046J3903J8400L4852M2459K9406J0933R712K9957N6047O8094N6070
87126B178067K7910P255J4658M5520P1771O9452M1464J2122L391J6085K9110J8644j5141m3134l9388j5475p445k7501
87108B387365m8343m3956k5107j7231k0317j6272p033j5092m2954n9660m0321Q97L2752M6681N5988O4664N9019L1935
87090B343015j063j6827p131J8649M6099O4653O8188N4561K7043n137k8866l1829r735K7457N8030O2874M1531J3200
87072B724712n39O007K1621L1114K5363L587k3913l5633j4927K6634N2581L9483N251j2079Q18K2529K9750K4589
87054B926948K4555L7206N2607N5508L9830J3627r014k2375l1547l6647k4283J2093N0784O0882M2367K5947K8856
87037C247344L3418J9530l914j6733j8230j9377j7984n692Q179N135j0882j2674J5825O1497J00568J17514J02391
87020C605915N0784k0682p2865p5005l4760J0789L1248K5035J1050O814J4455K3070K2557J4321P053M239Q63p572
87002C617309j8179k4377k2854j6010j0224j0169j0829J841L4773P3094R0394P5902M4308J6541n07j0038r731Q625
86984C829869M3642P6760Q6481O9757M5178L2414L2051L1321K6370K6529L3425L0963Q669j5766j4788J2862M2268
86967D398005N6567O0811N9390M2545O652l0114m7368m5037l2613r275K6355N6087N5009K4646m683p034J7011N0250
86949D677204P3420O8501K8765k4212n0018k9776J3255M4577N7808O8671Q1558Q4907P7226P4424Q4202R0837P6647
86932E497996M7146K3305J6358K1930L4504N4387P7520Q7020O3600P837n0009p0648m3642m39K0516J8125K3322N0419
86914E879247P5415P1827M7531K9128K5770K9031L5820M6944N1538M0724L3083N5808R7016J08556O9050J6776J375
86897F714639K4391M9488N5165N1792N4289O2481O9400P1164O4649M7093K2250R72o638J448J7025K6805K6299K8671
86879G381383M9369Q0519R4841Q0498N7416N0867O2876P9108Q8766Q5938O6693M0268L0165M7584P3761Q2899P1758
86862H524709N4133M0855M0209N9644Q6706Q7091M8004P344R432M5508P2371P9059R3736J26567J48799J38266J10337
86845I772770R0689Q5385Q8084R0797P9961M9440K3878L7807Q2950J10737R9998Q5041R6893J14202J01969O8725
86829A1079326N1076O2398Q8000J12985J25418J10357P2973N1950P5728J17541J28983J08564R8388J15945J30009
86814A2529641J12462P9696O6691Q2901J08912J22266J15658R9024Q9401R2733R7798R6042R8133J15312J33878
86799A4040548J30708J09180R5015R7287R8795Q8130P7420Q2146J03251J33057J58104J54570J07703M3467J4125
86784A5533506L9669Q7205J21267J47937J88943K36558K63519K63765K53486K37040K00267J41623Q8664P3669J01813
86769A7978931J48363J82319J91772J89219J91463J96310J88026J66157J53206J65119J88309J98410J89939J73728
86755B0501271J57078J44125J46227J71181K06482K31426K41399K41877K26445J88007J50459J56431K11277K65731
86741B3239416K72874K43407K23625K32771K46727K39239K16355K04868K20105K51724K76157K80044K72018K68662
86727B6687992K69264K54765K16819J75634J57398J64037J80386K02720K39052K82500L07295K99395K74462K55195
86713B9966914K43949K30274K15644K14995K35281K64555K84967K90363K88951K92077L02277L11805L12592L06066
86699C3760710L00652L01192L05345L09597L13242L16087L17344L16796L12455K99535K78582K60895K55762K56939
86685C7905133K56734K69093L13855L73211L93322L49495K87885K73784L09939L37824L18782K81979K79521L17571
86671D2268128L53174L50669L20593K97608K92526K82150K50504K24399K46302L13220L68923L69476L33788L09068
86657D6580528L06856L03722K92704K95779L22224L48211L49904L32093L10531K86068K51771K11743J78919J62167
86643E0533220J63088J77115J94658K11671K38040K79038L10188K95697K37431J79292J52640J44771J35998J36624
86629E3389471J60213J85845J82716J58670J48630J60584J66740J47775J13695P6939L6387j682j5776J28J9443J5950
86613E4945728j411o297M277Q709n496k8340m7162n9227o1098m7310l0958m5404j03707j67219j80853j39368r4654
86596E3940210r2754j27994j68111j96629k10894k04304j81585j75308k11530k66021k89859k76515k66731k83217
86582E0988758l00125k91615k75075k82543l14324l44223l53038l38394l09138k87196k96700l32897l58655l49533
86568D6555302l25485l21015l42733l75029m06851m29719m28395m00519l70930l60996l58276l42746l26658l35332
86554D1430618l59086l60714l30314l01690l09812l54753m10721m51337m63210m49341m21889l87857l51237l30367
86540C6148290l46830l85107l96822l68855l49869l73051l92516l52334k87904k86352l57230m18412m16473l87070
86526C1029465l75670l68938l41404l12093l08123l12617k93638k56747k31287k28562k45395k83756l34843l67001
86512B6769391l61082l37035l18160k94917k55808k26874k40461k83823l17740l29801l30065l11156k60106k02469
86498B2699894j85315k11912k35652k27686k11909k19266k42299k54856k50174k37068k16860j86839j57449j47287
86484A9715322j62910j93630k23675k42119k44226k31615k14002k06874k20028k42698k45154k08554j55041j32281
86470A6792515j59622k03871k20098k02430j78663j67265j61664j51569j37870j25191j16590j17361j29237j39110
86456A4581974j28985j02331q7134j03317j34549j43386j15152p8494p3809j02797j24345j10556r0387j12342j71719
86441A2902671k10589j96444j63021j53186j56548j37201r8091p6295q5317j01096j03079r4778q2786o7680n9800
86426A1116760p3367r7654j02556q3157p2367r5377j33446j48495j26857q5138m8033l3941m8388p6289r0152p8778
86410I722765o0345n7292o8015p5086p3237p4985r1194j16556j34045j28506r9527o6368n5183p3492r9678j04551
86394H344705q2170n3601m1045m4919m9271m4846l9735m5576n9759o8523o4682n2719l7051j8367n407j4492m5741
86377G576801p2502p0827n2162m8934p0185q8519p3446k5751K3029L6687K068n8663j04841j15263j05053r6227q4203
86360F572009n4177k1419k3304o5056j01608q9321l6919J0871K4834Q726k2251n7198q4313q8406o2409j7653J9974
86343E912380K5233p992n7466q6713p7032m6042k9745m5575p5871q7604o5845k6637J657O251l430j2891j6827j4998
86325E290853o627K116m376l1486n8139n7593l4502k4463n1249r7538j25289j15666q1516m8056k9892k4144j9411
86308D483022j0188k571m796j5068k4020k7676l1562m1126n3146n8176m9545l0444j2151j155J1054L5474O0727N6251
86290D284904J1141m3618o7721n7206m0637l8032m3935m7162m5528l9421k8828j9163j5219r518P528K7511L2460
86273C867556K2512J4463J1420l147l5112o4884p2615o1644m8601m4784n2922o7158p1955n7327l7105l2184l4719
86256C231794j6191K3002M4007K5199k395J795L2977N4059M4682J2181k9330o3664o9824m3490j3743j2981l5951
86239C182127n1035m4073k6436p397J2593K3491R658k3470m9606n2779l9236j8147P172K6661K6117Q746o582j4335
86221B963469k8204n1345o4648n6686m3447m1634m0658k0968J2550L6224L9034K9387J5013m826k6836l9953l8881
86204B637591l0396k1448r472R586K8230K9000J495m1802o9509n8085j8358J0562P00l4826n8089m9064k2439l268
86186B300408J188M82L726J4222L4106O0081P5340O0988K1739j1217j3141N399J2832n606l6692o2520p8979q7582
86168B294774q3611o2260k8915N173L2774N0196N2652L7830J1502j5038l0778k8281j0751N89k0359p3034j22066
86151B010397j33843j12066q1307m6445M974O1925Q3773M9899p325l9423l6646k4796j9250r795J0104K6692K8674
86134A765542K6297L2986M0660K9701j922l2981m0987k1096J3331L9411L7759R235k0832k5451m659J6695J9150O235
86116A889074q179j7039k0632k1751k6306l8683n1078m8002k7579o913J162L925J1852K0285K2561K8290M8285O8842
86098A828114O3452K9191q187k7364l1946l4093l4033k3818k232J9436K2428m520m5640o0860k6439K8658M7373R568
86080A749088m5446o6740m4548p829J3325J0600n078j6359j5529j3864k8152n5771p4273o8666m5969j9258P052K9646
86062A302229M0323L7415L0205K3773J3653L726J1331L9649N9754L9567j5636o6850q2032o2841l5263k2445k3880
86045A292678j8433O136K9918K3888l579r418K3264N3162L2256k8156o8473m9394J0680N9914N8304P247n0523o9689
86027A299782n2552m3825o1507o0965O53Q7785J20143P5285J0678j9355k1168k2314k0907m924J0583L212j6422j8758
86009A265424l201k88k3763m7369m0590j0152R526J035j4880o266K9135N8413N0992J5345r955k611J4519q41n7134
85990A227339j11517j13710o2643o234J6814J6960K3754L5752K8948O660L314K9437M6997K0545l1888o3207n4205
85973A013116k2131J1320L3776L5920J9723P144J6101L2594K8762J684k9319n5740q2084r9740q9643n3314j4658
85956G53511J1739K9623L8244K9337J1463P777J9756J9684p433l7219l7108p934K0120K2992M952p929N095L1762
85938I08432L4124j590l5855k3479K0609M0133J7802p317p477j949p630l297K4129L7986r42p0529j10711r4915m4964
85919F72560P913M1479L7339k265l8199l1181O370K5671N786k8422m9216n1612l3845J0115O5296R4103P9275M7902
85901H59069L5642M4092N0085M2283K8966J7255L404j6002l5200m4645m0557k8316j8080j5628j6758j3050l031N803
85883H55332N744m081j8748l0824l2587k0367L34J5896J3766o316k8388l1412j1403R146M248k1451l3739j0030L1966
85864F87086N6107M8250K3150J34j1945r341Q744L2271M3140L4392K0674K1335L3349K7888j9282r3089j42896j29681
85846F30286o6830n070K0178J4818L136j793m35J798m170k2788l7255j8962L1286O8272N0495n478m0416j9141L6001
85827F33932P5996P2184L2605j1992l3800k9414j8432j6436j4836L822L7615O5412P1096N4663K2916j6508n3191
85810H75632p9470r7821j11636j11269q3479l4711R342L0501L3726L4417M0970N2203O1495N9020L7278p07m0719
85793F74772o5036o1209l0948M709J8731O473p111L59J8197J8994j658j9597j3362J5609N2065P8943Q0507N1812R495
85774H31745k0643l0309l1570l3524l1872k4875k3796l9416o7504r2506r8389p5622k8386K3230N7856P0877P0156
85757D55452N8607L5735J3242Q929K0966K6307J1875q022j4291r567j1365k7815n0147o4320o3300n0741l5875k2926
85739B72744p148J5195L8573N5984O6050O2884L2794k0274n9186n1428j6169j715j7055k1742R235M8715O2742N7813
85721E28012N7278N8610M4871J8816n593l1248o5770r0819p6527k6256K0467L3247J8611J550k48J8630N1273P5559
85703F30463O6073J8547m3205q6688r2636o3129j9590R784J3196O366J2493L5106O0145P6584P8604N4208l717p1666
85685F80938j04434q2861l7895j3288j4317q931K3836O2288O4961J8573m4673p8540o5654k4619J8706N2865P2715
85668E19670O8189L5536r077m1662n2122m3918k1000R213K6817J4632j6160l3541k1792L222J8171J5720K72k2178
85650D49992m1804m7188l9172l0579k4991r913J9791M7396N6853N5858N9272O1411M6558K0942J0413K4434M2344
85633G01617M0465J6542j7486m9904o8970o5789n0053m8387p0615q8260o6022r345L9501N2061L9927K7193J9241
85616D01716J1172Q351J7991K9078K1884l106k2936k1638p767J598J114n379j6307l0391l8479k7560O217N1594Q7940
85597D65092R6426P1206K4105k3451n4986o5277n7477m2514l8321n4891p5283o4818r191O4246J11097J08829O6215
85580E21007P722l8577m9386k3604R716J7576r82j8665k0008k0231l6737n6945m9598m145N3074Q4027P4435M1341
85562D90020R614j1390k4239k5246n787K5537M0038K2093p101j7295j2624k3798n7944q2164o6527k2269J7024L5760
85544B83702L9945L2578Q552k6197m9247m3039j3367J8506L7584M5668N3024O2951O6735N5689L5794K3431K4526
85527F56835K5018P383k7153n6991n8088k3540K6791N3522K6185m5131j11737j29022r4822m1079L545L2041M8012
85510B91769N3172M7655L2160Q217j6872k8970k2027j1025j5585l1103l3028j3530L998l503k7588m1308l2141q207
85492A52084J9275M3907N9215O1038N3555M1525K0631j0398l2798k3578Q926K6424P582k3968l2581j6960m691r895
85474C39293j9213j9071j4259j1807m179J8273M8204O7540O7133M9149J5331l2292p8177r5260o9336j6751K8323
85457B72901M2393K6324l976l3521n5020o5144n8833l0737J5476O2162Q9731R6493R9199J07410J04330O5521m342
85440G30367o7365r0421p6448n0601k7546o981O661K417j5449k3161o910J5661J6721p519l7453n7644o6570o2319
85422A75440l8976j382L3867N9036Q0915R8059R1457N3827J1955k740L726N86j8100k6675j4580p339k4318m2593
85404D32165k9675M600J9922K583k0308k5228k0153j7566q006J7853M0070L0596l278k3921j4384l76j1315l9119
85386C34460n2838m2156k5065j5025j958K6420N9646P4291O2036L6246J2878n281k5309n2290q0366r0795o4889j0023
85368A39982L2421K3633k5171o0096m6703o066K2983L6188N5012Q0297Q7157O5709L7524K2777J3986n319l3335n5160
85350C85819o3163o0059n0207l7156k3370p896P723J1873l119j9536j0646J5333J6674k0391n1384l1731J9320M7463
85332A25547L8870K7350L4712M6121M6793M3535L9366K0337j7683n4913p2714p0383n0252j4270J5187M522m2016
85315A20109p1688m4963J5664O0392P0547N7201K7888j0466l3879k4878n033r550l5339m7262l1444q118P220J9738
85297E6139K8303J8025r216k6638j8280J630J5859K5358L1050K1420l911k1631j6446n829j1577k4136j9367K746
85279D3499K1724K9081L0908K4695K663k1510j8671J3709L8841K4774j4739l8954k8795j122J8950K3229J8549J4300
85261A81131J5867K0325J4745j0807m2521m7169j0497L6340M7291J8157o769Q630M8042O8707N5724L0093J1614k423
85243D36480k0653l9155m5488k9903Q195N2633P1325M3260j1815m8351m5599k6280j7895j5752P72L1014N1713M5713
85225D40214J6661j9026m1067l3200Q38L1424K8927l236l3145l7730k3120p679p3K32n965j5120j6930m780J0973
85206B88198J0217j3046m0125m6374k7893l457R717J3583J7976K0457J0121j0299k0830r063J2275K2009J7059R937
85188B60462L722j4171m7470p3369o3784k1990J5778J9972k317k5376m0295n3713n7543k8246L3789Q8677J00409
85171I4535P8756N6028L8476J1349j8094k2549l943j752l5075o8981o3754l2113j5295j8197n533L8570Q1133Q2878
85153A96439M8825J9995K4181M8569N9095L7042o545m7036o8529o8233m8316j5593J3044J9769N328j1738k0234k8550
85135A57513m4160n3557l6406N786M6935O0966M2581P041k3524l5238k8990j3196O274K3679K7950J5068L980J9664
85117A82366N5299P2356M8883P718j7656k5732l5367m7944m7690l2839k0439j8376j3351O336K9092K9994J67l6933
85099A35884m2842n119M2194N3256K4864l667o936j616p494j2950l652K332j8120m8989n3595k5909R268L6456N4497
85080A27862N1019J3472l3925m3972n262M4008O5870N5645K3215k1411n5050n1723k1736p746k5514m0854k3967P345
85062E7276K4065L3512N5808P5402N6287j023n1394n7818l1428j4779l5885p8793r5979n7532J0265N0581M2882K0954
85044B401J6737J7802J554j8884j6831L06L856o542m815J3248K1319P302o419J717K3330L8261M0275L2983J8844L943
85024A90387k289k730j2432l2167l8177j3211K4370L8823J7857j7881m0226l5916r300K2339L7104K6113N957L377
85006A61998K3588M2673L6835J1252q987j2158j2035k4229m1340m1706j8994Q627K1230J9190J6036J6825J4230L761
84988B16796q689j7058k2803k6738k2640r618l866k1315m7633m4835N99N0872N6066J2279l9059o4234o4169m7837
84970a03882j1021M2496Q4435R1114P2993N2339K6955j5812o0746p4636n2975k5020q581J0079M3526P8450R5463
84953B45177Q9585O0354P747m6858o2951k8851J0912K863n0468r5700r2114m8801k095K3195K6526J9884J1324k49
84935F9480j3866j6346K943K8787L2430J2477j35J0975K2582J2958P45J2116L0487J8754j8344l6938k0849m362j5814
84916A28080l4841k8217j261J4208P693j726O87P408P142L395P672K4015M6473O5474P1350N6609K2712j5730m0344
84897C40799m5412m0280l3206k0865r57J3318O074j5924k6389j1032J7079L6709L9314K6913M882j6422k7644l4551
84879B12406m9733o3624m6114R477O6668Q9270Q3383P2601N3569J0177m2560o8943o3829n5546n5334m2510j0543R630
84861A08445n617l2246k9372O237M0552M7027K9757Q314j501O046K3647L3199K2179r42j5076j0353L143J0133O629
84842B50201q37p519j6124k8717l7540l1416j3053k240j5256m4909o6656o1392k8942J3968M3529M5306K9351K0878
84824D8632K7908L0324J2963o362l607R278j377l7778o3451n4415k7909q867M163K1216L1824J8982q971k3318q726
84805c9491K3100N0324N9013M8319L0531K4514L7930N5478N2924K3686j3963l6173l5529k4009j8091k3591l5277
84788A79695m7811n8909n9879l6242R517M5951M3544J4877J382J6848K8487N900l3243m6846k4337M278J1635M405
84770E9252O791K5994M2526L1083j2320o2876q6690p0305l1790l270l116k2456l5503k4676J967K1837K7695L5704
84752a00153N5415O5946M1714n754l6315l1483j1289L046J5974L4951M6020L2814M438j5852k0139j7416j4853j3768
84734C3296j6927k4374k8088k4455k4799l8746n4297n1523l1176j1845r81J2264L3085M7208L8853J2216j2205j7458
84716a59952k608K0741M1255N6899O8983O8823M1522r850n4435o1603l4760n090N370J690r82K800R757J6375J9209
84697B4144J3685q33j7201k5006j8213L85J9105K4249J2683l592j1046j1002j4366k0537j2873J8393N6576P2206
84679A06757N4980K3049j243j4983k6868l4658k6245l587J1930P728R2J1382L6441M9745M1457K6867J9962J7599
84661C00405J4663J6175K4852L0814K4302R079m570j1682j2238q549p010j1780j4339k782J6861K6322K4535K7607
84643D42665L1793O158n8300j18958j30214j03014q2092p5464m5994K4173R6609J19205Q3498K4136k3090m5937m6454
84626I8720k5767J4047N7599P7558N9752K4567P612J5185J7033p294l6049l8037j9536j1899k2998l0293j9161k57
84608A60782J3038J8922J4392p855m1110o2355n7092l2423j878K5566L8083K4065p827k9608k5833r903L36O281J5352
84589D0933J9532M593k6560n3671n8948l9543o453K2275L4259L4441L6412L9572K8954M248r820K308J8383P256k2112
84570G6059k8365L414L7524L5561Q242j928J9747M2268L3134q26k8785l7397l8599m2198m1412k9161j1179N520K3476
84551B5095M3001N0871L4773L452k0303k3956j3155L44Q484Q046K281M32Q309K0466K5087J2399k1493o6416r1340
84532F377o6128j925N0055N6482L8196K7886J7157j8287n8765n4020L029N9421O8963L9735L664k4939m1972l6454
84514F8475o468K6539L9513L0790J0562j3935l3812l9492l6877m2347n4127n4220m5775n3784p3645n9476Q000P8291
84496b51788R3591O5685M8595N7302O0413L9401P308k5126n5986o6555l5144J8418M4468K8628O904P055J5024J3043
84478G1236J0080J3659Q791q808j1441J8279N1786N4432L7624L4401M1772K9727j213j5734k21J5976O998j5024k7652
84459C14668l1629l5996l3101j4177N193K491j6272k4657j6773j3126k1608k0456N609L4471L3584M952j9921k3631
84441A29621j8530k0134k7990l6685m4106m1495j7328J6530K4300q302m4675l8314O332M0525L5037R183o944j0146
84423e3121j1064q484Q91K689j7702m1766k9504K6499P9041P5552J9764l4228m6406k9169j6064j3607l229K0006
84405g9902L5820K8498Q697k373L259J9559L6456M2197K8217J758j6414j5654o221J116J0717K4754K6969L891k8472
84386A22872m0597k5970k814J3739K1017J7260M134l217P434K1367J4282q413j8602j2767j9014m8416p3046o8752
84368i9503m8865l3650j4316K3533O2038P0254M9780K9566K0699O812k0438m4727n0202m0814k6501r074P824J0189
84350a07395j0591m0506n3510l8709j0302J0852K1002L3414N3559O3690M4702R340o741O835J7495l953l7607l9117P0
84331h7472M3801N9971N2380M0417L0596J7601l496l4846p1267r1215o8932p639N1903O9853M8215K3611K5142M8213
84313A46836O5434N4710J8115k1475m2198m1053k7953q776J4174L0041K7340J6078K0189L9537M1964P933l8938o7563
84295B34395q4240j09702j26149r2131j4549L8718K1078l0413m6044j3857J9211K5495L0185N7260Q2241O7071J8867
84278G7436j9513k8762l0154m0943m4039j7954K4155M6634L3181l17k7805l2306j0373K3308L8486J6693k1952l7077
84260e1302j5965J5019K9518K8500J9846l044m1445o8968n5940r283L3837M7883L6452J4969k295k064J7213L3833
84242B6764K4090l264j5568j199J8065K3273J9169J0188j3652m8844o4095l9273K201K6375L4795M6468N1461K4462
84224A21416k0054l1003R960N8839O7193M0542J6960J0872N781r825k6841l3828l0673k1875r533M222J5206J8706
84206A86065J1460k810r547K428J8818R430k9173n9799n2051k6033k1837l8797m0371j5787L014m975j7140q073Q674
84187h6504O652j0208k1460k8389m2954n0416k2847L0922O6403O0958L6850J8738L911r818l616K7532M9145L0921
84169E5820n072j6594n460p074k4423k1442J1491L3131J3260j9863k2979L78J4540P508l592j0915k3196l6453l1092
84150i2027m918J7282J6962M269k642l301q307j9964l0993l4231k5407m217K0123L1974K5254J0820K687K709L636
84131i0291J223k190k228K423O287m37j8752l2612k5291l753P828J588l452R259L1031M5370N1584N5419N0156K7424
84111A10586r39j2373k743J0596J2459R01k1579m8494o1406m2486r83K9827K9638J1832J886R447K7779M5150M7870
84092A46968K7038o287k6296k4451k1332l1606l4812o477L2789L2895j7926p1776q1104n5113l5848l6462l1439k923
84074b44162L1247M3090K8212K624j9307k8532j3423K9914P8660R5696P2098M2070L9360N0584L5957p158l2594r138
84056A95198L2080L9206R913j2746o717L921n321k4873l8740n5194q3676j03440q7137m4575j2384m075J301K0172
84038a77087M1298M7981M1034L0555K1538J6035J5937J6813R899o224k5870m5766o0361n4196k1918Q636M237k1250
84020a58709j8351K4825O0720N3180K9579L0952M6456M0336J7210J0265J8605P331l2581p0693q5579q4215o8716
84003a79385k8144K4998N1546L6848J0679q41q573k5294l1871p729K9146M1942K0027j6419m1094l4876M219M5577
83985a09244M4044k934l8550j4200M6192P9220O1359K2087p132j8718j1521J2614L2652K3316o926k1419n794J3496
83967I8542R540j0797k4700k4765j8620j1753m195L180P340M336q004k2007j9934N715L6320M7666M2225M1349M7391
83948A98829L7920K666l6482n2738m3980k5687j1462j1415l2452o4106p6304m8924K291M3789O3035P3423Q2312P3730
83930A74445L3567k0078m9837m3095k6214k5762l1817j9948J386k838l7939o4037n2571k7010k1633k6698r669K6830
83912b22918M7696L8230J6704l251k5439m3880l9322j2084J2262J9356K0984K6572K8835K6433L0964M0108L2871M706
83894a173k0470k6208k2705j6985L065L5699M9393K6372n431j1701J292P528N040N949K714j8875m4960m6862k2890
83875a01208K864J7796K8865L8526M0117L5553L4488L7736L9245L7427K7899o33m1358n8708l3574k738j4944n8732
83857B8621p7519n2236k0834r964L072M0241P6831P6063M2809J3144O523J3153J9176K3927L4655N3881O9269N7180
83839C97992Q566n0133p9514p0582m6222k2513K817K2102J4705j3832k3802N362M1511M3128J1553k4930n4222p7059
83821H4927q1768n8884k9217k2861l6970m5089m0258l5154k6032L028L8084L9978M470k0088L032M7630O4101M6348
83803f4723K8156K8395L3745L1503K7537K5893J5876q701l3780m0549k6792m284J5707K5606J9511m2j7892j9917r012
83784B6237J267O181J2623K3758L2423L1799K3284J2196M703Q833K5811L8955K6914p120l6211m6164n0378n7046
83766G8065m7899j3668J2835m707m7250o1192l4817j0629j4899j9977L846L8973N2236M4908L7686K9859R828j0475
83748D2723j0251K56p710l1580l6376p391K8304M1003L1266J4404k218j4255j4759p497r129k6378m5745n4564n5067
83729a64964m7937k2333K1049N3244M4698L037l3009l3829k743L3762M8871L4744Q936l610m19k280j6964j9649J2534
83710h6862N9339P5296M5759L140j5525r309o171k8246p0524j06231j10273q2891m8885k8185j4086Q357L1777L4911
83692c48609J9294J3124L0722M8803L7201j72k9773k5942Q013M9393P3728O6449L0673j2240l5860k8059n39J9778
83674h4016J4121o610q540K5697O7927P2245L3417k932K422L4245M7653K5318j0863l6178m7863n3405n3348m2490
83656b3200j8907J1763L6655M3233L2748K1471K1224K5280K1733J1256j80j4694l1207l1814l741L0738L4611Q033
83638A75002q516R445L8211M3387K4772M954o990j7454k6702k8460k4854k2273j6232K156K6868M0086L4190J7144
83620B64734l214k6481m9775o2738n6861l3608k728K1783K6678R582j5244k7962k0624j0K2951M0081M6145M0739
83602A73448K9010J4973k633k2658l6452l9089l8347m0100l1259M846N5993Q2322N7651j789n6493q1749p9915o4736
83584g6977m5275k3260K273K9736N1515N6263L8029M806k3350k8390j0146J3112K4534K7501L5842M5350L0710j8435
83566A33838p0573p9908l8485J5243M0771L3567J5421L371k1M843J9061L5668L6984J2040k3812l6705r844L2555
83548A24014M7323J8847k5910m9746m0851j3917R373J3892k20j2402J006L3706M9704L0306J832m060J971j0507l5260
83529A39101l4790j191K7569K2207q94j3561j7776l0999m9662n2534l1915k291J8241K2296J2341m659k2666l9602
83511f0785n1945m9397k4943J1461M1250N7143O1300N0147K2197l061j825J6476J7582o489k6892k7743k9982m7589
83493e3095n6831l7393j2524j2876k4333j0863K6212N0788M5957K9907K1341J9870J8956J1541j3372n3934q1239
83476a31888o9299l2465l728J5248M5908P9724P7374K8812k4701m2025k3232J1121M6087O1685L3236l1036p9839
83459c9018p4269l3933l514O466J7449L7494N0418M4817K6647L392k1962l9365l3402k913L1775M6331L3449P852o449
83440E1265J581J7714J9153M726l843N362J6911J3219J384p49O418P480j401n857O841L1190M5675K8185k2218p3576
83420A49460q4167m7932m893N479j1527k2393j2145N083J2529O639q435k3023k2428k785J8135K2700J8957K4264
83402B3518L1454J8216j1482k4868o253J9312J9067r047m0255m9301k6062J8548N4763N8016L7666K6279L5863M4678
83384B20112L3612J0965j1614m2029q4244j11668r2441l4447J7427K6787n327m8876o6588l7057K3764O8818O5644
83367f7162L2030J0747J6387K7315K4379J3277P614J1274K1387L1681L1497J8464J0377K3124L7812J7713l5481p0892
83349A61543m8797J0891N7046O4440M4710J9378M585R466K6025K7358m556n4383r1575j03792r6142p0576l0499K764
83331g2114O912q625j2918K410J6226J8798K9330N8678Q0472O2137J0945l1722l6519j2077J1011J1089o719j6737l29
83312A10248L0319M4324K9565M338j3112k8683n3658p7996q0841n8469k4543J0007L9494N2063L7086M658k0024k4992
83294b0216k0141j5801q687M900J5999J3289j137j4880k0191j9416j7743j5745j0224p71P753J2653K0215L5621M5810
83275h712K8085j5242m6383l3663O646L1000K5067J5146K3199L7058L4726J6376k000j1299j1756n563p67j1020l5792
83256C5106m9844k9751J3513M4671M5014K7927J3262K247j5775m3156o9828q3932p8981n3734j3682K5679M4525L5395
83238a51344J3793M984J6829L1407K8883J4079J0624L1308O3673Q4157P7732M4867N84l2163m0347l5918m2546o3736
83220E6866p5776n7652j6126K5525N1653N8490M6514K0999p335l2255n5072o9791n8115j4336L4691N3704L9724K1256
83202B2964J8428K1969J4517l331j5669j0483R035K6395K4108J764j8160j1710J8144M3248M1594J8227o214j8160
83184A76666j9146j8909k4099k9455k0958N738L2642L5809J4561o683p569P993K2918K6147J5894m869k7940m1973
83166A36767m2158l3696k2826j1150j771k207j5178l2475m2466l8672j9836R009L2400L3303J3999j002Q423L5509
83148E973N7895O2564N0547K6609j412j8361j3417K545M087j9285m8761n5962l2577K576K2448J5476o748k2355j9148
83129A2694k715J1902J2862j822k2882l3583k2194N395L0252L9742L6771K9532K1868J7094J9940K7381K6972J2526
83111B21735p230k3270l8499n4651n9153m1595j5171k722m991j360J8594M2620N6768O0915N8565M7346K7303O071
83093B91275j1642k9298m7570n9130o0645n8965n7965m9716k7711j54J9244K6703K6297J9806Q831J586O304J8670
83075A5920K3996J2835q906k4175j7972Q623L4836L6397Q956k9400n9533p5604p6357n7624k4305L620J4006K3527
83057a91160N5411R8064J09152P0415J9661Q723L6784M8777P371n3076o5803j8232K9265K1499k1301l7871j3262P303
83039A11720q156l3193k9969p537k264k0526l4774k7727r523O625J8186K1191Q935j2592k7599l1716l1762k3672O189
83020a28164N1960Q2760P6856M5103J2904m865n414M721M778k5798p3352r0942n2776P843L5464J4831k4390n2215
83002a20696o0579m7373r832L8072O4502N0234J0451k2082k8207j2291J0031K6160L1888K8237J5754m202k1344j8712
82984f9989P356L4940L6733J1176j8302l4145l9923m1235k7815J1800O4275R4243P6943K3810k6362m1547k3427j934
82966C6597k252j8372k3256m360J9680K4043J2312J2138L4050N0006K7445k2938n4393m1993j1612J193n9J0675L1018
82947G9922L0411J467k3675k0580o245o694j6804j8288j7478l2259n1074l9777P106M9613M7374N399l2781k8032
82929g2395J9705O9850P6289L4683j0746k0100o230r338l4766m9553l9426k9856l7982m0520j4305J9789K5340N028
82911a14533o814K080R194Q8n331J8493O5113R9578R2805M7759k054j9076M310L5384L2050j3328o6638q7778o5173
82892B6129j5846L4195O2047N3329J2569l1838m6581k4240J0735L1406L6283L9729M2273K8141n192l3798l6093k1423
82874A61825j3000j1613J530K7812M1409K4461o521k1779j3950j448m768k8572n9939p6372o2771k7838K800J4829
82856e3905J8001K6073L6633L9721L4438K5156J1216o795j9243j9094j3531j1034o157P196J6847P289j1772j4182
82838F6857N997K8405L8004L8913L1532L367m1779o8955n1671j3292r90k2023l4281o929L5607M7674K2835l855p039
82819F8377K520O904J0410K3280L3891K0797j3385m0863m0004j1110L4536P9250R4698O2155N139k5343j2133O129
82801C05248r052m4249o2247n7105m7759l4799m773K8711L0738k162l1684l1315j7961j5652j8205r070N524P105p362
82782a6069k8735n1812o8478o0547k3499J4431K3035J2043J4978L6617M8844M1214M0379O3718Q3793O5163J7312
82765B12387j9068k8149k9242l3141k3548O564L1506K8288J2327R412R625j4227n0195n3256j6355P604k1291o9644
82747d0403p7395m0374o336k342r711r132p389r129l60K1170K9547Q032j9448j8791Q144L1786L6895L0789J6941
82728e7506j1305m7058o3490m3881o499J2867M13k1799k2843J315K5254K7444J7083J9223L9544N7389N2337K3830
82710B318j5257m7354m9928q529N7194R7340P9072K1758k7565m3680l4769j7221l94P518J12j5866k3712j6591n138
82691d0692j823n394n010M828J7154J9778R430k455j495J3081K8974L5685K9710Q221k6060n2123m3763m741K8439
82672A1744L1345J9217J3561M554k5493n8725n8454k4198N645R272O263J7715L2922L2810K1933J5761J2603L8j9575
82653D8938k8570j5578J4031M3892N3482K8562k0659n7388n0245p711L0744L6714J3734k2093o2020r4554r3357m1432
82635b23510L2256O6220L2927k3579l7713r98L5647L5382J7932J8116L4820M4999M3164L6676K0154j1039l4306k4758
82617F2390l92j511k4968k4463J2323L3346m458o8446r1954n7562k049M3761P8219R6706P8652K1214m0339o5943
82599D4526n4721m1255n0487o8034o1478k4974J1604K2958K0247K5800L2743K0950M721K1809O7516Q3756L5905l6326
82581E5260p1962n9342k3688J8917N2455L8423l9852j25195j36578o9036P164M4469N9065O9967O0774K5622j388L263
82563i1662J4526N303o551M717K1060Q202k7716n1710n1021l6015n947M3435Q5883Q1302K9642k4769m5627l3746n983
82544h6677K2047K9620J613m3578o3897m2743n114K3514M7587P6679R6044Q4456M6700Q006j4612j9446q576J1779
82526A63402K3774J0123k1702l9191j7035L2005O3193M1165k2759p8165q4368m7605n320J7170K2045J9314J2758P490
82508I6294J2167K5294L2656K6248J4693Q049K799j1151l7386p0921r7835r4156m3128L5130Q6221P0761N641n4660
82490F716p1086m5513m649K5185L1331J8601L249l049l205o939j8794l6565n2574n2544k5735J6031M3117M2904L6339
82471i7180M5729O0589N5075K7868P75j5574k8336l6320k4800O798L4778L9017K4683Q302k081m751J661J1028R140
82452A16401q776k8818l3973j9849Q492M0402N4743L1587j6429m2222j5189L6390N6017K6530j4772k6894q870J1354
82434A66124J2518m609k4960l3178k6464j6994j4967j1106J0282M0235M6546J5816k3399l5082k0390q276j0541j0790
82416E0765J879J3269Q198m731p509O9L872k63j614O957J8229J9693M770k4262n5114o7859n0004j2168J9944L1890
82396d3989L1040L0368L2982L6319L9727M0165K9777P017j6098k6442k5011k2543k4308k6217k2815j3393k487L492
82378B7584M587J1478L1173M9026M1990J4358j512P870J3649j0028m0107l8007j4457j8319o0621r2362p1121j3660
82360a58479L7233O6625Q1924P8975M7682R39l1894l8948l3290k9777l2151l8897m4224l6736j4342L348l347k1961
82342a67320j8007J9527O1031P0567M3216L538j9353j0023K5324N9924O5736M0182P359j0880j4842j3888p938O238
82324A40391K0142J9545K246k0673l8545m6477m0755k1159J451J0834K277j3312k4142k8295k6638j4307J2031M1459
82306b3927N1523K7014k3530o9505q0068n1526j2852M961N470J9345N6103Q3026O8983L2362J7577L2145M1286K7060
82288B05447J4087K0634K1705q128m3919m3940j8520j8961n8693r0130p1948k1640J8108L4829M3309M8982M1621
82271G2843J6339j9114n3013p4037p5207o2011m5350k0254K9818R6947J39340J27034P8707L2491q65l0014m7148
82254A66506l6070q865J466j3167k8215k8170k5838l2070l4782k1591m78J6615L1706M7606N3770M1843K3084J3978
82236A67328J2548L024k0893m8146o2052n3554k8560o887n887j9877k5053j0455P247Q106l559q229J18Q169L689q981
82216i1904j4427k190K1047L3647J9402j1596l1011k5367j0795q423j7193k1623j5406l091J2839K9485L3525J3185
82198h9896j9240l4471k0677L096J2852N606p128j8211k5919k6020j6593o530o076r978k692J7462L1640K4995Q896
82179a78884P703K6361M2085L1343j548k7021j8888K1336O5079P9411N2964M125l5680m7702l6146j7872q308j5359
82161e7001l6059n4286n0686k3664M327J0370j313m124J8098N0046N9714L1801j4678m2182l0575K345K0413Q684
82143a08770j4632k6551k5720k1760j1692J5645N5406Q2686P5324L3579k0697n7366n6909k8250m812j1405l7013
82126a62937m9785l3678N01L2381M4477K5048j9985n9351o1141k6879J5488M9094P6354R2286Q0101M2228R380N124
82108E8706K0773L5179L8394K6702n34k6055k3792l92N61m0025p8363o3019o673L4885L9551L2157K8609J4359j3934
82089G7089k7686p197K5861L7345K2328R12j1285j2808r705j2656k9057m6214l5152J4957P5663J05532R0383M7502
82071C05812L63l6466n4860n3716m2973l5204l0626j7726R971M2675O0349M8159R702l1691m9830l9058j7546m796
82053F2539l248o509j4444k8879m3261n1355n9525p2400p1042l0500L6681Q1126P5664N1148N1238P0036O5887K7836
82035A40992r144j9654k1462l6284m8251l0408O876K7008J9255R346J7956L5375M2600L4587J4536j5403m7178o5331
82017E5416o3058n0070l8555l1770k9764l2583l2885k0290O96J2662J2556J9749M5804P2315P3242M6991J2838j2922
81999D0372k4171k0927j3307j8387l7660m8065l1443k016J3160J0316N295L036n441k0314l0922l5183l9108l7087
81981b91852j5363K1842N0984N8705N3405M2869K2033p740k7379k2635m636N606L672P33M081J0500J4139J1009p72
81962g0799j6288k1480m349K9423N7029N8673L7632J7828J8411L2578L8117K7937J7646J7637J2347j8606o8071
81945A65665j06792j16594j02382p4733l8383P31L2491N0657N4168M1484J5591p508j0942N54M140j1806l2915l5939
81927a72513j2773K1117L5167Q633m0369o1639k8482K2857L5204N382j4985O352M3584N7958M6150K5031o00k8291
81909e2217l8148j3072L0824N7795N1862K7315P032L582J3358J7606j451l5379n2105l3701K252K8667L7832L1597
81891H3649N830l3207n6377m3442j5401r128k9269n0238n4928m3005j0663M3147R2202R9420O3458K0202p124k9225
81873B5901n4699o5838m8046j7433J892Q682J3087J2286K41j1669q287K734J687r838j1239p63n654m1174p6770o3553
81853c48453P387Q9529J27385J09063O8162M2488M0827M6608M0669J5320k4421o4342q9044r2889q0638n4774j0665
81836a77788M7201R3018R9241O7324K5301n452k6062m0579l9744j7237J0761J9766O372j1400k0960k6162k9506k1593
81818d7499R33K0219J6031o615k5138l1269l6062m2226l5162j2336J128j3466l5536l2657r873m06j0469r066J8944
81799b90525M3874L4639M964q065O876L2201N3184O6343O4764M2061J0001r162q625P48J0750K0320K3159J1860n034
81780A04333r927k270R85o154r903k229M196l351j7955k6213k9295l8009n3073o0424m3917N28N7573R7283R6726
81761E8904O2102K2851O39p874j5121k1565j9094p614K440L234j026N74J1726K1453J5447k495r186Q187K8896K1518
81741A73996j3307m2445m5177l7765m3311n5435m9344j9446J2169K3093J2833l344j1420n174J5742M4818O5734N9335
81723H1552K2585k0652l8658k6249j0741j6761l5762m1847k8148j0908k981j437J80M803J7011L7841N3467M6875
81705C0170K3011M168k001q968k0684j8494Q131L7481M0450J8073j568K410K3530L7094K3533j1515l9301l9781k8063
81686G7676l1412m3499l0095J4031M6443L1456j5156n5373p4610p4213m8375l208K4003N314l1610l7555j1854M188
81668b53849j690L395L5791O3613N5320K3546j392j2250j6373j1720K588R749n067k8848l5165j6821J1961L7041
81650a40171N2204N3331M0769K3618J0611K188q58P899K6034L5217K4374R282J0434J9588J0884j7238l5118k2755
81632A10293K301R462n917k2603k6599k9214m8368q0295r8144p9561l0996J8174M2215L5911J0625j5501k3409k480
81614b34106L7287O8423O9158M2139Q419j1965j1397M308J9519J9313L746j1501j2708j504J2371K3097K6960J7495
81596F9054o088k9395l2519r699K5913N5000O5166N5993L7449K0247M050j8693m3484m9703k6093R176K7679K3201
81578A77254R894n814l1038o3485q3558p8475n9916m6593l8487j9755J6434N5045P1584N4242J5118j8447k5204m834
81560g6035K6195M9346N3730L9132J6645K135J881P846J1449J3620J3158k919m0961q0017q9379o4237k5736J0519
81542a33628M2655O0875M8356J3614o359P299K7729K0911p981k9933l7094m4059n3174m8468k4820J758J7935K7315
81524a17069L4387L1075R429k2083m3657m2211k1944l43O865M40m861N08J1358K0545K8089K8179L460m8054r1600
81505b17487q6765l7934R550K5468K5058L8666P1721J03507J09776P8437J6267n1494r7570j13100j04604p5316k6601
81488c32421K4229N0750M7503L4021K5149J9606K1830M5758Q3695R9414P1997K4017j2611l3735m3350k6375K2194
81471A21671O1813M5754j0326m3437k9821j3671l6605p8124r0860o5659l0947n265J6212L3380L1753J0262l863J4457
81453g3276N2019O9287M9124J8045J0700K5670L2189J3705j6001l9770n5786o1767m5652r330J8928J8290O588J3495
81435B6458L4708L9724J7156j5946m5127o9104q0264o5586l2307n251P906K2920M4460N4116M3864L3624L9475M8314
81417I9140M1636K3257N622j1228k7918l2133j8025k302R52N088K5567M4787L2918l280k3625p601K2059L3528K1301
81398B29743P68j3327j3559O47J9256K5452J2235p839j4466j126J5492R124k7368o7106p3895m5431j7624j7558k9681
81379a6263k5191q309o864k4999l6369k7580j9515l2425n1461m5169o843L9269O7360P1444N9376L9602J9209O871
81361B143Q033J6722J9973J4839J3759K4202L0652J3655j5937k5058o741N036j5532m5069m3462j0934J5681J4303
81343A6265l558k0350k9675k6350p653J2109J4048N446J1840L3971M1988K1855k324p588n425j5107k7911k3588n174
81324a7181Q671J4054J9948K4351J6190l915k5509m6218o7869p9291o5042l0606J237K0169L4968M8104M4318J3393
81306i0228l0075n9064n8036k9980J0177M3657N7993N5677M8386M1183K9230J0945m739p696L741K4304M5038N2947
81288A43460L6358l864n2814r2714j10963j00678o5761k6388m704J155J5122M7036P3622P0267M8715M0570M8193
81271F6612L8823m872n1699n7942k4017O578L094j7684j9337O600L4069L6830J5110j2778l3190m4348m7025l8117
81253a43293j6124J1204K9237K8292J2753l230j0144j1365j4996k0288j8337p050K192q91q286N45L4541P8844J08925
81234E2529J11447Q8339M7875J373l4105m3499l0824j9210k3466k8176p281L5079O0727M3423M859j1382M512J7927
81216B70147l285m8888q2667q5992o9894m9005k1887J5193M6506M4793M101m5656o6038m8357j5846R201K5823L8875
81198h2876M1283K7079J0999J4626L4600M2664K0066k2583o1516q0426p2355l9346J795K9323M0580M9959N4844K7290
81180C6006m0258j01664j01543m5915L382O898r330J544M5381Q7731R9621Q2627N5129L0577J0123j1655l4616m5739
81162F8299l0854K982K6759J9930n194j8692p879J2413K1232J3542J139j516Q283J7951J3034l182j0261K306J6236
81143A46528N304k8052n1833m3051j4435L947o01j6799l0883m1623n1706n3888l5013N241M5708O0837M6936K5094
81125b8289J5046J3270L904j5585l1661l4886k8482j5210Q654L8200N1653L0708j5938n9261p6590o4853l4437j384
81107b45141J8274J8938J0909P702R750Q734M527P234K3992N2174Q1006Q9823N5225j9160q5422r1697m3810O87P943
81088h8312N505K6884N2550M1963K775j7547n073L96l0023o6619o1453j3199L3579M2958K0776j841j541K0791M6033
81069H602N6216M9126L2497R825j5475k5323Q85N0914P8459N5210Q350j5667j2874j9773n2922q1145o8827k4139
81051C3939J3522K1354J0202k61m785q027j0622q471o86Q661J5171J6325J1134K352k718J32L727m014k3882m3445
81031B9608n3185n4108m4942j7138K4047M7344K7252j6204l3919p186L1339M2793K5782K649j6453l4242m3271k6455
81013a16289J8284O8098R3004P8989L7588k024j6954j2703j4570l2828m8481m1591j9434l512q26l362n258l405R189
80994a6085L1027M0515J8016k3727n1039m9424l3763k1044j3413r473j2419k1519k8477k4616l421L6240P5833P9436
80976b7353L4650j9475l5887k2345k2781m1128l4876N423K7163j319k7371J5533J02702J39531P9682k6222j00714
80959D5213j14735q4454l3513J8511N3075O1705N1916L4451J1392j7796m5934n9193m6472j0863K4639L2783J3807O08
80941f4860J7267M4761M9757L5636L2985M3077K9552k2459p3678p8708m1847j605J9955K5661J7266n928k6673j9364
80923a9205J3968M0943M0399K6430J9915J5544l432k9154l2348l310L0650L8680K4064J5085K5925M2677M6779L6483
80905C30093K0559L897j3131l0424m9556o9461p5518m8101N803M4537L4501q351l9970m3050l5929l1760k0496J665
80887b4692J4717L920j4347j4653L369J9895K2698J3785j942j7405j8918K235L4973N6081N1263K3475j1188k9058
80869A14208j4203J8323K7573o321n0464n6277k0802J4551K3241K0884K6555K7204P20m4749p8128q3770p2075n5425
80851b08955l4100j0177K671l584j2901l00L3192N5781M4920K0467J9951M5638O0864M4871K3833K7513L7521J1933
80833A59138m6799q4797o4804j2167K1836K1285J2405K2225M8534O7379N9798L2248J2087J6403K7526J3757k5421
80816B80633n5347n3830l9946m0496m8618l8619r060J4111J3450j785j2690j0202J743J0142L427j0703n979K7972
80798B4203O0656N2398Q053k4598j2634K6902N4288M9876K2564o786k1381k1034k4637m7560p4631p3439l8465r30
80780d7155J2866R806M959n212k3335k7879j1L9195N0231K8584N888j184r976l1633m3154j9363K6977N8179N4489
80761H2272K7248j958j8419j5905J406J7778J8889P518k421o334j2986k7591m2081m5865l7392k1136j561J4557J7552
80742d6429L910j8437l8390m9195m4125j6644K3549M5439K7335j0351k3856j81K8553L1668J7803J1473J3309P411
80724c7158o036j3539j6668k7917l8804k3441J7793M6705L4943O21k0725k2808k4604l4065m0845l8889l2294j8887
80706b96618J1113N4424Q7133Q5394M8004k711l6980l7561j2815J0625J4939Q369R381K0171K6752K0592P403k908
80688A4707k739J3257L9928N4964L7616l275l5528m1618l4806l1790k7412j0075J0548J0182j6556m3147l7607J831
80670a01520M1520M4882J0309k6850l2402p245K2062L7449M1132L9648L4359K8096K3537J2009j7720n3960o5483
80653B9823m1879j2491r187k4849k8199r617J0436J6023J7098L0961N6723P5805P0957M0797K05l1362m4283m1567
80635A05394k7766k404L0885N6502N7488L0776j3483o0659r2370q9489n0467k495K1885J9437J4028K0927K9660K4957
80617G2806P567j2828k9901l5385j5939K7773O6456O6133K9033m743l874J6081J2446l0298p8327q4796m0644J7998
80599b0442M8261L6887M45l6281n4655m5334j1716K7747M8373L5448n846n2103p2840m9633O657O0703Q1851O7833
80581F5355L7820J0166n945o687L782J0529K381j1392j2540j492K619p750j5732n785J3063K1256J3903j363k1065
80562I1123m3581n6553m6388k1386p360j3844j9265K29L8598O9225P7824O9064M4093n536p2008j18288j11499o2695
80544a88247j4568P781J3730J5309N450j9438l8603l0996o513R643J3904K0426K7312J7742k504p06L5409P1037O5348
80525A516K3048j5471k4623j3981m130k370l373P08J3947L1434L9401K7832L160j7716k5200k3912k4368l2694m4960
80506i1752m6797k4787J3652L7369K0689k4641n6186m1978R362N8266O9135L9052p46j2714J1869M5986N7244L9664
80488A02687J0789j3218k7745l0764j8949N694L5102O1419P6904P2064M5816J3897p845k6384n8789r4704r5334m3086
80470G554K5784N7223L8299J931k0143k6765k8576k2932k394K3016L0383J2884p714n525J7171L1484J7041j2868
80452A35853k7296j3249J3508L0674L1588K2959J0879l381j8411l0673l7017l6735l3152l4281m6985o6950p8639
80435a81308o9904m4355j6003N021J7616K4731K9444L3970L5948K6519K45k9978l5772p32N5026Q6977O9759K4768
80417C1972l716J628J5986R147j7004l8603m4969m3431l2856K373O1349J08061J02560M5207k3559o4335o8164m8831
80399g185k2348j46Q447q77k0869l5174l2348j7870q429j1762j6566q533P693J3576L569o543l670K982l166k0464
80379a79683l1145k5009j0150j864q843k7059l9198k4699J8918O6138Q3818O0856J3112l3678n6774m2819K94M1335
80361a96450N3854M6250M6843O0628O3783M4500K2838J7198J5091k140k3508k2585J582K2475K2027P030r788k4107
80343A45521l2552l0072k1235j8515k2959k1250r033j164p238j1358O495L7107M9325L0638M249K39K0656M0293L5577
80324A94724N662l1603n7423o4716n7710m3449k5869p325P969J5453J4201P012k155p692j566K0242M8441O3698N4703
80305A32597L0788J1645N838M908j258j0348j3205q330l246k160l93N518R149L404n076j260J6110K7506J5090j4277
80285B03000l8171m6649m8438m8991l8183q893K3896L7050K7690J2930K024j5001m4341o7487n7239j1689L8794O1365
80267a8333N2412L6893L8060N0927M8391J4560l2577n8213m9118k6694j9593l2240m6450m7038l6273k5028j8284
80250a68598j1877j97J5059K4871K3599J7886J9022K6683K8627J8290K608j1301k4548l3495k2422J5505N8501P4980
80232E3193N8791L0917R932k326q382r022j2340k8657m9137m7869j7013J5021J4551j7676n0743n9446m2369j0225
80214a72800K6889N8394P2352O3875M1149J8152J468j3012k8988l8623k8859K26L1195M7057M4760K6738n969l9702
80196A04302m3697l655M8414O4592L8659O201j0734k4526m1344l8541l305L7026M9359L6039J6766o574l5905m7858
80178A45219j7301L7337O7266N2278J9682M789J6679M1806N7659M3440K64l9276m2813j8011P7l584j4243k0605k7692
80159C02971l5582l5227k9994l3351m0658l2827j3865j2045l2743m3014k0249J3770K8491K8572L7949N9446P3827
80142B15471O5849L3684j3335n2063n8682l9455k8276l8088m0347j4643R768m167l9281m5166j1437K0771K0735N006
80124a3656M917K6544N3543O7796N8121K6020q799k1941q579J5141L2935L7614K5091r42j9683j0458J7489L1806
80106C12959J7469q682k7932m2050n5244n3342j8865M0909R4073J10699Q5647M0248M082j0445j5806k6993l7574
80089D09153l0736q789P874J2261J9780L8085M7336K4547k4374o9869q8045p5181m2396q213R900R907J0361L1147
80071B72748O7402Q9729P4718L3346M223J4496M9220O7467N0427K1712J2449K0147J8639p97k0209k4137j6035m610
80053G30935M313j095l0616o4899o0935m053O1683P6830L3095k1113l6649q602L2451N6932N7706M4416K6614P225
80035I04238q231o054J9985N1166N8850M0045K1828K4472L7260M0485L3451K5015J1881j2191l4406l3591j2510j75
80017A161518j7904n6523r0362j02227r1658p0027n2831m9025n3103n2572m5118m2081n2078o7071o9710n1944k2610
80000A74674K745J5933J7983R567j2412m3309o2872n2337k0065L247l6j6341k5534k9468m1365n6628n4110k6557O594
79981b10291K1481J3932k327j1190k741K3327N3387O4259M2976L508k3196j9014N256K5460L0370K6912K3695J9731
79963H5535J0770l105k0225l7825m4305k4068J7789M6881L3670q792l8443l1839k71L6869P0211R0231Q4913N7050
79945C25046K4111o241l9485o7385o6001l4618q733j3429k8671k5126r474k702M478L3978P0525P4151M2235J6755
79927B89414K0671K4705n493n8870r6396r8279p4479m3175j6443J948J7139L4671M6181L6821J2942M028K3652M4284
79909A63321K9608j6762n3996n3674l0801k0958l5752m8880k8181K1443N5832L9063j3879n3885n1889k0612J3860
79892a06142L9504N2930M9007K8608K312k2823m6123n6781l5717J2278M8935M5255J8699O521J5732K3893J8410O020
79874A00518j1744m0750o8045o2854j6382L9584O6137N3945J8144k4032n5728n7353k3215K3089M7039L7639J3823
79857C9815j345l349n130k1990n5609q5648q1463l3102L1236O9687O8069M6619K8575J8987J6723K6231M4194N0778
79839A53278L3375R850P834K5645L5392K4124P882j07r551k7938l8601k5964o805j0351l6059n8134o7613p9197r1992
79820a54932p6011j6013N3961Q3942O4862L1129J3785J2699J3892J2962J4037J9284K7926L7525M0351K6397k861
79803B02935k9374l4904j9897l78J0310R681j02j5146k5096j7945L193J7961J4370Q363K1958M5740M4498O163l5186
79784B07144l9564j0066J6214J7004M418q04O036J7767K7367K9414K0808N068j2122l1927n6046p2592o4433l5332
79766B8354j1507r676j7411j3244P215L3962N6513O2870L9029j2277n9723o8338l5877O131K4635J0346k1042m0496
79748b0536k6107J3101L9026K5764o294j5703N102K3481J6033k463r570r362j6438k4016j3473J2182K9433K8349
79730D8509K2969K3189J7664l844k7499l0679j1538J1192K1849J7226j786k9155m4867k8409J0582L2648J3041k6161
79712A4931m3559k9097r539p650j5600j2978M011J9905J9199J903j6658j9331l450J6435K4112J5849m445l4363o5960
79693a46285p7614n0563N977N9302Q2469O8860K5397k8615n9548m2645O220M2519M3062K4335P744o126j8456j7382
79675h1349j752N805p084j8160p218L939j7716o0197p8914n9925l3212k1063r778J6122M2117M3689J9269j1058k6313
79656c02798j5113K0436O1904Q6779R0345Q5352P7787N8180K2289j4974l4666l1912j3949Q200K2650K4833K5589
79639A70932L5121L6792J68o9747j20094j06789m7846O05J0005j012m961J960Q131O947L91o325o251O044K6311L9496
79619b0122L2218O814j8793k6586j4802K385J2829K0386L5863N8188P4058P5129O4297M4299J4183j7749l2005k0580
79601B90012k106j183j7189k6654j5762J952N361m786o169J3600L4301K3639j9344n6539n6347l3673k7673m9382
79583E2058p3585p7456o0860k8375J8127O0118O6252L3552L91j933J1144Q632p257j3736j2798k7692n8206p3040
79565a84664n1289n772L9838P4114R1707Q5391N4650J0263l3742o2129n7019j5118L3034M4610J2897k5135l6209
79548b4573k4885j1165K385K3117M5137N5736N6691N9858O5285O0508M1266J9232O252l05j2637l6139o0172o7399
79530A98192n5611m5998n9376q5312q9129n3666J5L9532N3264M6315K2541j0756l1733k0479J4337M2041M3832K6985
79512C4994O881r317j8111j3089Q775L9185O0240N3784J6428k6974l5474L589M6472L3160l8452j00782r2702l0489
79494f1882J5709M898l7027n9213m2605p188K0755L3048L4861K9371J5238k928j0265M593L2942N1889M9857L8094
79476A10147L1491K7249J3377p936k0352j6469o643j283K004O278K528j8623m8928o8467o7531n3407l8354l1039
79458a85958l6555n0319n0634j4690M7945R1102P7882K6072r127J290L0388L6239J6118K188J1009K1464R606j4803
79440I217k3993j3833q140k1835l9648l8565j5995J4140M0442N6763N6149L7503J3781M74j338m35k13n57p664k4665
79420C1588l6975k6763o75J7570K2095K8326L8239L0405l239l6861m5308l7925l7040m1235l4156j5915o66Q126J7541
79401a22868K8902M2143O4870R3470R8250N7455l800m1854n3475o7041p9352n2247J5150O0595L5246k9141o3090
79384a6787m4435p835J1408R217o55k167J4603L7596L4479p073n1652n5105k3200l818k4700o5293q8106p2637k0596
79365c76756M5051Q5475P8300M8759M2406O2666O5553K6685j8148k1208J1172K8819M695l3323l9358k605M2742N5868
79347A06793L3241R980J5461L7424M2414K3291N233N919J3979J3042M423m442j3890k1857j8782p108p804l0308n2499
79328A54510n0260l2379k3287k3309j3359O202J0471j2260m1557n2455m4375l1935j9809P12L4778P2214R2476P9679
79310A06057L5914j7902n5455o1633m0018r001J1785J9314L0459N6862P8988O4280J5070k5194k6208p834l233q680
79292A63571o60J4840J0561r493q622K2445M1734J1611m9042q9488q4629m8678q782J3758Q519j5313l0022j5620
79274g3310J8018M5961N7295N6794M6526K3835m875k4217k5380j1468J1137L5053M5958K8971j1344m4760m0051N81
79256A34724L5966K4134k8731o5999m0580K6449O5192L6804k7063p2427q5629q7163q3129n6857p204L5509M3432
79239a52572K3027J690m863m39P560J8178L0886L8559L2168J2537o194r578J105J1449J3023J1110J0491M895j0772
79220C2260k6908k8774j3091J4230M7809P7224Q0609M2835k1251p6740j01114r4923o6629k6044R564K5254K8501
79203i7188M0167O0759O5666M1402O572j4313j9656k0174j6531m442J0201J8073J9279J5779K079k0506l1885j5956
79185C9326J2198K3434J4151N712O361M23j8645l0026j4600J6564L9107M6576M7024M0174K0646k20J66K2808L9683
79166C10862L0100Q690J048K871j4022n5983r1488r0578o2096l5870k1256n005J5549K2233M038k4442m1821m2314
79148h9484l0993j2527L541K125j5859k3613o42L3363L9853J3175j3683j6692p662m101J928K4699N1485N3827K7707
79129C6447J514K000K6857N3111O0119M2130J0524j2669j4888j1029k8909p0111r9152q4618m0847j1844j8755m1452
79111b01572n0771l8768j2714K0074M9729O2276N4440L7727J6668j9539o6715q7937n5973Q5K7075K0579K3659N1139
79093a70538O4434L9035Q371Q171J9618J1410K498K7195O1597M9683l998l4096j4243P577o207k4908j1668J0951N049
79074D9931j4321q823J4368J9826J1037K1372M4665L3215k7761r3531j20293j09469p8685l1942K0649N1580N0843
79057a67339M3291M7948M8444K8730Q919J3842K9779K7905J2364O665N724j5448m8692n2748j5634K0972J7724j0810
79039A636k2580o415R857M49k9520n5201n8822m2347j8532O533L6425O6815P6351N0956J1188o921K02j213l1157
79020a2296o3890o3381l1590r45Q045N29j0917j5403j265L1060N5722M5422J0792q200M018J8034M291k4864l7204
79001i2042k7390j8048k3254l4435l9722l5821k0333O984L1510L2322J1776p65J4317M0597M8097K9581J405j9512
78983i4733k3531m212L2730O1379N7613K8985N014r54j008n112p782n590l477K971K5299N1651M7513N771l1338k6420
78963A14769P70P272o836o072J7384L1968J8011j0569m1578p9685j12609j03643m4491J5286K2948j2651l9163k8902
78945b57791j283J3439P135n860k194L2280Q1998J06658Q2756L2135o906k5377l9326n0916m3142j2674J9841L8888
78927c0339N1308O5360P1271N5829K5474K215p32O878K356k5366o0386p4557o1093m3967m6113n9968o3137n1793
78909b36760l8746k5491L11L9224P3231Q8280Q5988O9352L5226j1842n2911p0239o1093l4176l214J5923J5906P785
78891a03246O753Q177n150l0280l9870j9619Q052J1359j0688k8189j5838J8893M1643K6280j1680k4914R973N6120
78873a02224N7284R798l3450l1460K705L5217N4361O2825N5430L0216N207L12J1458J9082J2493o934l3494n4389
78855I4437n3946l5711k5152l3643l6208o082M2661P0817O2653L5413P604j7756m0501n5711o1049n7682m4912k4925
78837a79693p585Q14O017J2376J3168Q018J3886L8590N8571M8535K0693N138J441j5223m3419m9983k2701O719P653
78818g6985r470j6141o153P923K2910M6835P7077R3192P4269J9701m5255q4854q0880m6567p890K3660M8678N7420
78800I7470L1243k8066q6425j04932p4013j8729K3050K9482J1295j309N573J4542O942o124k207J5008K3145J9120
78782d4935J9432K4654J7261l43j83K6230M8063L8291J1057l980l159l572j3021k5847l6715m1364l3789j6344k276
78763d0540J641J803j30j1655k5330j5909J8946L9337J1854m0704o8919o2773n3733n6515m5818J71O0831R3739Q1232
78744a12472M5024J9835J7900J8923k634m0819n9546l5339J5500O0568Q4395Q4466N6208P041l0810l3121k1309l5165
78726C8645p1215q3294m9582n068P569p668j4012P719M1353N7465M0168K16l0758k9657j0901j1335m0246o4590n6292
78707b81483l1971k2856k2443L709N9518J01332Q9061L3250k0749m0635k7471r35K0042K6599K2608J8617J8776J8365
78689c6666J8421L1603O1219Q3769P1675L1332j644p434j172o68Q86J4352K7590K2107L604q298j1568j8049k5159
78670B55900j9281n166l287j6152k5726k7996l8962n8011n8624l1872q689j6622l9689m5072k7777m481J5395K5390
78652a30722J0248k8558n2133k5663K9479O1214N6410M6071M5396L4111M278j6432r275L010o535k6172k7664j1913
78634d4850k648n441k109J5601L1391K8779J3051P22k314k833n019k774R548K4167K5842J1838k378k666O038R387
78614A03332M503O29L007P318Q923Q127P504J1089K2208L4287L0602M084k9807n2688o6826q2113q8381o5139j7510
78595a56851K2117L3146K6981K3398K7223L5234M5943N2036M0163R799k0501l4436l3265k3988q879M069k077l0760
78577I352n7761n4504j9696K1396M1879L0752k824l2140k9537O494M4847N1388K2246j6555l6374k8647p609M306j825
78558e4812j3582j6375j4548j9661k3444n348L1006N4181M6646K6834J7328J4437O609J279J0023K2227J8794L234
78540A04828m232J012K545j0891l0472l9548l0142q642P813O239m652j671K0438L7812K9914P026j1028k6602n0551
78521h04o8961n3725o033L6552M2801K0407P32L956K2918L2097J1686k9915o0399n6927k8289L589L1138N5703O7789
78502B4315N4791K2988p474k5738l2758k9491k1829k6872m9505o1599l4371J3531L4416J8858P590K6814M8548L5285
78484b501n090l4277l3533j4442O484K1020K4849J8914J0657J753j7162m6945o5131m7614j261L9083M5303J9241
78466h0652j4792l1761k3724m359N900L114K889J6400L2042K9270M952k2589l2911k0904K299K1079K9080L1992L4927
78447a7748L1944J6268l848j2481p062K402J2864K8644M2790M0816K6860K1076K3132O683l4273o2052m3463N65K2749
78428I5866J1106p820j5479j6939j4432o0K0202K4406N846j6171k5107k6337k9433l1558k9419k9801l4956l1817
78410a51903j0603J5765K5333J4790J323n88O219J1076J2253J8857L5453M9728M4808K4901J4686K3793K7644K648
78392A66183l2051l5931n807J9344J6821Q636J5983J8971q834m9105n9183l5037j7500l2770n7856n6736k7549K526
78374a69895J4680J3447J0517R322P874Q115J5820K9988L5660J5755k4380n1301l4865J4588N2066M5072O342k4587
78356b5782k3410K285L0295M5819M6888L7675K1968J166k3974n0114p0554p8689p1875n1558k1354J2767M1288N4009
78338a23150M7659L0846J8641K0054L1808M5566N7373O4417N5857J9610l5646p5930p3267l9350j4556k0408l5027
78321b5503k3449J7300N5830O5495N1624L5330K2579K528k6867m8154m7499l7737m3364o5099p5755n6765k4489r292
78303b33287j8217l1091k6797r6M0699P4978P3470K5140l4622m7230L021O4276P6010L7561l457j8179k1495l1329
78285g0645l5620j4895K3459N3190O1026N3584L8954J8794j495r377K334K6010M4968M5121K2295j5023m8991o4110
78267A29579n7810l7825j2665Q881J3661o072l5352m2685j3839K8735N0676M3258K4575R624m104k1772l9610n3108
78249a5853o1402n6853k7296J9222M8011L5551M006m383J6450K9275N261l9529o7286n9213k2816K3981O0809O9593
78231d2472M8427J5896q969k3431k9443j9915N586K2584M274l8007n9109l1168K5372O7105O9865M0244j16l1594
78213A5129m7396n6197o7743p1346l9838L4784J17576J56131J29851O6279R782j6684j7474m404J5319L1502K6194
78196B81465r485n7235q4829p9579n5491k5533J2574N2112O2348K3452l5423o1046l6214Q470L8698M5042K8596r375
78178I8547n3703p7877p2886n3687l1047k478K2600K2535L066J389K6617L2302j5703p4172p2199q899M7593N2902
78160a55100K9807J5366J1753N766k04P16K710M13P61P138R032L38p909m755N225J2882J5745J1092m549k0867j8081
78139h2721L924K0087J5320N316R279K2755L3177M0755M4165K7066j4796m9362m0942J548L5960L9590K3681J977
78121A36779k2978l9610k4739K5154P8995R9866P8319L2623j1357l6221m1138l9017l9021l5363k3824j9767l8161
78104H0540o1220n5158k1996l145j9648l9346k4276J4415L5766K5569M972o036m605R304L3405M9242L5867L127j2406
78085D4371P662M3081O6146P1211O3269M0351M592k7074m2451n0170n7236m6495l894M1720M0184j4531o9982p7881
78067C2873m7354k1095j9071k6409k3521n388K3981N5443P2423O1178K7549o547k4723k5694j3589P798K8945L6163
78049A32962K6358J1849L980j406j5364l7293n2339m7252k5367m954k302j5290k5543j9373l310O093M199K191J0473
78030e1688K6599L9507L8022J6339j8761m6169m7644k8673j0245J799K2912N8295Q3178P0773K9065q283k2735k5188
78012A27103l0644l5998k9147r292R193Q991j6308n6002q7938r4129p2907l5967K512L1319M3686M1418L4136K7066
77994a42908J4035q387k5244j6465J3852L6584L1859J2329L935J2916K2569J8107L534o831n359L968J3336J8842
77976F72K0161J6710Q896K283L724J0466J0126k744j7000k0786k0752l2069n2129n9987m4324j6912O583K4222L7837
77957a25023M0050K4805J570j4520k0601k2324j9145p751M624O324n03k667K936N498j370j2477k3864l5555l7001
77938b36994j0191M0229P6837O7454K4028j2673j9580o071J0346K1588K2888J0606p339j4533o901K017K700K833R740
77919b3016J2593l745l3316n0926l9064n637K3647K6259J028k8809l5475j5300Q050J4412J2344K2786M4864N3845
77901a5460L3598j842k3042j3613J8079M8292N6285L8880R744j6458l5820m8555m9392l5394j8638j7212l2416m5921
77883a48885m1966k3484m405N838Q261J1329K2494L7966M4740L9179L5254M2363M5174K5160n275j6430p334p839
77865F2140k9162m4504l3076j2902q455j2462p017j109j5059m1498n3686m4356k7438r401J0930K1256Q401j0868o717
77846b54983J5414K0078r4j1418M564K2709K1692J9653L3099L6139R66m5732n1407j0639L1829M4563L5646J7897r078
77827g9102l4371l3682q585M707j4441l9751l9429k3891k3383l5148k6047J6116O1993P5923N3382J8518l257p006
77809a37454j0299l2432o5502p3830l4256K9800P0443O7427M1711K1101J3938J8321L3488N1297N4442L6902J4843
77792I9940O158R192J1198O595l804k0477l8802m3961k6590J799K0664K2128J1463m838j8901j9038l238J2778J7243
77773C9509K2468M2542O0188M3980l297m3514n4330n0840m6958k8501J4116N3426N4316K0468j5410l6114m6788m5942
77755b0681k3022J1807K5237K040l0002l0797P210N5824Q3944Q2196N9705K8252o810m3239p3462q4201o8924l8789
77737f3712j5574j2596k4173l1479j6803K1271N9596O3754K2269l2944n2708k0712L0570N6372M3263J3143n918m338
77719B9281Q194J6957J5296O931j739q231j0712l153J7373L8986M1247J8048j3639l4397m4369n4390n9893l9890
77701g8100J1230O2075O9453K6395k6154m2076j7813J0953J5380K800k418O561J5664J5075J2600J7459K1604R050
77683A29738j7089k8983n564L4338M4615M506n1615o8977l1668K5987O3300O9661N4031K0308k9172p5910r1794o7191
77665b1479k2870R605J5264L215q796j4503k2203l7333m8078l6933m253L1037N4295O5218O2895L8310p396m9921
77647F074o1788m1557j4786r262l1491n8874n3704O12P2037J05180Q1957L8518J2329k588k8058n4802n5638l1623
77629a27464r381L885K7688O5607Q6422O2716R477l0664l3038j4089j1999m3948q1179p6641k3356L1705M5096K7645
77611i1518J5850J4986N698p726P49L0894N1515M8337L8435L0355R346k5471m7377m3042l3694l6850l8785k5571
77593a03869j0496p116l334J2467K5255J9573Q390R056J2891O502J742J3787K7896J9635o692k9497m4006n3961m6165
77574a47942r888L0589M1768L2058L7435N9620O0736K4255j9085l7730l6022k9065j3776J2470K9211J5744j5883
77557C4495l3362k3531k032J3041K0595K6774K8032J4392j2157l3579l7615l5293m2137m7906k8422J0999L3086K1350
77539i3270N058J0809J8557l295m2910o2337n2748l3291q821K6762N3639M2581R930O071L8751N6238K4932k1732
77521b5076l7205k3420o577J3294M8522Q2471Q3263M9608J0927j2293k2063k3571j8137j2840j5481k1200k1129k0558
77503B8535l1578n1059o2393n7357m2371k5352r176M302J4576K4069L1454L0013K0963J7949K6409K9879J3305r147
77485d6979q617K0716N5563P1006N7393J5556m2814q9599r6394o3186j7547J7154L8069M6690L7430J2292j0229j6077
77467a9573j5525k7190m7505n1729k6252J2049L3335K4575k743k8763m1735m0296k7549p188J7115M0775N5309M8063
77449a04827J3286l3085n8861m4808l589L7513O4503P6718P0054M1043M988j2145l987J2043K3130L2007L4781J4722
77431A63486k6888n7317n1098k5429j4577k2809k7300j8128q432p360p660k677L965R423J6251K2367J9538M947j5502
77412d5200l4867m6490m1771j9629N404J8427K3347L1604L7790K7335O085k129Q623J5728J279k3863l9114l9613
77394a17054l1555j8267m195o8r908k0910j7654n02J7825K7158K5137J5457O247K638j174j1588j7348J21L3452M8425
77374g3763K8082k985j3846o594p47J419P066O379j2741l1724j8753K0209M2468K7842M247R57P162j801k1857l1170
77354g0150k7637k6139k5521p474K8482N2468L7519o625m1741l7863P20M0094M6506J8712q225Q83L9938O4815M2255
77335A21017j1536m7323l4104J1723M5987L9157j176m3149n9468m4957j4616Q744R144r886k5692j8274N479J8932
77317d9998J1536N196K4242N9486P8200O4499L2411J128k2898l6463l3513j9303j3845k6864m1432l7594k2119j6758
77299d4089k3684k3956j0347L25m381j0046L625L0122M2695L1525J6462J6501K1636J0484j1241j1819K0628N3346
77281A07786M8099J3047r545m053L38j8576l6909k2774O529M26n4588j11707j18957p4439j5303K9052N5618P0348
77263a35608P1735N5419K7261N842P876K9363M7188M6039L6262L3231K8182J330l7815n0709k0276K2104L5444J5761
77245B18629j3904m0992o5490p6609n7861j5657K1368L5181L1571J8862m882l6910o1828o8766o1193m1482l356M7308
77227a76011Q0885P2998L6449O026l162m030p713o695P268K5373L1606K1144K015j3622j4477M091L0632M1160K2523
77208A56460j0607l0193k3952l298J3991J9314J2740j618j5311j7814n469J3048K2912J5541k974j4730o452J2535
77190A34123J5506r846m1287m7314k7975j1722j1389p066J7365M3910M6136K8220J3493M836j4416m2259n2119l3948
77172D248j3813j5583k4827j4891N219l18l7730o5865m8412k810K4170J7610M866P198J1566L234j512J7591M2145
77153h7914L4604l816l0848k4386r531j0213j0595Q353K5208R453k1900k0668K5110P6690R7298Q6975O3375L9501
77135B46696K5809K6033K4103j23l8196o1147o1504n7729n4526l4304K860K7108K1930O574n38p128j7603j4064R042
77116D3293K5243J8267J0447J8981K0465k118j3344K1905O6796N4075j3507o4795o0586l4110k4525k6410k3541k3939
77098g403l4933l9962k6230p989j235M87P646J6041K2031L1980M2356L7267K1321K5137N6836P6433M5493k0295p4697
77079A70284r6265r2535o9987l4287p437q566k1358j1277K5967O0475P2183P0724O7109N2268J6068k9455n8431n5925
77061D9555l0333p417j0370l6360n5828m5828j8616k533r11Q031L1002M5132L2626P694o027p893j1351j4796m083
77042g8306J9459L5944L6191L4721M2899M4988J8872k6768n6943n3945l7194l1194l1827k0864j100N669q005k5689
77024a33092l2000k6617j0675J7383M3725M1423Q054j8615m150L7659O6192O7189N6694M1311J0639k7681m2110k2335
77006G2994n63m527j3198R697N2648O4233K4435k6577m2707k6319r084j857P739J9398J4349j2220l9630n1345n4867
76987a7401o0561n9602l9026n292K3467L8969M2202L2391J3326N24K857N839o119k0430j5150Q26o02j6207j0508
76968i0497K5866N5450N0567L4969M0069M9765K7723j8473m3428l0527j3254k3260m9208o0540m8796k8726j2327K201
76950a32426J9355L3149K7669m500m0986l9043J7638Q8067J10653P1345J6076o468O099K3265K1617j533l6280o4149
76932A09548o4687l5165J086J8233J4065J370j7414m8146q0494q7446n7673j3882J2180J3720O490N72q038j7245r449
76913b62375K4704O3406P2514M7706K2322K6523N0957O2300M6646K1242L260j5292m9452q6902r0381m1447K9673
76896g4596P1735O7004M2905K7732J5458j1486m3213n3229m1241l4336m1759l9285j1901J5891J4391p185j6814o174
76878a26103O033R105J0899J5248J4779J0132J4714L3752N4342O1479N1991L1412R975N44N186N101j8374n3384o8310
76859F8521n3892l1848j7498l95K5771L9450J8877k1596m4830l4206p120R986O036j2512l1151l7056k5656o63K8946
76840a20836M8522M2678J4455n645J0239M8689O8383N2786K2788o521m5647r1768j07616o9223o768L5082N3006O5022
76822G626O0529K0013l0334m0752j4523o305l3655m6315o954M9055O9189N6035M1444K3931j5840n8607o3028l4872
76804b3363k7210o2803j01146r8873o4544l1141o326K0466M4050N0342M7037N5380P1684O5288K3447k3158l4150o620
76786a01640K5919L5240K4010J0327J984n972j7272k9148l8352m3301m1782l5734l6117m9473n8365l3048K7704Q3437
76768b81583R5566P2178N0479M4525L6835J9753J3811L2285N2019M1500N840j7967p911J7972K5754L110l2801n8585
76750A12780o7633o6678n4896k1147K9604O2187M5574l549l6078k9479m626J8004M2052O1449M5011j1670n2596k5553
76732D2756L9981O8674M2300J3017J4255J7472n448l1571l0982j8535k1556k6885l842L8422N9059M3376J5979j227
76714B55245j2273k7068m4383n7745n9262l9769m050K0764J5290k79P891L4017L8493Q747k1390k3973j4942k0799
76696E4514l5174l3512j1920J3934L5436N1830N3050K7748j2060l6032l0136j1438k632l084O657L5910O6434O7003
76678B36528K5971l3785p6916q9176q0524n9433k3178K0723M4585L0647m89j2370J133J3122O468m152j713K495j3489
76659a3553m4025n7006l4792L288K6841K8615J9926L208k8088o1455o3100k0672K8728L7936J0608m205J9401M9236
76641i9109M2189L122k5847k1358J017J7919K4459K5316K0220R177K15J187R711J7454J8843J1092o782k8002l7759
76622a6936k7729p047R550K0932L6039N2419N2557K8121l050j5526o655L399k6j0807j7864k3231l5255n1455n8966
76603g1530n0090k9967j0038M58o41m935K835K9394O1230P4850N8749K0761k1616m8843m2519J277N6838Q2137N8551
76584A66901R980k5858l7107l8986m3813m6471l9781k8174j7984m505J8870M2378M4970K2058l431q409o05o413k9137
76565b5517l9181j4724K4597M0811K3957k132j3190m427J8209M4044N3901L3125m767k6487j8730j368O186R043J3637
76546A16987M351l1558p0140p0431k4853L2711O7721P3082N7168K7905l732k3271k7231k6596k7798k1591J96K7283
76528H0203M1025L4825J4971j0613l1179k7483J2084O5277Q4888M8716r974l9644l2316k5714m2081n3702k7723J7683
76510I9243L3374O702k5230l2457k8960l9612n9342o6405n5293l2889J155M3087O5429L9895j9651o2106n2335k644
76492a88039M9607P7026P2500M5307J7101Q698K1016L4663L0666N053l3565o7607p3668m0481J0981L9984K5478j7023
76474A7697n9450q6604r3355p5421l6213P637L9096N3606N4790M7797M1994M7026N7581N4163K8147n742l0620m6346
76456A5783n5650m8640k0142J0968K2944K2841L1977M5180L4381l857l3741k5752O115K8093K8223J5363o585l7167
76438C0334n8749m5409J082M3526M8433K1916k374k754J2337K0674J1483n514j2057k992M054j2957m9583p1497n0799
76419a20846Q00M6366O6777P4075Q1228P7065M3161j4297o4135q0668o5435l8997j9741j3886k0193l6358n6544o5193
76401b06821m3432R264O3990Q5217O6241L1578L786j7262l8044n3165n5996n2363m7136k9527Q644M8875O2337M6461
76383a17353K4484J1457K966m479q115j6288m1541o6731m9005K1442R0888R8386M8854J638o776J358j0276l8541
76365e7632m8296k1619J7001K7222j703l8350m4580j7796J1396K0058J5225J3059J6150K2892L9807O4526P0667L5271
76347A23298k3663o0771n4227k2845O388K3829K6863J0546j7522l2074j7869P894J6270L121r075k989J2820J7375
76329G369M627p326L723L4253N1481K8487k0542n3063m6361j8522O87J817r040k6913m2914l7251m42M3420N6511
76310b9999L2314L445J3J5446K1509N567j8719l2965l4964l4594l4653k4856k53K1106J4049j6334l0032P00M9790
76291i3430O2272J8722m2147o6617l7534J7940N6726N2712J6212j3975r916J1876J1282j9358m2150k5906J2164L5016
76273e6111L6099L5980M1560L7870J7687p013k6091m2448n7782o5708o3480n4037l3679L162M2226N4087L0734j085
76255a08029j4634j3268j1971p984Q924K9448L1621J0062k0725m8217o8083p2056n1066j3164J9770L7261M6264M9011
76237a96836L4699L276j9483p469L2227O4634O2285K6034k3435o1404o8034l7906J0505M3056L9101J2096o882o461
76219i9997n885k3951m9460n6799m3346k9993k3760n235L4903P0426P2507N1201L7189L3625J8776p091j4772N369
76201c6293K2826J3846j04J2360L9432M0354M158l6183m8522l4983j5856j570R330J8657K5649K7884J8623r582n2317
76182b291q9477j00520q2616n0940k2046J914L1762P2595J08098J11424P5750K6125o275j4636j2498p540M955K4315
76164F8099L6405K8639L865k4052m0982l8220j7415P812K4241L5052N3165P5895P9374M6825o313m5443n1299l5072
76146B00576k3168l2288n5842p0541n9542l1322j0106n961m079J0744K9580L0486P952k1064l8098l8842k8189j1279
76128a50983O242J6767J5711N961n466j4677k4247l9061n7263o6400n4180k4531M278K1566L5635N5509P0159O0070
76110a44910K7035j798k977J9310M0271L7346N539l9944p2737p4631m9261j2832K4409N6818O9159M5610j421l2692
76092a07706k6022l000L648o091r218r34J673n812o204O874J3660o56j9660j9021k382O859J709k798L15l408k3734
76071b01908m2549l3162K547L2264L1988J4428R203K1535K4955k657m8560p8573p2077l3929J9632P0869R9445R0968
76053i5581N3999J6785l00j292n29l702q786j4139j6767j2347n893j2297l5396n5329m9026j6900K0811M5340M6419
76034a44930K1932j0732j4692K8434Q3936R4860N0543j625j8759q299J631P984K2094L2470J2432l6910p8334p9441
76016c7406m4878k826K5163L3983K8148J7141J2695K0122L0382K5436m251m6112p2331o5020l4120m981J0071J7832
75998i0952K2840J7711L622K375K9105O4114P4007N4573K8955O876k4131o1893p6836n3805k0234p898p128J0846
75980b7853M0073M4632J4789j6860k2604j2223o591o902p434j4370l0058l8413k9508k1188k9929l7045j6769J4909
75962b03344K0164M008J2352N5346P9183M0053l0260o6031m8438j0091J9522L2864K2520j4300m9359m2482M084M3773
75944a30436M8734M2856N6341P6634O7803K0382l9890q1212q6999o0338k4385r313k3669m4843m6768k5142J3201
75927b47044O4901J14332J23578P0887p569m7777l3084r287j6011l3773k0887J9540M1360J9094j9336l1407r887
75910b2370K0741M2028N3159M9583J7710l6869p5607o3208j0977L4915M4451K3982j0213n0864q4798q6512m5935
75893b00784J3446O2342R8314J31695J51637J31812O8001j0887p0707r5072q2913m5018q710n896m1708q3259r1354
75876g9061o1053k3940j1362k0755k0857J0710N9037Q5817O9192K1559l0273o7325p7067n0929k92L9175M1370K1965
75858i4089J6679L2256M1611K6767K498q141m16J7980L9810N4012M6042J7792m764L4K0605K6532P973j4573k1365
75839B07243k0415l4039o3827q1622o1434j2540L1335N2749O2098O4555M0912j7827p5812q4592m4755l922P603N982
75821b8308J1248J1865o306k4354j4617J4833L0860K3835J6583K3325K4917m729o1819j12306j22840q8472l4342Q035
75803c32592K8188L9069N2044N9174M8200K6125J3199J5481J8139R600M87R673L6347N5001M1144j326m3367o1798
75785A2788o0374n5079m7316k6177N438K5770K1243K667j4467l0701n0810o4617n6724k8420M707L0667M3302L6478
75767b51625J4582J178J3856L3153K2424j8023m4327k8281K411L699k4190m2563l0690o106J2301L1052N8206P5959
75749a76984O0798K1194q449j0793k101k262q517r144n623n122l488M576N967j8017o0168q9322q6852o2693l1334
75730d88334O735M9659P9177P6574M3797j499m0663n5466l1283K5242Q1892J08320R9898O6699J6599l5134n9400
75713e7187m2640j0800K655K627J6362L9816L8840P901j1618J1121N1134O2930L9718J2785M907Q223L993j4100l6633
75694A30034m7867l8866j6207N069J7365K1979J7710M119l995J1993M1811M9806K4574m90K820J1602j3358o3465
75676A54634q9485o7632k5115P59j616k5543n7297p1462m4889R767M7491M2700J8023Q425J8124K9505L3529K9304
75658I222J0127k4869n5053n7852l8650k2011j9753k6220l6427m6468m2851j6696J5454L0672L5028M9170O0714L2080
75640a44383l2382o9411l5453K9288N1769K0358j1812p087J5731K3648J4141K903m644j0485j0441j277R608J4931
75622a44998J8484K4251K4565J1824n965j4324j1163m034O161K3471L9834L5865N341l1331m7288l8330k3285j6507
75604a47429j0405Q114L1410L5778J5024n739j894J6239J9977Q551J3569M9326Q1507O4771L56o3308q3842o2277
75586c0272k8547o287K287P089J4108J7509P097j5335l2430l0085j5251o123q280j1000m893R017K7096M5758N4223
75567d319M0204R854j1616q943N223J2090J3845K3446L7539M0469L1010K2826J7687J773k5317m2853m2969m7931
75549G2018p1952q7005n8134j347K9721J3938j6381l1180m0750n8815o2671k5004L3549O1852M4892K1564L1202O5650
75531g8853Q3049N5415l331m9426n0429k0449n994k7680n1497l6420O263L0222J9628J328n235r896j6153l914L2792
75512a30580O2888N7875L2473K2847L9858O2635O5238L6068j4530n5671o2725n0079n3053p0883o3786k2177N043
75495a38559j6952m9027l5757J0260L6051L6362N0457P9636P5124J9712l5981m1609q654J8657J8679k559l0981m8229
75477f3370m0627k0391j4223k0603q555K8930N5796M6313K2041J0169n63k8783n4666m6285j4123J167j3324l2787
75459a93884l7228k9807j3990J5156N1281P3714P0994N0401K3318j051r503N214K6116K5417J478j7530j3588k604
75441B3904o573j8895j5868L442P598k9920r1398j23778r1796j7243M2919N4909L3385J0629K93k07Q920K7420M4223
75422a38036M6977L7299K3934Q848n703o093J7015M6586N1932K3171k0485n2828n7124k8952J6406M3463K6674j6688
75404A6396m2512k9440N802M0065O5635P7037O3752K9357k253j4331j6910k7628m6338n8637n1922k0320L0109P1351
75386H9213O7144J2730n2308q5489q3233o7778m9583k4945M33J2072R371N891N780j353j8641l1351k4276M64K6389
75367b09470L6302K4558N151M110L0606N8323N1646J0723k6697l1294j2043O153J5595K2931K6585J4551j7669n6113
75349d6052p4042m8590J6811Q2725J02550P1476L1988J8992J8640K189j9966j4406J3096J5574k3767n8017m0042R086
75331E8245K8795M64l5109l7368j0168J8564L2543K9910J2292j1096k0769o132J6826K0221m209l7519n7073n8730
75313f0313n2311m2117k1563R713L1655K0348j8237m4604k7895J6198M3714L3768N801j1653r276R188L9961P3751
75295c872R2043Q4506O2963M6523L8529K8088Q756j4614l3668m2322l7731k2743n475O886R415m865l7791p0416p2012
75276C2200l7206J119J2463P727J5553L2364K7301n294l2408l1289k1939l1364m7944l7492N871N0652O8484O2923
75258G1721N4279N2368N1792M3498K3616k012j7199p701J8390L0946J0625k3322l3322j2283N263j1221m7955o7410
75240A40073n6625l3493j1731J2779L7393M2825K2732J531L009J6729J7341N319K482J1593P728k4344o4407p8216
75222E2718n3443q616K5021K7774O567j1730q208R525K3997L3924M6946N3570L3851p999m1558n1159n4229o4821
75204A2130o3621k7891K5025N2275L8468R248q189j5317k6443m1015m4688l0047n392J5700K6947K9758K4370O557
75186b2125k1222l8941k2813K2587N6802M2624r280m7720l5583J2125M8427M5318J8597M672J8683L9518L7346J1413
75168A60428q668j392J7978J7676p965l0473k2599J0253L8573L9662J4631j7552l4977k6501m04J9651J4229j2093
75150A70457l2729k4787N812K7085J2807k7118n3108l8164n38J5251q727m1070l8641J518M0054M1550R428k6044
75132C3036m0421l0305r275J498j1155l4276l5022N55M2558M9689K2455J086Q204J9646M796k6390l7533j4443K1240
75113c4057M0731L2854M872k4348l4332k1000l053J417j024O729K1594K4529J2282J687M93l460j8130l2993l5820
75094f1029k5085n10L6346O4087N0988m79m1435l1069J4028M7037N0234M0421K8865R621j4916k8748k7998k6716
75076H3642l0396k6972j3153p608k3914m6964n2025l6539j8892j3451j9532k9381l4276k5201R70L4046N5479N2884
75058a51283K8464m333k9609l6956k4709K552L6394O2037O0706K6535j9474m5305m1516k7171j8125n115K4838N8671
75040a03399O8305M7496K0025Q827J0658N910j6540m9165p3180p2055m3756l055L2054N6236P3496Q0534O5628K8283
75022A36302j0835k7555j6497Q470K8603L0566J2274j2844k4549j7739r224j4496k6492k9066k2804k1700k9827l8716
75004h6129m4116m6078l4440K198M9273P1817N6956L0255J8530J6963P408j1331l0477m9654o4984n5061p372N0511
74986a25731P4778N6085K0362j4331m9377p5775p1570m0404j8126k2270k4437K763L6546L4402j21j6918J4757O7288
74968a52079Q9598O3417J5713j4244j1395P433J6595R795K027M357O441q612l8417n9841n2287j8003J8032K6246j968
74949i7192m1117n0882j6138L6585O7818O4112M2867K6814K2636J9921L797k6651m8373l2754J8145O4965P1719M1753
74931A68025L44m2621q7585j12941q4835j0041N0903M7389O49k2765O490M9729N6133K5416k182l150Q169J4525K2968
74912H4620M1767N1790K8186j7297m4241l5394j4402n775m379J783M395p628k2283k1263r954n269l171J3904M1069
74893G6458N0960L2732O040j0481k1859l7437m8974m4344l1090k8994m1986n0677l6288n699J3421L609k1859l6178
74875b32646l1901k1998r326K0843O6499R2540P3730L6514K6665M5092N0466K4060m857o656Q661J4656N113j1200
74857A46255l1574n4472o7592n9809l6744j1216J2408L2732M0976K9901N865j8917l8710m9878m3748j5691K4067
74840a36147N6978O8531N1830J1882k7084l4023m013L1085L5516L569m6531r5633j25521j14618n6849J9438P1594
74823b89996Q2066O5143M0238J6099p30j881J1467K4515K2546M545j7021k5911j5091M296J1704J331q735O76K5122
74804d9617M3917M4343K8256M280j2287k118L4811O3209M3151k0119p6716q7714o2765l5918k2699j4666k956J0651
74786a14957K2757L4050M3341M4472L3740J7226O032L343J22j1858k4994k2405j062K0952K4736R091j5979m1209
74768B7398n3884l6859Q751M7862M1377p332n4061o3740m1582j2330J0949K7634L5693L2021J9789N134r678k4020
74750d6878l4567l7936l3412k0915k144J5142K2059K0397K1301K9125L4586K7512R342r818j9883j5950l686L69j4913
74731f0269l7335m2424k4192n09J4084K1908K2927O134k4707l9100j8106J0946P825j9687k1074K5990P9259Q1215
74713a7115K5817l9828o8119m9613p574K8158M0336K9436P714j1165j7790p597J5587L5861L5573J5763j715q02O804
74694A9731k221k8257m4458k9963L924K6637J9326j2457m7631o2228m1567N637M6933N3084K7000m324k5142m1951
74676a37927n7104n3555k0504K1706M1629L2456J0933q355j5696N560O0792J14266J13394N5774K133L410M0329N8167
74658B67408L8827Q504j0075j8281j9645j0025O510J6549J5558P258j3615n2671q9637r1202n8009k9136k6220k2717
74640h0619J0138N3010O3579L5506J017j7071k5430l3140l2595j4884J4390M1148N1952L6312l942m4810n6386l5502
74622c7327r323j496p766j1429r466j3102k9796n2669o3713m5720Q94N1306P6494P2931O1436N4902M3267J6683j3460
74603H2646k8930k6754j3915O847L0152L8804K2229k295q131L099L640j8569m1218l9018j7175j896p592k4708l4619
74584g7403k7681q561J0880K3833L3267M1829M1115K0085j6280m6880n5253m1961j6038J4094L7574M1815K5293K518
74566B246j0349r591j274N590o60k7582o2836p6958n4974j6927O651J2873K4542N3864Q4911R3364O9957K2557l0911
74547H4493o6619o5066k8002J8294M2756L3077K451k1183j5430J6487M4709M1495J3082p325l87J8052K1410M159
74529A36453k0091l8493m2455k2015K2956O8731Q4122O3837L0850M002j8986m1593n3218m8741m6154o1864p6740
74512e9399n3219J0300O4896O3332J3391l3685l9462j0140K2307L5474K9956J8164Q995L613J499M880J4374K3694
74494A18970K4507J5783L285p527j0864J819K8772M4150J9071l5228o6710m1583J2632M3079L5612J7216N520j0652
74476A97852l9336o5653p3724o4445m1869n244L3627M8318K9633J481j0714r257n488O865L4638N7356M6747P532
74458A48319k8556m6077n5781o1978n0592j8308J2640K3843K4827L1041L3568J2613k5693m8687l7631j2830p680
74441a06962k5359l5008j2742K5663M3665K9795R709J0757K8967L8730K3889r860m3370n5209l4986K087K3223J3816
74423g3195m058l213J0112J0026n310j0303P724K9725L2183J2919j6002m1927n1285l5019m489J3643Q362k799K70
74404a22636J5562K8384L1065K3782Q948n712j1099j1473k0551l5171l2023l434K3957K5543J6165K6229N2405O0576
74386G0517L4371n765l4470m8900n7067n7458m1855j0006K5185M3162K8848j0014m0847l4636K455L7513N0406M9638
74368A077M5893K8960j4367o9434r8361p8447k7405J4575K5387J9737K6025M8662O1423M0745k742l4364l2795r007
74350e4438J0051Q281q246j9313r432J5628L1722K0858q866l2808l5699k1535k146J3985K3061K6208K9523L7239
74332B4073M5242M6758M0495K6473J013l2041n1852l9614n567J9935K2386J2396j289k4938n7853p8586o8355l4799
74314a56123J65K4312L6213L5981K7573J8134L963k6677o2833o4072r901N9275Q1471M6556J76k0823k2515k2023
74296e1148j9025j1786r971j4763j2634m109r601k7665k1017K5277O2582L8845j9872l8258L659M5783L5321p195
74278c5577k6979l270M2650P8158P7487L5672j5040k6843N985L5936K8089O643Q823K4154J8090q674k9144m0810
74260A75350n9450p3298n5727k1765j8136m9386o5714l9260j962J4249K4919M8477N9241K8370k0283m0214k5652k023
74242a22264K7335P6574J28407J38118R1438K2190l3200o7611q5453q4713o8002m9205l9189l8859m6343n4110m3500
74225b48387n543L5154M3409K0921M599J6042M0624O0240P5867Q8420Q6441O6436M0502J1886l0507p9049r7614o7123
74207F2318j8414M300m404j8074k1188j9169j5890o619Q734K2769K8942K2728K742j9921k6860j9074k1829m6206
74189h5115o4403m7670j3918o902l4267n6627l9535Q432N1498N8691J9847m5342q9327p2178o286N1369O0002L2510
74171b79221O076l437k987M420K3992M8849N5309K8111j5828l8821k1515J3996K8313J0587j2809j9102k0423l9393
74153b33883o7911p3627m2958L362L6645M3632K6314L90o080K2780O1737O3300J5403l9250n1903j8914K4321M1862
74135a94780K0285k5831n8061m3436M829L4704J9408p391j352L0624M8470M0230K6493J3357j4473m9251n2028o757
74117b14960N0692P9814Q4335Q7919Q5148N1915o264n2888o8156o6195n8290l1447J7869N5196M3949j363k8870j6009
74099A2395O400L507j9344l8787n3601p3029q0877m9161J1478N0305L8116L606p825J1322L6248M9263M9000L4909
74081a6075J0295p353o091m994l1180p0969p4578j9517N5889R6693Q9511O1347L8148K5450K0710K2214K3499J2874
74063B25873j5140n1334p6249p3492m2969k771K5596L4155K7450J0233j2318k5742j5892Q433J9773P290q102m621
74045C0173R457R824j1407m2256o8572p8737o1533k0293J6321J8889p585k9434k3944K791L4476O0800P3572O6758
74027b0700M6895K8948J7747P210j654j015K843p487k7809k7487N317L5370K2573k0960m4226k4052Q256J1160j7748
74008f819m6372m7938k5281j963L009p174j3658p466k696j6339m1510n5046m8587l3506j3303K5544Q2622J23515
73990a32968J13350O1876J3307o056r168j7114l0424m0150m6153m7965l2995M699M2069M6902J9972l886j467J1921
73972e4250J1435J067N779L4068O5598P5238N7468K6344l69j6461l1375n6791q5988r4251o7205j9906K2456N1923
73954g5220O9175N8881L770p2792j08191o4362K5102Q9719R4238N9354K0600q593l0062m0098l2740j6984j3600k8941
73936g0744m1395k5682J1251L2994J9009o734p225J7654L4359K5425R094K256r019m2259p9477q0743l2340L7522
73918b06054Q9982J07429R4926O5454L0089l347k6838l1015j5841k804j9788o2730q7782o0879n219K3846P298j9133
73900a22406j8236K476J1106m19r354J071J6026Q432k1695l8392q455N4249R6350Q1629K7372k3183m8219n2007l9717
73881h3372j4915N152K175j3527j3245O169J7390R944J0180L5092N5167L2837j9642n2352m0002l942K4085L2696
73863a0110K4833Q492L64J4690L7171L1223j3866n8299n6269j4948J4006j259m0221o4518o0965l8416m569L1500
73845b01161M8319L3283J0885J7901M6158M4692m953n0112l4455K1754M9771K6866l731o345K075n595k2339l0902
73827e7889l8428n5117o1575l1479K5629P3601R2540Q6627N9618J3088l4557n6639m8409k6717j160K9061N0014L5917
73809E4125j1818n2739n0148j0824K8126L7820J5416j8921l1887j375N4139Q4086N9072M677l1954l5871k5974j5450
73791E0500J491K3886L2378J4916j2563k4035j2233J0710L2419M7134M8180K9246k249k2692j2357K1972M8331L6063
73773C11097j6593p8900j12054j00998o3967k9589o370J9333N4743Q1140P3379L3883p178k7721l6262n1596p2097
73756b9750p8822o3541l8726j8962n239Q202K2606L7539N6287P7804Q7908P1305L3518j333k1040m2273q3472j26517
73738a14506j26051o4885J5799N6904M4160J4576N607J8005L1494L6590L8373M0499L8654K6052m33l3574n2462l7973
73720f3171Q27K7783J8033j4478l8072l9754k7078p375J3367J9533m70k9555l4851j0338J3617R771j5577l8712m4782
73701b61282k7018J8529P6704J05859P3655N46n2384m5097K866L8974L2382k926l0483k6981K847L7720N9140N9870
73683F2921M1765J4322n716m675J1335J7287l304l4414m2184j6160J4675J5591j0714k8592j7656O53k817j8455j0942
73664a7080K2768L9895J2867k2528j1502L9825O7065L4102j8716l0500L001L3764K6799p229l8941n2622m7051k5143
73646H774N283K8976L0050J044n1342j02829j19799q6323k4733K4154M4410N4468O9997P7957O2246L7451L2393M7292
73628A39469N3882L9002K0902J3839L587k3275m8174m5548k4847j6526k2484j4745J3594L1456J7229q312j7644j7816
73610I3589k7982l7706k4053P74q85l2571n0753k4804J8633L0609P05l6332m3723j5725K5970N4623N8472M6279L3097
73591F8217K1508N099j1342j1929L553J0150j1010m3509n3016k7021J6356N2204O6067N3306K1327n962n008J7789
73573A66779K7660M199k8150k8510N149K8252M894m3634o2277k9355J8970L6603K2073J0521K1691L5865K2655k1299
73555A92086o8941q8704o9783k7696J1491L3452M0515L5582J4271j7432l2229r462L1654M9603L1153K028j4320k2619
73537I0649l2419l5522k3851j0258j1438k2413k5860j7800q154k826J121P593J8354L0836L3339J4713j4687k9236
73519c7859k4774k6137m1219l4798J9987Q3663Q6377J8339n5430p6198n0586j6830J0727L6620M8798K4452l0970
73502f5838p6061p3335k7053K2964M0247K2547k790j0691k695J112j1171l0949m0534k9895l972K0146K6086J5698
73484b26184R874K2931M0749L7330J0290j6003k3775k1176k2059k2598j0592J1890K9626L4755L3752L2714K5924N393
73466d7159k2525l8177k8749k615K0706L0899L0526K2763P783q136j3914r543q749j8913k9442k6433o646K8576P5615
73447d4133J14463J13066O4003O09m2193o5641q4892r2135p4533n0522m6565m7751j7793L4010N6201L4262J5914
73430a33630L7667P2397P8610O1401M9107M3194L1615K5760M0071N2238K8554j9487m5614l3015j0161l306j0697
73413B64704k6453n1164o9453n4131q846K5212K4454J5868L0859N1855L7727j1482n0363m8107k3368j1317j8093
73396G7902k2320r342J2056K5073K5226K0799J8414J5038N706o662j5299k0797k9044l6465k8779k939J8470R115
73378E6152k7022n8792o7502o5982o8323n9105j6019M4726P4982N3495J3195m065J955N261P37N480K0797K5868J3131
73359e1031J344L956R433N829K132Q402J4365Q114P88R567K6184K5840K784k3941l7481l5869k0372N964K5366J4327
73339d299k3433n0111l4109J2195M7455M7955K7395J2565J1724J2690O225J386J2294L4249M4055K8052L47j5469
73321A71166j5537j4572j9636k0695j0523K61k091j2170r602J3909L9845M0051O961l7443o3617o1545m3013k2174
73303f0425l015J4280K5583K6820J8058j432l3919p1828r3596q1909m2852J309L4919N6428O7776O7824N6305L5978
73285A6304J0697j2345k0775o650K0830L8115K4716k1637p9940j12306q8713k0415L8209M0102k114l0919j2888K5492
73267a94237L7856J5312j1078j2932R862M3168P8053J06969J11511P0410j3791j01265j38448j02965k6025L3636
73251i3964M1152J2229q733N840M3104O8105O1041L3621J0628L119N094J0104J8911K9701L1827J5184j9301o0260
73233B07402r0010q8710m8226J0942M7573L5951r231m8863n4772k7583Q663K3276K755l2559m5842k6339k378j651
73215a39602j3645q262J9899M6197M8892K8968N65k1911k8838k1218r851l29J3055K8906K8966M154k3133k4874n259
73196g7320J0184J2478R604n83k5091m7395l8651k16L4610M3972L4526J5980p850k0788m266K7745M0804L4260M1710
73177H3713O6572O5803K0110k8337m0552l6558m5294m3470p20M7619M0243j2670l8906j0866K1285J5115m983L83
73159I8487K3423L2972K5668J7575P784j5525m6141o5749p0135o5795m8907j2746K8041M5759L5308K1177K2886L0893
73141F4975K6332J0240j429m278j0126k4586l4725k6645o043Q354P196k093o811l65J3129J7725k970m0418n6577
73122f9115k5768K3856L7280K501l6123m1751k8700k4451k1563J013L2495M4095L6378L5665M7369M8892L1676J7150
73104A10899K0681K6742J4066j3239l2995l1218j2178P929J2004l625k2380k3379m904J6358K5646J8058p599m4562
73086E6304o9914o1147k4015J2517L0638L5554L2483J4289j9315m8188m9654k0602K3680O2307P6657N8063J5223
73069A24880l1555o5302p8566p2547n9387n4461n2539k6782K7024O3486M0276j3582k6925J6424N8307N4303L0476
73052f6470K8330M0196L6782K3246K3497L0754J7477j6462m3458n0200m7769m4311l7079k8664k3953j3384J5057
73035a56411M8628N9490M2064J8427N851m31j0995k7674m6190n7127m6076r227L3670N7691N9103M7499K2417j8161
73017B2548n4365o0107m1367k9395l3752l2648j5511j936m227j386K7152O3264P0839M3416R497m526L32O231K318
72998c3623m260J965K3383M0871L4566R041j5435l2959n3571p3987p1536l7670L692K5892L0534L2927L2361J6613
72980g1196j3613m3275n9987n7368k9456K0147O7801Q6777P5292N4653M1325L4506K9156K3878J3006j2194m5335
72963A14117n9914l5590J3183M4474K8733j9936n4024l6845K1122P1519P5482L9699L782k326J7912M1232M9617L8963
72945C51200J3623j7207l9951m3919l3466k7982m2312o7325p7238n9014k7710o844K59R830L0585M8253M1131N407
72927E7320l7904n8328l9334P438M9801O1716M4219J8493J569o648j6575l6559o3761q0708o6682k2379K3229M2768
72909a22325L9941L4168K6485O279j3429j447M3577Q1895Q3228N9983L3378k730n7293j06384j16039q6963m6765
72892a44441j0227K2377M0011L0135P799P79Q455R875R025L0204O5305P1889L8101M852J441K945j6269k7987L968
72873A48237N1580N1471l885n5259n8721l2323j1452L9J5083L2509M2781M1572K1048k7453q2774r3187l6161L9296
72855D2401O2734K4536k3804m3619m5075m7519m6277l7281l9078n9371o3538j4803O3198J02173P1673J4409j0664
72838d9905P630L9787N9797N8379L1702j3264n0156n6921m5192m2176m7413l6154o196J2292M331m874Q240K6975
72820a03118K4195Q659R775L0309M7350N2163N4887N2939L0859m262k2069j3967p136k0030l4795l2246k4061k4844
72802B4608j9037J1619M6401M8063J7994n897l733N975K007j4032l3437n3933o8058o1452l3741l031J8116L2914
72784h8654M1625L5600J9158J3424K4463K9239R830j8567l2662l5316m2411n0440m2163j5968J2091K9013L0456J6570
72766f4712J677J4067O0113R9747Q8220L5351r257k4641l3353m7041m3083j1965J3845O721j2799j3300p697l0662
72748B1231p4523r0850n7011m531K7444L6528M1171M5792M1952K9042J3525n496l2534o0316p3094o6507n1684l6307
72730b96168j3421K2985N9836P4799O1846L4906N704k6852n8560o7995m0707L083K6428K0655J1720J8526K7989K2637
72712a12589J1302J2378K0838J6000l310j4870n883J0361J6689J4452J4005J5039R325j459k604J6297M5752O1808
72694A23531M8291J3624j6157k2207q500Q049J6883J7635J0257p112k9126m2524m0804l3271l1647l1571j7987R245
72676c3391K6314J1765k3666m6621m1106k5069k1704k9561l3691l3241l7447m0803k6245M881K8283K9416K2484K8863
72658b40539N2836Q5580J13584J13746O4066k1583q7978r1948n0398j4546q382j6664k3442l1354m2360m6895l9226
72641b85503k4235m360K1933M4592M4075J6967j5336l0302k3957k676K8794O1799P8597O5029K5895j6833l9788l4970
72623i0279j6748q221j3942j3886N760K8112K9223J4274N454K533j2257l1723k3151K0070O0580O8092N8334N8510
72605A40735N9373L1054k7802q4212j07533r1425m5961J1153N7276P5733O7158M4235J9064o82j2695k2537l4834
72588G8100l9218k1427P530J6341k194j7203o857O796n529l2814m3781l5718k7923j9963L552L1871L2853L291k2090
72569i4383k0851r037n168k64J7096L2210K5273M477n698k27L369o230k0023k4663j9421j2487p573j055P472Q302
72549a28881o210k2813j3792K8527P3142P8921L7264k3402o7873p6565m7976Q86L8726M3249K2419J203q149q237K875
72530g6686K9917O0618P0698N2526K1397o851k5268k5506l958J9201J4890j2846k6139o610J5376J660m2763p7638
72512a7982p3648l7394j062L921k4947n3372m4611m401K7065K8640J6672O168j0670l2490l2814j932K6927K3932P464
72493a94534Q495J6787M238j8691j8078K830Q579l785M344M6213P9019O1343P324l9332n8868n9194m7200k3286M306
72474b19490K1178K2444J6725J6376K6767L9823L8530J7267m467l188J4548J7403q522m1841n6517n1816m2375l4654
72456b31809k5081j0315R609K9304L5985K3122Q634K0027N4382P4294N5559J8973q72P84O141R134J7377K8250K7461
72437A50959J0364j2965l2573m3950m2059k5718o124K905J266l264j2028l0856n1835n7848m6159l1163k1883j2120
72419b65051M240K2886L7781M6397M3066K1883q969l0559l6654l8599m0237k6717Q283M1704M8092L6506L6816N3529
72401d5603N9053L6933P124n211p152k3553n4540p0398n0888j1215J8879K8365K6588K2061J5041P968P318J0898N766
72382b2566j2802k8131j8165J7352N3380O3076M0005q56l6700n0465l8311r989J8223L3160K9887J1253j4044l4687
72364c80m2789l8176k5421q053J1518K8870M0523N0176O4919Q1583Q2714N3603K932l9724n0384l2586j0215l29J150
72345A69931M650N558j0914m3271o6298o0242l7995k7695l2541k8331n672P707j5050n3153n5083l263N9868P9206
72327a12588M5079o096l5260k9859p74K7900K7218j5429p3439r5425n7406P723M6983M7384M2535O1348R0490R6130
72309F6514O6912K0873k0584m8232n7740m6104k1980o816j4992l7015m8645l3365O824N5324Q9121R0281N9994J9496
72291A39866r946k5076l2209k8491o328K5716M4180L8328K2489J4074J2669J0128P846R987R541k552j9804k7679
72273A82739k5624k5596k9687k5835q575J0679J9018J6116Q803K313L77L253K670r489k4663k3771m919J0298O541
72254H4648l428K286K5724N0363O0980N1500K4203o450j9921j2762n986j6504l3613l9752l9888m6541m6693j5124
72236A3042L9170P0318M9121k637m1658m8409l2189q387J3490K7632L0910K2900M632j7263k7513j6277K618K991
72218H2491j9528l9365l3714r823Q072O840p791j9921j3186J6072M8333N5756L3639M746j1430j6185j3604P13K0025
72199I2140K0223n785k7737j7187R129J3046r894k9617k9148k1632k0404k1901k2794k7554l2315k4178l915J1293
72181a48230J3727J2568J0356l063k3093k2728J0933N3522P5489P8716P9715P2773L8233j8378o2075o6841m0806
72164F0818j0073P985J1700Q570R175K1118M2465O0871O0127L1115j6509n3713n5150k7975n828o845j2063K053K4640
72145A52481K3745j0035n4060q2337q3052n2861O94N0034O6593N4746M3920M2019K4467j9352n9002o3367m2996k5837
72127c4200j2244J3157L9852M0031J4516o641j1553j8502l2887k9257N122L9275L6451K536k7807l7721l7338l8942
72109i6152m5931n6876n9814l3904K0095O2689N7179K0451R98J1032J6579k816k5072l0155l4785n6284p1771m8171
72091c72708L962M1278M5159L6674L4910L0971J2258j1101j8904p235J0698K3292K9132K9335K0697J405j8846k1635
72073a30658J45K7004K8450j656l3778l3034M987N2939P8142O5559K5304j3485k4779j1404k074j5714l9062m8490
72055g1604l9977k3343j323K4368L6854K0367j0148k1364o192O973m891l0434m3766l4727j0084J8829L8212L5486
72037a16764J4062l129N096L7255P1695Q2310N3019p718o2759p3632m1176n690J545p908m919J3545K2702M124l2616
72018e0958n8473m7377R13N1314N8229J3516l9261n2258k5411N277K0667L3385N0537N1372J8384k7509m5722k6297
72000f9672j469j511j5478j1233J4316K8701J3127n965N438L6154M4281J9306l603K503K0408K3135J6678K3666M2643
71981A81425M9384K8589j6695p5795j28701j45434j13126n6876r816K8157P3171J08967R6727L7590j5259k3098o300
71964A2910j520o162M018K5714L3843K5532K1117K2194M280l9280p5840p3589m2457j5010j297J3827L5273M5497
71946a0950L1979O644j1273j5938p751J7998N6773P9997N9132L738m6136o7555p2083p1038n1775n994M1467N7770
71928d995M3156K3093R859j989r324n9J9528K4684O132j7870k9424k9689k4059j1850L95j551j5308j9831j0816j2758
71908f2676l6298m9478k1707K2260K9583n761l2506j1064L9193P2605O9867M1546J180m1569p1440p4179n3988l0973
71890b15405j9223j5715j1439n408m395j3231k8231l9217l7709k3863m767J4136L2616M9000N5005M4084K3919J2454
71872a87389J7871K8528K8140J5760K375p916k0063l0570k4372J383K4238K2791P550O843K6109M2287L9461K7487
71854B0513J7774L096k3418m6711m6516k4874J343K6036N1195O4901M7426K945l5973m4496l1509k0948k0419j9912
71836g9547j3271q226j5814l6322n5743n4855k5963J6961M8720N5861M5857L3535K5198J8676J2158P733R847K2882
71818G687M5191O2650N5463J8900k5868m8982m0821k0468j5392l4396n9399o2276l1165J7946N5414O2722M3038J2990
71800D3234r015r725J1002L4932L8196J6653p523j0792O266K4605K9876K0273j284k7349l9896k1523J9993N0455
71782A68378M3645J1468r929j644J9448K3330j058l9737p1876q5742p8851n2554j2949K5977M7560M3987K1672m552
71764D6573k0860k0250m855J5437K9858L3931K7947J0823j6723m2823n0102l7521k5953l0603l7056k1857P391J5305
71746a21338j1334l7725k2308K7460O1000M5440L076j8489k261K2679J8633j6995m9670m6341j0132K5755L3585J4041
71728h4924j2592k6843j9956M179K9063L6072K3517Q948N636O307K68n444K50O837m837k4836j7312K8283P2459O9995
71708I5070K3893k3015l9761l1426j7767p938J549J7505M2459O9107Q2359P2976M6342J2748k3117n3716o0767l4482
71690A72019L302J5720o050l2949l5578j5809N576J7592K4431L1754L8155L6518K0364n356k0685j1263N634n516
71672B37859m9587q4059o8904j9519J2619N557j1570n229J6626J7560j9479o9528q9257n9197m052K9422J8515j3101
71654a55324k4645o578J0638l738m4077p6932p7368m9214j4566Q508J8745K8012M6143O8658Q1446P7923O5923N3427
71636F981L3535n916n7075q7877p3250k7319O875L613j7634j7394J6957N8842P3559N0252L944l9875n7802l9504J922
71617a67166L6764M5015L1973J3301m511j8805j8500L639L1084L6224J4925q579j3933m197J1375L3061N6322N9885
71599A37877K9176j6063l7814k2707O548K2903K2462J6170Q822l166k0006l4779m0589l6549k7580k1038k1218k4008
71581f1559j9162j891J8795K6979J5672n851k0133j5788L648K1978K4196J3434J1423L2552N7160M4244k0094r7163
71563B8440j31959j08441n4075K856N5257R4489R6924N4516M46k1820q134R242Q453j484n681l633J035R544J7856
71544D3831J5381K604o661q992j8473l8542m7581l1658j4384k8621o7072q7105o3759j6032K1589L4558L1025K6097
71526b53795L0114M1155M4811L0493Q429q87O607J6961K2916L1510M2472L9340J3650j7870l3934l4655l3529l4526
71508h0738l2016k4942j5290Q33K4215L9519K9667K637j3974q357K323N49n246M484K8724M4526L7237K0426J9078
71489G3655L7320N1380L8013L840k2977k8914k9962m4691o5419o8871m7337j4420J5377L6392M3593L3544J6638J0842
71471C8003J6809J5039m077k3077k2266q601m590j7033l2577m0289m4203n2970o6738p4905o2732k5146K0492M3965
71453c44896L4520J6171J9017M2058N8189N0003K4155n473k9121l5536j6237J7387L8234L4196K2062K1906K9691
71436b3674K6382N591j9091k9766j9377L903K0637J3787j4014l9755m2311k3285k531L677k262k835J5699M3290M9490
71417c6445J8555k1497k3400K0670O3173N5050M68n5240p8388p0502m9711k9933j7381j1261m918N433J4510J6688
71399b04129J4387R524l655k4036l1350o980L6588O4835N9073L0728J456j3541n230K4254N3287N7736M1342K9821
71381A34110K9149J3529l1289p4827p5448l5560J933R633L804J0048K2359J5715q660j5275J8142O1886O4953K0616
71363A64818k3904l0299j5584j7035l3927l5271j3199P605J2522J2830J2393n270l9283n2108j4187N1548R5034R5623
71345A72306P0830M0986J0738j9039m3335n8076n9636m2912j2526J1206J3200N193J0207L0236M6029M5354L3746
71328B54507J8783J562j4708k3013k2138j6546p132N916J3686O743q804j9269k6101m2112o3540o6136l6238J0139
71310c4401M6047N6689L8963k423m7202o5699m9885k7127k6860m2346m2782j7216J2855K3730J4294l029j9805l1556
71292b17753l2514k2318j2171j2781j8111j1869Q802K6430K4838R211k701k514N382J7066L2218M4832M5249L5534
71274h3170L0384L6867M4338M0625K6870R485r897k6789k9191j2976Q838K3180L0239K8329N970l0253m1725n221
71256D5903L9940L3251k3357o8031o8526n8859o8901o9208k3968M0115O7421N3879M2881N0455M6600J6004j0926n967
71238C8706J5381K4009K0284J9677J6761m595l5116m5647k9575j3287j6759k4960j2570J6240L0866J4058j6632l1658
71220c4817k3560j0200q834j7061k1528j7549j3113j5754k2282k3649j5677j432J4709L0672M3621M7782L9802K5298
71202b3572J5270J3802J2482L24k1612l8281l4236r488J7629K5409J0150q415q070J0105K3717J6159q318l7235o2195
71183a06375p1942n1394m089L7596M5661L1747K7484L6888L5328J3689p919j6666k5127l8840l5680r67L9229M7053
71165d4324K1168q183k0047j3477J0620M6902O8898M7719o037m5421m1675j4043M879J1910K4377M3661M9795L0980
71147A67702K903p401Q515L2030L9909L0901K2616K2982J8668r23k3385l1971l1687l6517m0848k9784j1744r278
71129A22688j6942m185L0120M4170J5693j7129j0201J8305J6917j7682l6803j7354M476p245l4526l7882j5419J020
71111C8021o185k5343m1412n1157n3058m4208l0348k1674j5304J824K8162M2295L1501J2217J0072K7841M4756M3110
71093h890K5483P883L538J2739K4190K8047K7695L0958K9502L802m1441o5241l5670K3187N5480M0678Q396j3664
71075A56672l1530n2597n7023k9372N380J1638m336o066J5539L2707L0598K8723L9531L9479O268l8302n2605l1268
71057F3436q544p842j3860j359K7508M5869L2399r666n7371q5109q1688n7125l1771j6236m190J4980M2350P0661
71039g7558R1454R4712O9407J7087l7413o3121n4672l5310k4234j5794k33J2131P322l077M692K6810L3852J7341N181
71020F8577J7016L1034J6986j8664m6720n8524o5602o5509m0761P519N2338P1395O3798L7214L460j3000O847M2623
71002A10027M8821J5076j7357j5165K141Q47j2535r943N056L110j9154l2380k2603j2144k2121m1124m5158k9546q292
70983a02444L852q59j8423k6899r17N4477R7106Q9398L8556j6298m6985n2047m0119j8649J722R878N904k098j3879
70964c8724l4369n1888l8765J2152O5221P5729M1059Q98j1711j203R728R086l491k5916m8391n2406l2553r701m293
70945a39538n268J1854M1459N0339K6762q95n261N954J3422K0123L7429N3565M5457J5939q510j7003k5033m0957
70927G9838m7185k8316R51J4341R700P028J4666J6434k404l0280m1709k8967r737k659o177p529l241R03N554J8075
70907d0714L5167M0336K6382Q593N137J3179J6493J0125L694K867J592n305j3386j7307k0767l1377m8046n8307n0104
70888a21748k5737j098J0885J1887R129K491p535o326J9520N3071N8027K7205m486q988j633q431k2216k1314j1829
70869d9126j4351k1101p389J8492K0000q339k8504j8717o583k2231n1809o2366m6018j3787L0011P7689J01665Q0182
70851b2282K9789j4261m0782o0882p4440o8115m2740j4367J1640M1059O4625O0212K9394O518J6695M2407M7694K4405
70833C6569r53j953J8508L4647K6934P87k4268l9511n1353n9229m5271l82N0047O6609M0132j886l1841m6130n1570
70814h0114m9048l9220k7234j1575J7029N4323P4452N8694K2783r10k617K3o270j2514o633M203J390k1161n0191
70795g4590o7508o3688l9431l597K6522L2122R992j9328k8931j1792J6671M0687N7878O8811O6389M6152J9598N850
70777H1807J2252L0282M6179M8088K9201m318l1438l4363j8910p718j3913l0401m2882m2310k5517L457L0348M0352
70759G0196L3582K1152N380k1877n6843p5639o0451k4875o42k725j7537k3454j3318N051K2432L5224L9848K8602N57
70740c5337k4807j9375J8867N4294N2408K3293O958J7615K6329O460k6166l5485j3913J1289J6257P099M501J3702
70722A03989J9082O946j4156k3257j6372j4381l3351n7744n8814l3404m741J3095K7663M1388L8170J0256k2401l6747
70704e4779l4542k8610j6610R522L8298M7210L4304K1229K3342L1977K8414M313l1406n6829n1246j6094K0795L1984
70686A272J8259L11j0988k2479m0090n6191n6076k9267K1161P2376R3401P5375M2558K1351J0638o62l265J5919L6911
70667A90514K3161k3110n7638n5124l9252l7021l8141k5433j6012l5557o7343o5984k0821K6750L5903J1181j4784
70650b08711k2625j6164m652P997J9542K7222L0721L0782K3457J364l5039o9993q2288o5269l3710p586P935K2026
70632c74991M1079N9423O7698O4805N9150O0025O7416O9535N4223K4967r78j3813k0473k5540j6995J2936M4234M8833
70614B21534K8095O293r622l3647o1132o0302j9295K7475M2937L4813L3611M1472L4344O641j7924k1797j4770j4024
70596B24702k2082l1831l8574l8690k6299o82K5509L1344N130l9169o6363n2249j3494Q328k241j6279l394K5817
70578c0517L8207K3819O25j6124k5086k5437j6619r053j2226j4280K835K9401L6231J9564Q312J7349K2505p24l6729
70559A2053n0329l3356r424p92q854k2100k6747j2199J8833M5243M4440J7067j2401k1440j0866J82l704j9121k9426
70540a22941k3188m220J6708L3412M2211L6309J4191r225j3438L736K3194K6454J0977j5396m2343n7979n4805l7815
70522a74158j6494R660M2538O4558M9831K666l7913m4501l2206k8693l3969l0704j7901q269j551J2911L1039L7383
70504a75773L4119M0728N8716O1533L3221k685j1865N413J9145J4839J0069K0179K8914J1142k6197m8761m0678k3547
70486H512k1038k5971k0766j3529k5724m9885n0987j6039K4856M0215L7929M5704O5864P1352M2943m778l5446k3659
70468D9553K0240N5492M9181J1086k1001l0349l5483m9970n4689k8424J4707M2015M2279K5539l881m5800q1507q1564
70450a22576m0075J7390O0206P1208M5223o855n2461n9404k9834L396J5726J0561K024j101O892K5044L5961J9956
70432A281j6516m6357n8373o4351o5397m2492M140L6492K7057N271K2682P9377J17738R4384L2776q889p017P419m530
70413A14695l8783n5006l0920N835J1167j9889m8813m3013j0246K0702L4111L1048J4705j1292l6273m7101l7831
70396a46904j0639K5055M9768M3236Q183k4518k7515p788O004P94j0020r520L306J7841K4063J8097M027p347p667o81
70376e2225J486p898k3662l5575l8184l4389l1356l1770k9260j6794L82Q466N501Q831L3968P2383J00133J04744
70358C4781R3157P4621M7663R093l1039n1694m0141p053K0868K5395J2453J713M228J5112K4006K3645R837j6131
70340B50514m2915n6206n2885m0650k4294l655J4681J8594P592n032j1834j7898k2874j5611K789J0520l792j8209
70322a1165o614K1624L3699J7454q292k2226j8152K163L0993M8770L6298l143m7461p9690r3595q2475m6212p240P737
70303b27527N576J8904N4013P7426O8677N4905O6988Q6064O8746J3322l5071m4424k8860j5489p751K892J0417J197
70285A70005k1181l6826l4211k1324j1711r393j0329j1354j2792j4796j3769k369K4710O0515Q2642O9167K3492k2090
70267B08386l5949j9062j86j59j0918j2812j837R500J1623O424k416j6662l7540n9126p1463o7433m6400j5842J0226
70248a51646K1031J9903J9919K5971K7960J7746O384J3154L7271N2094L5244j523k2937j1083J3782J8955m28j6409
70230A05388l865K7364M2544K2356j3194k5561j652K8949K6217j4141n6505o8462n5363m4282m6327n0078m4750l0550
70212b01912q328K0141L8565K5099j4240l9633k0606K7138O2792O7188N1699L0465O852j3191j6677j899J2063N571
70194C1087j7020l1989k4593n641M493M790J6624N2368Q9859R2008M9838q170m9543o4482n7562l4527p831K939q578
70175C4070k6232l2934k7992j4758P743K6323J2096l6564p0488m3616K1309N6602L4237q873k9099k2048l342K0280
70157a03286M3674N3025M0936J6030j1733l7846n0861l7828j1620o938l4354o1627n7217k9957o434Q472K3244L0079
70139b34241J4707j1066j5395J2656M8220O0413M3682J7527N205J3697K7522K2909p480m7107p4498q1222o7782l4762
70121c07015J2210N8189Q9468J01557R2074N9089J5327j1800r483K565r54j5934j7745K423K7362L5777J9920j3912
70103A39118m8002o1070m8437l1090l0999m1306l5498l392L6511N9199N4998L1461O301l089N197J4246R602j496l637
70084D8617J723R95p720j4887k0361l2191m3890l6739j2747l462l0890p3345q7048n5993o498K6412L5151L7599M5785
70065b29489M7563K6351o849j7626Q962M4684N1905L0297J0029M037p728m1016p6353q0133m5810q07K3435J9499M539
70046b34510p57O883J2563M270r266q493J1787L7070N2883N8108N4553L5890j423m1449n6040l2892R963M2827N4269
70027c764N5596N5579M1838k002o5096j08964j02170m8114K1728P2232Q3044N8217K3915N119n4j1629l3356m6998
70009d879m5649m6720n7426n3213j4177L7019O0569M8182K0038j1563m3702n9875m2997r375M868o184j2863K927
69991b35020K6847M3155N3743N6956L9794O072j5334p357J2897K3896K9200L9711M6299L0100j1031n9070q8110p5469
69973h2721k0159M1931O3826L9906J1335Q522J4359R06k4807l6204k7904j5731j0676j4768k8153l9717k6731J4054
69955a32732N0503N3181L3457J9779J3718q64j9857k3952j3293m737o19Q283J4051p0k4278k9872j4706o694j5785
69936i4487j6490R284M1558M9724K7263j2909n3852p2591m8751N861M6983M6829K5999J8456K3996J9925M694j155
69918B0337O515N506j7510m4138m8660l1609j5238j1585r249N336K4169K5945O261j3091j1675K501N216r621k1643
69899a32233j0536J9943M5914M3962J0481l0129m1478j3291K0637J9956j0287k7966j4445K493l277j5330n041J8885
69881a21742K1297q201m2758n5090m3526k0703K359J6466J6847J2453J8852L5683M3521K9530M653j2157j6368j5632
69863a34516j3869q407J688J4571L0597M9106O1013N3627K5705q447l2897m3293m3412l4621j6554K977Q076q935
69845i7591l3831l9672j2976L0615N9117N3779K5286j232j6168l3546o3858q6874o8765r310M7138O2089M9244M7926
69827h8629O0155M7577l535m9597m5572q402Q715p394j7682L989L1985L0841N018j7819l1050m6021n7159m4503j1105
69808b40188J3010J2725Q265K1014M0383M2145K4362O474K580J2166K8368L8830K7572m350k6853j2007K5520M2481
69790F2497K2222q034j9491j6259j7066k5526l4649m3210m9970m5052k4736m515o80p829j0939j0979k0254l8315
69772b92785n0826m9233l5464j0597K3863N4984O5611N4369L6752K8126L6765O5927J04082J18372Q2822J6612k8269
69755B21111k5435j870J103k2476m3248l2924R432N6808P2922M3134o402l2382k2452m472k181l624J0123K4803Q904
69736B50874l6825p1452n9317o770M9795P7907O5911K0296m0508r1751j12208r7047o3822m1202m3284n3687m2045
69719b95135J765N6474R2440R5061O4330Q742m9453p7931o1565k1074R175J6978J3846J0089P962J5099L9959O8907
69701d331P0574L5798l868j3565J314P969n455j7994j4024q779k1292l8521k9020J1816N1890O2285M8333L1485J7809
69682A82424J561j2591j4351j1141k2206m5290n2161k8456J370N494j2727k3438j3837j593m273j4648j4361K88J6785
69663f3151K5316K8961L3540L4142J8959j1742l6447l0205P708N0277O9453O2258M8313M5347M9147L6480q917o9209
69645B90230r8722p0212j1491K0727M315k9339m3213l8302l6115l8568k8383n56K7697L7341K4936K028j3811j2941
69627a4379o094j3371l3381l9066j6605J1163K0757K7006N4397Q4178P1726J6222k8956k7218l596L71j4389j7479J88
69608G1474J8667K3118J9520J6229Q626j1991m1620n9680m5250l455K9074K0719j3249k5299L144L8436M3421K4373
69590A16257J0269P561K856m389k753L884l39j2688j1545R101K8622K9814J8878P376n351j9745k3610q664J1224
69571A56758J4546n5j4041j4406o125J659J0105K4699M1188M7126L8159K3959J2269m310l2069n1522l1581K3205
69553B39564O0979L7145l2210r1441j08080q9772m9579Q483O4415P9893M2001j3739m4793m7987m4564l7760j4084
69536d1529K2330M6798M7205L6155K5433R543j6200l8074l7812j6297O769J3642L190j2283k0367j9328j6895j9220
69518b6940k4941l1531l9407m3776l2199k667K3371K2477M76j5282j3788j0161j5092j7415o727P765J5759K4475
69500a85603L9799M4662K0909j5962l0561j5029K108j292j2365p443J3458L0499L0740J7229j670j9259k9356k7631
69482a46767j4165R300M0670P1054Q2609O2361J8639k2654m0607l6367k8073l0183l7562l1052j565L3274M4054K3123
69464c911m899j1586K888J3438K087k2140l4259j7772K0607N4450N7410K7492p747j7569j326J1751j774l2959n5720
69445b1539n9610n4158m3631j6216L1003O9319O1529R399m0154m6209j7985O149J2144J9904M0940N2945L0224j7566
69427A6488n4491n6919k7842J7838O1253P6095M2565k4642p7823p8953l4479J8583N0518N3446L0847p464m1015m7874
69409h3869k6698j92J0011M158n834j7193l3316m4590l0755R866M6333M5380J3370o227J7009O1800P6833L9577j6580
69390E9083l9649j7704J0835P926j6009j9255J0806L6838K1109k2678m8466l9136k1619j9634k0729n511J3861J0341
69372i9591j3662k5820q103K1504L7159L5612K8393J9414N253j0778k0099k2180k4507k8851k7324j4511L843J7538
69354a26710K2038J8949J1722N976J0826L2371O3420Q3709P5092L7980q014m0276m9774m2547k8159j1324M147R712
69336F9138q26j8661k5065j5526r524k4064m3684l5170O160M5152N1581L7746L4246M3225M0899K0416L858O865J5988
69317B02754J2739J223l150J00l167k1431m7895o6507o2368l4540k706J0637Q707J4431K9005K0903k4804o8801o0774
69298i5644q518L1126K8468J2093J5477K7176J6210j6093l7381k8956n976O655K023p955p799R241L6351N5912N1486
69279H3896K2306j3824l4455l0610j1011J0899K9294M0998L4310k798n8700r5721q4423l5289J3716L6328L4791K2977
69261c7316P467j2460l5892n5576n9946m2253j0253J8960L7128M8969N4547M3214J5591n595m291M126k072j5224
69243e0876j3905j863O06l683N777K4399K4882P064M076K6613M2167K9712J6046K9484N1050M6197J9399R08k239o262
69223B49552j5804k3936l5984n8414p1542m9010k496K6125J8698k143j0161q22K0780M5516N0081J5089l6765n3217
69205F5547j9033J8692J2281k4626m2803k6340m757l102j0205l084J7410K8171J3623j5751l4615k8359n772J1899
69187e0824J0823o082k3264k2790K014L6289N2986L9758J0477j6027l6690n2288n0705k5799l253j6305n3824o3994
69169b69498k1520L5673N4481K9626l268k0657k9016l5474k9414k228L1794M7437L6120J2661m695j4216k6291m2362
69151b50847m7550k9606J997K5798L3927L7353M6716N8852O3177N1937K4409q562k5296j1701J9467M0223L9276K8926
69133I8496K0901J3658O497M841L569j3173m2954n6700l6718n035O660j90k055N535O205l745r263n221m143j0053
69113b2888j0038r82J66j1878j0875K5626P4092Q4665M1463j8500m9780m3333k0955l643M26j0949l3610n1957m9977
69094a12927k9761p792P429K0692L1613K8906J1590p13P325K4457L0592K4369J5217P68k3861m3807m0913k8405l6090
69075a21311n8201n1607J756O3683Q9169P7505N2266J9873k0997n1442n0636l0684k0009j9905r668J1129J9789R537
69057h9753j721n271j2541k5241k4745k450K5797M6883O5756Q0171O7998K0396l3835n9845n7045m7584m0405k9955
69039a23390j7894j0730k598J6570M0417N4934O2375P2753P5307M6644q557n2124n8696m4722l6975l3080j4876J2571
69021b2071K1671R55k8518m0706l3109k0740j4428j5739k4815l9327m7406l4597k408K8463L9021L0532J7164O667
69003a79391l803j7567l4431n3689o9115o2821k0764M0698Q0163P4560M5641L0807L8436M7565M2500K7199Q942j0203
68985a5273k3058j8553M61J7278K4734L0951L5746K3539o982k7620j4988J6560L7553M2544M0617K3413k0058o3644
68967A03220o2670j9387J1029m038l1603k9575r574p396j9286j3627Q572J3836m771j5657m371K661j1564j9896M514
68948a09583L8929M1843J5165j189J0522K6931K7055K1446K4647K4015k124m6958p7530p4475n3811m3408m7724m5712
68930b71961k0788J7576M5607N0466L7099J6089m885j9269k1862j2915M258K7766N1200N8183L8298Q280n81J9061
68912B1622M1573M3940L1845K0750J0917l587j8752l1946n2505p9024q2449m1642J3624K8669p766n2530o7584n7199
68894b82044l7596o397L5217N9162M1867M794p472J4878L7736L2536J0388o97O774J8125K1559K0938K5388L5488
68876C0644M2599L8628K3992N827j0367k5516m3058o1708p2854o5263l4906O532L5598L6584J8464O407J4401L2583
68858b1413M4518M8481N3869O2328O3907N2197L3190J4683n189l0647n3601n8091m3297l2372m7453p8653q9927n8844
68840a46314j355M7360O7510O3400M7323K7595R712k737j1029j9655l0917m3570n2643m7098j6240L2326O8630O7614
68822E9912L7658R880J986N091K938j1133l5351o1363p3288n9820k9887l668J0904J7475J1462j4490m3504m2032n828
68803b23058K8169L1741K1463K3931L0505J7998k658M144M4312Q2789R0498P4411N3487L0573K211k2339k9735k2957
68785B35485k0259l4449n8085o8793m9974q609L0942N3744O5742P1563N5288K469o6277j07154j00113o5508l3739
68768i7727j8474k0867l5457m3534k4317J3689L2740J3896j2842o819K8133N0342L5522J881k0012k1522j3877o490
68750a45735K754K0284M4698O1764N5210K6628j616j1307j0312j8295l5523m2191k9779j5826j8640k9977k5839J467
68732a72235L5396N8799P2571Q4391Q8343O9485L0013k948p617M89j6936p1552j28445j44291j13180o1734j0302
68715b89753L9719Q2200R4801O4381J1626k3440j7923J7492N2263N9946L5377k440k7235l1457l1141l9430m4533
68698d9547k7302N298K3752J5937M743J5225L8699M5602K6822M600K043J6275K6292J7709n205k5505k7978j3204R46
68679I5202j826j5439j9249q501l373j9631m3703n1452m2403l6066l7142k6353P260M2538M8196J9522j9202m3603
68661a55225m8754m2434l1688j9600p385N704K1225L7208M7252M6290L5266J8103l063k5289l8889l1124o35L5094
68643a57944N3198M7406L2545K6802L3797M2724M0392K1364o989k6282k1488P37J5067N468j7030l2464l8349m4593
68625b5639m9319l8280q540K3758M2266M3557K9966N231j8666k6059j5417Q43J8129M3510P1412P7431N0843J4706
68607B39732m269j0285k3377m4155n6893n7581n4305m6452k8325r581p021j7005j9942j1784o431o304K509K1803
68589a39666L5331L8108M3884N3771M6669J6091j1062j2221j167m60m785K358J5149J7893J5669K2196K8578J5716
68571A82052j0006k5829l2286m9376p2994p1327l3156J1618L1816K8310J4953o086l1497m2479k6474N54J3638J0825
68553a07744R152J7751L0675L8823L5122J5593j0843k1279k966K5722L2260N509l5325o2062n8197k5831J4167L3326
68535f6147K0549n216j6390o361J1226K3760K5739J2013j4691l2485j8586J8647M6421N0408M8485N2823M4100M782
68517A99077m1341n4150l5354k7993n0615o4048k6586L9068O7308L3451j6814l0023p526J3981K0897L0480M9064
68500I8876N5815L4519k286l1371m4411m6489m3323l8953l4579k3540O27K7341L5665K2269M528q820k5780m0907
68482f0819k7477J9333N9148N5164K4502P993R660M740p676o611J742j2743m5097m8428m683M0590M0859J1301k433
68463E9065R246K0102J7161J2852J4615J4339R027P132J0240P357p036k2647k6677j9578j3370j6856k2954j2616
68445C9402K1906N8970O5958L9683J3394J4321K7699J5988l4424r6350j25469r5583k1754M4952N9098K6047p236
68428D6602j1893o590j6286k8777j7694J1044K7548K3100J6117J6511J2682l453k1152k4315n149L2645O8196O9642
68410A88778K8679j8452l1218j9370k4610n1175n6566k1293J4322P405k5854l6810j1081K3273M1218M2490L2686
68393H2422J1944j3579l0317l3788l2618l2462k9087k1717k0272l0666m0771l1846l512K0808J8690l739j6273R82
68375b05801L4649N5633N2480L6058J6241q222l3519m2568k5786L40J0121J084l417J3819L8473L8508K154m3574
68357f3327n7411k6435K1644N0509N1253M0578L3041K8538K3350J8315J3815P657L53n861j3344k5531l8627m6998
68339A1519n3741o2237o0002l0036J7991M6406K8687k1511o6340p7207m8967L078N0603O8162N2050J8908j4338l8382
68321a75357m2724k0415J3650L0808K4821K0201L3827M9927M8567L7847L7225M5372M6668L6570J9028q662m4475
68304A52878o5676n0903j3381J2600J5331J2196J5060J5949J0831J2047K6449L9431L2820Q215j5764k2717j1641K599
68286A76324K187j3416k4424j8045j1677l2075p4894j04633r6603o0767k0381J4980M7489P6480R4771R2355O2315
68269A09986J2948k8270l9402l3170m1389o6128p0151k9392K5480M1249O172l7827m3691m601M7524P4360N9426J5384
68251a492k8640m8038l5232K354M8364Q0306P7098L5253k2250o0187n8471k6086J1455L6348M8147N0272L5515m322
68233A40394n6310q9070q3675m9830n941L9607P6166Q1547M9057R215m640l122k0854n5091o3950l1646M829J1449
68215e1865L799J2836L3915M2006L6867L7555M2435K8785q872m7878o7282o6331n0939k3146R203K8805K4567L853
68197a1687j4695j6300l16J8121K0448N593o693j05J8759L2739L3920J9986j3059n4777p1142l9457J3525L7416K1920
68178e804N674J7366L8155L4742M044l1303n1713m8577k1899J1394K1548j335k8751k6335L130K6491K2397j621k8141
68159f0538m5444m5544k6608j485J0810O611N55O254K4626M9749P1246P0634L4948j8148m6323k8015R066J9555o559
68140B5390l7916m4609k9255j2836o550q366j6982l2956m6084l6600R05M1520N2109L1814J7324L7422P1741P2768
68122G8839K8108k0050k7802m358N605j4900l5089k2967J1097L1850K5707J0335K476l493j8701l6058l6973j8488
68104d4862j414o914l1852n4503o0941n5371m3277j8356K2073N7517N9262K7135n103r096O012J1216l214k0532k3949
68085a96169j5389p646q991j7210k1207q825J9115M3490M4308K3633L252Q0J2033K6632L3314K7428J3219M002Q591
68066a6340J6939J1733n189j3860p098j333p019p395J4939M2756L8262r163o6420r0443o8268k3799N993K457j8348
68047b01596k1516Q134M8345O8016O4093N4693M3364J4366l3276o9761o5176k2986K6989N7433N6688K7671j1681
68030D3800l6902m1874m7835p1076q9585o5446m39N6660O7963M8522L3957K7232O155k6309l4912k956L8933N2418
68012d1694L9101K6849K3479J1119j8717n1701p4907r0281r7142q3940m9704j4265Q385L0727O7250J02765J08046
67995a04630Q0549M6640K4275N571j9849m4372n4414m9068l7397k6386j8331j1680P94K5387N3722O6183N6477M2028
67977C5499L9210L7021J0242m3299r1655r8280n6353O713N2939O1953M2829K1918J7575K5863L0137J9515n254l7438
67959F9135o6818p9529o6647l5744o530P702Q624K871o246j2664m591K1789N2150O8702P0301O5721N2314K0629j7895
67940A43274l0131j476L8836M9491K3994j1080l4571m4347l7191l976M6453Q0561P1796K7678k2236n2255m9261j5363
67922A80196K5186L9034J9658l867q304p906k4703m7232m9153l4809k9572l1588j4770J6749K1100j7350n4902m6507
67904f8740p967J1409j655j6488r931P356J5755J1500K215m219k717M297N699l035p314R383L9575N8593N4371L5161
67884A33248J2157o907j0502O952K6018J6353k2673n5499n3371k5926m91J1516J4268R998p46j0256j0164k361M969
67865C6583N650n375k9468n3301n4661k9933j825J2547K4768M9308P1460O5783L6491J2887Q274P754m706k9972o2601
67846E9663r1691r3941n3680O466M1957L9074K4134J5330M19k4037l0211l704K1792J1779j0120O385N9960R5234
67828G4809P7797L0190j3350m8245p9137r1454o9383k4871J2682K6517J9758L907q300r570q118j9849m1175m3818
67810b11610r944M0114P0603P0661N5361L5589Q711k1370l5519k0101J3441L8406L9323K3740Q441r17j1246k4791
67792F8892l1837k8177k8011m3100n7599m7095j9286o590j4476j1197J6755L4320J0114l0267l9273j4572R252K1372
67774b10775M0013O1469N5509K2657Q045L4013N8439L3526k2427n0498l2439p204r256k6277k8031j1836j993j4292
67756a01357l5192l7209j0204K5761M1537L1145J5497J3163J9554K2069K3277L4318N1178N3360K7475j7697n9792
67739I6883p8657o6179l2329l256k732k9601n8321o4418m5521j7341M081J3479J6307K2970L9889O1359P1067N6091
67721a6229K1842q127j1525R253K4671O620l7384o6626n1716j0730J1232m062l0234l5514k0972o208P180L2669O2638
67702a23222O3787K1164l3298n4586l5084l278J7168K4085J8415k072k5531k8258o247J5853J9949J7865K2615J7913
67684g2762j6361o0665o9085k6468L2135O2382N1745J8066j2299j9202K37K6365L4683K4089J6379K5335M0530M5932
67666A01036L9952L0036J9481P116q175k6506m3072m6124l0549j1494q440j6390j2554O417J6412J852k1920l2220
67648c5142k4806n920J9977M1382M0399J9226O212J6944K9148J8442o23J724J9143J5005k2669o0964o1569k1306
67630e397K9639N5344M0722L851k1015k3084k7631n4832q2122p3147l2596j28N443K003M139M022n4P131K4072K2313
67610a21327o671k4291L813N0330N7007J3599k9916l0948j569K1390K5842K5446K8336K7784K0367J5186K0323L0461
67592A25162L3902K6423J2784k158j7644l2847m3622m5315l6948k2814j1239q350r065J027K6439M8534M4794K0853
67574A09916O572J4855K1948R84l9474o7393o8912n9840n8688o4211o0507l3903J4314O3540Q5738P0966L7243P882
67556a8970j2457k9417l8904l2646j5374K190K0566M1430M7747K0971k1901l6018j919M9276P2009N1128O075l0589
67538G3197l2902L3L5613L4329o067m7618n8969m7461l8259m2119n3456o0099m4345L147N7438P2584M0126R041K1083
67519h4704M9557L7965j6000n7247n0410j7838P115K4267M4255N4381L7081N568q666K040J6355J8959J7037J8093
67501I7808J4215J181m122J4328L9291L2406j6128o6786p1327k5665K8566N0306L6825J7793K1057M4848N9135L6809
67483C10540j3294n1221n0021k5523j1404j5577j9782j5348j4321k2964k8446k1729j4113j7626k3840j7228p1R939
67465d2029J843j8823l7658m1349k5413N63J9325K1620J0720q241l1564m6959l6562l74L5785M8348M2526L8034L7415
67446c2793K5695p86k1966j6297J3215M2150N2302N0483N4354O0653M0825j9872q8625j12179p9295l5957l0322n8902
67428a57317p7744n4071M274O1089Q3081O5224L2078J0802M718K013K433J4335K8491K3207Q40r921J669J2395Q715
67409E6311J3619M4747P4629O6103K7537k219j0909k0225m2840o4361o6938m5510l681M3203O6372N0331J7024j074
67391B02119o308k6792o5799r1061p7967l7409L619K6339K3095k26k0461j7140J032R263M889Q216K5323L8133L6588
67372C5453L2832L4147K7556M570j8915k0588L763L9625O3127N0798J804m6569m9952j0290K4704K1715l630k0217
67354A69933k1344j7394j4184j5639k6959l9689l4255j2078k186j8109l1837j3666K2232L8663K7395J3233J4111
67337C8227K0882J3600j8271o6037r9419q5238k4558L9256O5252N6385M1657L3833K7437K3803K8753L2067J8087m735
67319A40981j1424J087Q401m049k1922k8298k8127l4309m4776m6761l5332j7323j739O713Q007N249J627j083O13
67300a02465J1931L0536M2346L6225J9855R932Q353J310j5656k4931p810K8089N1226L7062n775m1614m2086j5153
67282B1375L345j0853m3897o0437m2465o765J3204j402l8073o3264n3133j7598J0813J4742J0097K0177M1602M9378
67264a53154L2124P670O11J4711L3480M1697L8236K8453J2525j0847l1634l1911r188J3583J3681k367j0916p670
67246b0916j1672l1647n0221m9218l1568q707J5194L4618L7341K4089J7725L3972N5250N3147K6883l72j5110k1971
67228E6817k3965j7031n327k893j5119l0067l0579q628K7536N2119L7812j1354n1554m3458l70K8854K2522O956J0136
67209B407K0172O138l4342o7125n8557r069N0767Q9647R6640P6545L5226k0224p1326r5882r1848p8734o6657m0273
67191b56495J2184O8351R0056O5317J6152k7947m8847m1929j9081m344r783k1362k1883j4693p213R557L6762M1914
67173a33284j345n7069n8926k004M5140L3876m910j7566j210J3695K0679L4246M7620L6463K314k0886q674K6007
67155d5834N0133M3266J4367n272P303L5509L6233m982m9667n4518k4843L970J9732L3845L9490J2189m2082p7237
67137h398o2981k3814l791j2921k8156l1257k2986q108J2069L3055M8607N9545O9498P1495N0333K001n6226r7829
67119i864j05116p6593k5163K7121N9058O2419M5299K2412L492q951j5711j9740k6936m1390n7242n9769m0138q890
67101b75702J0597N478j2852k3472k2206k4197l7008m1900j4510L9383Q3306Q7880N7154J5202j6843k3494L980M9481
67083a39723O9911L7366k1214n0382k9987J0494L7471M3270K9879j056l0026k6280P392K7131Q891j3553j580K6326
67065a5670K5742k006j6895q969j0090l4072n1077l4860J231L0697M5387M6172L1606J2733J1934K7661K4494j9415
67047F4603p4604r3367o6120k2490J1696L3877M6914M6954L4726K3497K6015L7758L9666J9516j2295l4362m0817
67030D1167m4579n1058m7178k8658j6634k4665k9328n539K5271K2873n452j3130J2875L8201M6044O0051Q3874P4935
67012A39070J2771n3552o7995m0417j5568m668M478l2l4424o8395n1314J2748O3927O2852K7789n848k3514k4128
66994f6220j1520l070j7462m5035n4366l3446j709K0667L1196L1264J9312K608n239j469Q398K5919N0378O0673L5599
66975D6478r062l2835k1656j00P021l253k7177n8068p1372m1065J8824N9286N3610K3174k60p115K980L1257O0985
66956C1652O0377K3799j6146l4677m5085o4045p5699n6567j5258J8004K7083J6985K168L912L8659R0100J13234Q6339
66938B04835L9723J3968J2413J6634K2544L0411K1436j8348o3546p4122m7729j6940k901l226j7509m8271p7923q0101
66920h8652n7441l6761k3995J728M2057O4615N2152L4712M6468P2397O9010K9161m201N559L9154M2718o730p0959
66902B10992r2765o1495k1505j3740k8396k9607j0289K370r792l2660m2288l0136k669K5024L1573N836l1629m2163
66884a73339j2835K9419N3364N2778L2178r405n9465p9760m4868J5504M2452J5701k9000n0643m4976k9441j1960R128
66866b95168L0429M5968N5323N6975M3603J7643J503J4016M1560N1255L2016M279j2730k3711l9923n6772o1346n0589
66848a45669l0054m203K0143K9911J9118l33j3696k2288l4145m4192m0831k5459n486K5869P6262J20666J13098M5435
66830H4146l1123o3169n4454m5858n1907m7717j6503J9675K8594J0307l991J0030M4074O9317O6692M1099R534j6273
66812E2473l1933l3756k1246m108N059O893J3518K8007L6750K7435M966j6492k9163l3374l1059k3402j0000J1762
66794d7670L9400N7492M8703J5344k1577m7142o3208p2175o7275m5640j5999J2475L3384L3492L929l2380l4281J492
66776b01636K7892J2687j4777j1160J6464L2498L3537L8591L6014k297n6018o4711j3778L9892M8259L0368K3350
66759b4825K0650j434k9468l1666j3118q335k4926l2381q421L2283N8543N0275P476m5588o7097l4019K4718N4194
66741g3139L7441J1275J2164L1016L6329K0850L025n617r883j1110j945J3777J6336j984j8502p183K2654L4010Q909
66722A18423l1191n6864o3134n8895m3657j7057J062j0500l6452l4697Q083N5214O6811M6344K4573J6923J8880K8329
66704C2195M4433N0247K5021k2430n5960n4818l4659j8090n399J0625K0066J0307m850Q71K1634J7952k6412p0369
66686e9636o3828j6579J2514o498m0267m5683k6164j1919q816L76J6622K2659J8680K5308M4457N0019L1253J5041
66668d2461K3112L2168O919m1214o1315k8043K7185N6422M7425K6727K3258L9219N2509M1116M439l7708o4190o6930
66650C8638n0617k9402k3408m1661o2236m7804N935N4627N6933K6875J0283K0554K9358J8653P156J4938L0969L3391
66632I3182K1005N356j2541l6231n4219m7933j7574J6108L6032M2787M4602M4849M1923L3531J8236l535k9262n5706
66614A40610p5913p4077l5471K8483P5297O9376K3252j5440j9830r723j5825l6220m3836k7042l990K996p723k1623
66596d6699k6348j9079l138J4640K4987K0730K178k2279m0277m1667k4963J92J9071K1859P777j6874l9342m2498
66578b11730j7061K5304N9974P4428P7006P7164O9720M7743J8943m756k4984m8125o6190o5695n1619m1807l9005
66561a20690l1025j9035j8735k7008j6888J9703N1914N3853M3523N0295O4659N5223K2618k105q585j7232l4419l6871
66543B9195j4453O158J497j3101j2970o698j9323m6600n7310l7925q317R060J3437J4158J4301J5669K6323N0118
66525c6781P3507P3397M0757o761l8644l9531k2235j0764j3846k2224k8694l6925m7610n1021m1685k7071j1600J3326
66507b34405M8658P1098N8074K0675r993k2671k8172k7234p303K4776L9004K5034J1501K3619M4465M2225J7782l221
66489I3912j4397l3182o3049q0918o9488l9014o958K4182N4806O9503N0082L463l9016n3360m5598l8421l9337k9432
66471b56222J1238O9665J02472Q0589K4540j6736j9296k688M990L242J1148L5454O0455O6384M7771J4081k0501m6666
66453A69920o3016p0982o8221n1548k7037r926q977j4621q423J5795M2413M6050J6173k6625m4062j9972J5758J7256
66435i0045k1399n6270m6039K125M9880P3736P5059N6907J6876l6044p7335q6107n9126p244M9560Q5287Q2360M7787
66417E9968O113k3475l4273k3953J333J7676L036k8113l3704J206M0875M6721K8766K5078M1967M3535K788n9029
66399A16515r3963p7709l0921N219R800j510l22J8150L0229J4876k1411n4257o4345m6352r922J9719J8629m565r780
66380a81920K4553O8104P8377N9506M9296N4339L7846j8918p8916r4394o5695l2032k0428k7761m2524n8095o4689
66363c13351m8704o980M6876R2498J14548J08320Q1448M8628K0553J530k417J3075L3013K7281j0881m6667m7655
66346A11115l2819m4229p4912o8664n633N4261M6369j0287m3888l3196k6687n3959p2718l4641L4334O3158K7519
66329a64877k9897o4446p1658n9797k4556K7222O2394O0885M8637N9434P8829O2125L203n0748n8634k9035M464K2799
66311a23656K2372L145k2638k8190j434L4810N0631M5316L6206K4175k911l7387n0798l0351M527K6689K5164K962
66293b1368k7920m4111k5656J6014M3068L5793J4924P292Q264k989k6476m3074m4601l9641l3630k3930j2292k845
66275b23178R551K8472L6730J3980k5098l9306j6205J0841J6364K3197O1745J12250J24838Q7623L7984O094j6275
66258B49607m1462n5345m3601k5196l1326n9999p5972n5010r696L0456M8625M5600K8720P487l886Q970M6211Q5066
66240A49249R3857O2547J6185j2150k0545l6029o9963r4702p9692l6341m758j829p074j443N901R91o551J057J7382
66221b3908J6972q638l7615m3487k1929J0371L2406L1984J4337K572J7444M8820N8879K5730k5307m9696l7033j7139
66203e237j3344j2946O015L8603O1793O7035O3129N2157K4575j9564o2439q6656q8198o8373k9325J5776M3881M4898
66185C1780L2881K5397K2515J5325K847j1042k5365l3570k0896J2028L5405K3251p884j9157m328N038q618k3821
66167E1786j8366l654j345q547r743o891j2400k2696k3940j7804j6986j8698q579Q146O727j7797l5583k0225J6442
66148a60153M3169M7979M1334L3042K5621K3198K7757L0598K5376K4244L8351M5576R488n9585r4808m9859L5682
66131H7010Q0311N8666J9327N849J396l0032q0412j07896r5003o4734m1326k2486L003L0332M3025L3359J1238l292
66113g1665L686K4650L4204J8046m434q83L0776N7514N4986L7652L2715L9222L2566L639k6409l3567j8823j930L313
66094B15258j384r723k0220l0533l0409j2792O795l669n4476j09565j17042o4758Q752N9676P8343P8677O8577M6111
66076A07618J3517k0750m8327n8861m1792m636J9555K864m1535p1483o3838l4551j1493o371j7202l7891n4143m6081
66058d15400j0439K9063M7654M8879N3715O5672O5149M1508J4435J2319L6869O0356N6501K5167j4491m5825o2950
66041H182o3148m3045o737K8479M1377K2898j6825n5124p0941n8404k9641j191K2305M4331N7692M4723N236k9708
66023i9541k9020N15K5576L1189L2953M3658N1977M4274K7691J6469R872j22j0247j2382j0392j2701j3441N8K2458
66004A18844L1366J5529j2908l6464m7872m5072k7232k821J1909J0306M33j1875l0247n0233n1840k5000R669K3137
65986a20371J3502K924N616J6237K5107K5913J1165j8846m1539k8827J4728M9648M6657J7912n604j0226l10K0530
65968B4216M9736P5647Q3859P0972M2588N099l1042n0543m8869l8920k9662j1633J8781L6361J5750k5953m6575l5945
65950A03867k2554k2017j7464k952o047m0367o7603m3576J6670N7757N8226M7288M8288M5139J8153j8611l8033l8336
65932G7828l7102l7303k3501P383L0614J8965k3357o0684o0821k6839Q194J7165N207k403O976K1377K4595J7573
65914c6133J2512J2326P418o293j6557r421J0699K5359K5137J6781M368k2098o6301j03251r7235m4264J8743N2121
65896b16089M8695K7574Q762L286J3364K6120J5344l2335r3176j21603r3547k8402L1737N8124N1873L3633K2481
65879b44159K4660L8889O2712Q4647P9259L1857k9929n4390k7859M635l13k6256k7517J85J8688J0594P60P870J5700
65860b9967J1161J4475M1561O2970L8150k1481o1353n5094l2919l0353l9297k9917k09K3019K5219J9651J8451J1698
65842c4235j0886l4310l5510j8728j0013j5780j2113J4836M1972M1969K3982J5706J7301M700k4023l8966k2784M529
65824i2353J8876K4640L5403M4055L6825K2785K1922L0407K5093K796j1598m293L545j2520m0238m4326j5789J3870
65806E9100J3843p361j8448j0589o256k1563l9550l3069j616L0362M4669M1626K4510p593m5848o7129n4856j7071
65788a16839K2850M6701M8347L0029J014k4834l8192m0362l7728l3215k4885r437J3551L6798M6284L4254J1292j490
65770c5862P178L0771N2921N5358K5733k7411p2165q3164p0485n8686m2767L061O8195R4887M7107l6406q4640p1661
65752a98036k6559J5939M3194N2778M6007L4630K9382K0548q872n0620p4208o4682l5876k714L6015P7529R8784P7821
65734G1060K2990l0868n1256k8582K2394P2321R3080P3759K5031l0029o8043p4495n1608j9765m674j7786m7228o5749
65716a09448n0110k664M3060M9563J5975j8285TR325L3276L6391K1918l760l1823m3303k5166R079L5503N0751O4085
65697F6082O6002L6614j3672m4819l8020j8185j4829k6908l9684m9897n5903m5390j4421J7694L1424L0180K4604
65680h9128J2448n643r782J2162L4694K2681j6863m0801k6470O760L4907N7493P6391P4421L8557r137k8320p274
65662A37096K4178L2511J8107O423R947J3763J384j9063k6575j7655q588q648r151m180l895j5208k3546j0416J8258
65643A14742L6985L1278J1450k494n94J0261J2166p768m1800o7938p5899p5542p3214n7422k3958J694p149l5856
65625b51058m2624j4230J9260K9080K0311J0770K725p665j0965N413L5715N9280O1551M4090K0539P931J1864J4850
65607A6837p099m8674p3080n8620k9823k1983k9670j8289K0187N4450N9954M8021L7543K4199j451k2991j1819L1834
65589c0474P2189P5522M2471J557j9507j4865k463p261l5431o3984o2594k5844K3010N8477P2290O6659M3202O624
65571A99578l0789n7761p0938o7362m0350O338M9198O5002N6482M4222L6455K3462J785j5583k0395k4087l9350n7627
65553E8280n8251l4822j899K1170K4962J2753k660p439O42J0538J4567K1102M1265O7012P4486N0149M674l9785o7320
65534A89424p2675n9446m0195l0437l3572l4325j4888K1568M9777M8921K7252J3650K3609M1445M2587K6108J1573
65517B10376N998p029l7432o5497o5271m1023k0542j5504q297J8867N8703Q9008R4555P2402K8735j8919m6177m1452
65499B11501j8055J955J2286K2163L4741L7400J7496j8444m7162n0673l3723j7097j3546j5030q497P25p166l6991
65481G1883o4631o1227k6208J1657K3686N963k2685m0918m2633l7598l5185l0382j2924J0843J8949M166r652L295
65463b33601L2508M0365R893l2396m5508j4279M1630Q5816Q8459M6547r217l7803k7600n500k68q776r613R88L393
65444g4962j8861n8554q7312p1499J465R6281J42365J00283J2441l9629k8527q75R5q189R617M1271M3069N829l3339
65425C0969m2039k3816J803K0992K2905K550k4175k9453o561K3369M2379N2385N4453L6563l194m1743n7436n6403
65407C548n6317n8484n3833m3777l5274k4321l381K1471L7844M4259M3845L0575K561j8854q607K4600M3900L0072Q83
65388a9290j8305k1985j6248l157J6072L6037N2967O3629N5715J7893l3456n8168l7690j174R776j0178l3657m1353
65370d2572l7544l0052j8409o005m332j4171j4817J3118N6122P1078K7724n4260j17303j18974o9681j3661K0927
65353c52812M1178O1216P3921O2379K8621m324j6421n110K2089N5700Q1303Q0555M6368m751m3677n4710m6898l7030
65335a2403k6688n191K4961L8785J5506l2581p0801p8460o1575l3746m413J1892m42l0774l9255k588N0005P0059
65317a87709N0880K9128K8545L2930K2971J0134J4119K7332K7369J3756N685O897M10j6970k1580K57K2346Q543l6442
65298C8601o9594o2093k8298J031J3136J1087k882k2603k7830j236M5007P6292P1231L8302j447l2104m2167k5581
65280b1148O523K8361K4563M106j7156l4832m6754m0524r367K7540M1683L1342K1923K7971L4618K5648J1873J4583
65262A30953K9995K9712k344m8373p7337p6389n4686k5963NJ3152O696j0643j8829j0607j104l689p387O388L2533
65243h7917M7607M3727L4614K5615L541l2285n3436l7670l453J4892J4523J8643K9872K1914j5299n0661m9062j5385
65225i0220J6811K9010L0845L5171L9953L8864L4994L4151L1331J5280j2104k9943k0114P203J9515j943l8699n4541
65207H5564l5216k042J1882p426m5699p4420p3650m7169j6708J112R760K1674L8582N1325N4929N2472M4549K6089
65189I5608m222l9443p0445q9305q8564o7582l8946j6312M570L8339Q0913J04501Q9889M9749R967j8908l9202m7726
65171d7119l8144j6854Q0O150Q956J5305K1714K0380P432j3721l1185l1002j3460J415m158k1213k4252m778J9130
65152a45324K8292K3564J7296J6531K1019K7122K6473J0829j3358k4299q795J9378L4008K3495m692l7880o3568o7499
65134a17408m3599o271K1275L2049L5030L0568O560l2667n4044l0629K1878O1287O5183M4559J7890p196k6977l7778
65116b0290m3982n1760n0487k1583K4805M5626J6743k8535l6912n62M0368N5154N4006N8975O9853P1539N8200L6600
65098B77758J5118j327j2843k6306m6739o3725n8275k8931K76M155k0920o0673r4050r6644n4130J3773N9262N3294
65080a40927J5947j2098j3801K079K2907L3621J4501l1837o3237m2366P792L0116J3485L901K7201M7490K7165j2098
65062g0159k5782j5815j9518m3361n2829k9308J621R509j664p040N990L0435N0874N2624L2395P596L016K1069L6794
65043a3553K9103N133j3854j8512j4008p586m455q038j4688j5616j2068j8302l8718n3207m1045j1365Q888J3223
65025b28668K0925M2599O1636N8628L7289J3747o941k8677m7248n2655m6491m1070l8480k4375R662M7618O4691N8149
65007i9661N0693N9764P2359N9233J2076m2473o9856o3005m4419l6105l7168l3991k3169j4045j0823l851J6173M2439
64989a65829N7824N3218L2924M873k3391l7265j7676L6303R2938J10315P6346J8290k7934m7587m4836k6175J535
64972I3873K4362K7377Q466k1100m8389o4641o3580m4328j5505J1880L3960M8084M2766R652l4601n6959m5125k0345
64954a14153n465K571J6306L1430L6143L4030L4817L0286N275k9681m4096l0263j3498j0319l213K5126N5804N8253
64936G9353L6411K1332K3202K0130j954k4967k5618p592P145O783l302j2988j5660j0926q377k1151m5710n6370l3067
64917g3326J0339L8213L0274m248m2456o1726m4576N373M9359M1336j6948o8353o3329j3834L2010M9837M8380L4895
64899d8780P697j8818j9038L320J0891j4370m0799l1634K253K1290J2420m661j5970k3745k0696R713N6373P4338
64881d0216L5617l2260p7353p9767n8651l3777l723L6338P3275Q2703N3828L947l2679l3522p451J6180J6791m004
64863h4724l3731n9787o7161m3255L774M3725N4337M3948L3691K8897K2998J7426J5657M596l2129q1763j08297r6500
64845c38298o7144m0263q536L6353P3647P6116N1402L4246M0610N3649N6276N2896M9613L4277n964n7427q7551p7942
64827a24040l8559Q781M8781P3352P6172N5607K0365j3329l1320k8849j2055N674J1906L890j0146j8957j7458r611
64809B04n168j1792k4360k3024P378N1700P0869M5360J988j9187j6703k3031m9873o7846n1012j3207J9983M9835
64791e7886Q4986J02611P0557M858l6364k6608l277r552l5724m3277k3093N23R096K919j6593m6739o6783n0078J78
64772a40246M8048O4310N2504L2601J8140J5884K7600M0205L0733l846l4284l2952j1552o884l1948n8990n5356k2736
64754f8769Q435J7078J3219J9791M0421N4246M3193J5143o719j0929m326L675J0395J3912J1209N521M439P318N271
64735A82523l493j0412j2159j5623k2281k3183j6804j4811j9557j4633O636K2063J1477r469j3080m827j2915l8450
64717h998n1024l6304j4140j382R781K2634J8551q701k9371j7084Q682J0459j1781k6153k0906j5657k1082k1735p634
64698b21845N773L096o992p874Q87Q648R473R63j9625m5338n6668m1297p464L1704P2522J05481J03792N3806j0886
64679b1844l5268n641L7953N6590N3806N1249M9378L4525Q368j4497k9791m1283m1139j8030J5130K7461J1019p576
64661A30410p334l109j8860m8059o2895n3433l5216k0880m823K0798M9934O7291O1195L2645p19j5081o290K036q532
64642G9078j9809k822L0658L5261m034m9057o4137o0980o2760n4059o168O3141R9026Q0345M4592L2878M0649L9234
64624B21036K2394Q037L793p271m2872r2868j21099r8858l6765K2223M4679L4271J4490n11n901M728K6222L0122l318
64605B2532m6471n1387j6486J0568M361m717J2343L2685K1900n614r104J3551K7735K1843K0434L3867L7321J5950
64587A41311l961O304L0594K6809j6430o4726p7625m7759n67L2171L5230J5198r473k2683j8302n89J7463J9923J144
64568F4032k5480l8730l1605j7291j2303j9059k6851k5609j6490r618j0168p493J4095M9972P2175O2474L8187K8316
64550H8554L1134J7804k1268n7146n8251k7841N270J9789J4847J415p540o313m285j6071l8019m7401l3702j5939
64532a54963j5751k7121k9548j8309j171K3155N5925P3591M5691j5423n3422l3848J1447K7225N313j4874q614J905
64514a28792j4668n1407p0007m5923P199N4627P0743N3080J7917j2846k6409k6116k1684j1639J6701O3305R9731
64497b6188R2420M2784r767l1074k7136k7018m1908n5933n2011l0073O38L1415N1314M8555K4109l970j7489j4212
64479d5544l177P422J1539M100j1554k1621j7268o764k831m706m560m852j3299k4014k1841o037P836J2066J5005
64460a30100K1694K6234K9472M0933N2142L4534j5535n4383m3310m006J4754J1644K7250O5450P3917K3656l6729
64443A37617m0506J2914O8920R1303Q6285O6344L2115q894m0370o0542q0395r3967p8851l5929j751m404k5669k4831
64425f11J0918N4129O8238M1876k026k6836j9064m653j6532m9010o5794n4750m5295n8494o9289m3354R605M8626
64407b22316N4233L9738J9994K64q426M309K3761K2039M55q203J1664L5724L8387K6060J3568n048l4726m9767k1660
64388e9950L0899N3737K1899l3473o6852o2531l1461R665M1919M7682K9805J4583J8460K2527j643m9272q5777q8061
64370a87844o1158j6359M0780R3757J12800Q7851M7715K6573K2506J0680j0392j3447J3234M1369L6388P4l5288m5468
64352A63771l2445j0901O953J3294N719q489j6524j2693k927L809L085o445k4150m2614m7332k8295Q224M2584N6545
64333G1169M4753J5764j3825k8466k4169j3104j3301k9282m5404m3448k5483j2636j9761l7601m3564k5182J0357
64316b33183M3466N3856L3970J940n196L2021Q4604R7058M7591k5552o6486n9718l5031k3767k6601k4290o345J7603
64298i4060K9761K2032J761j8306l1414l4365k0287J2395M4216M7163K2027M697J8801L8744K4426j8349m3784l0751
64280b5293o731K705J4086N1292R4604R7908M9901j0755m3862m8940n1345o3928p3685o0320k1379K0269L5777K0868
64262a8828J627K402J5496J6866O093R325L8160O6064N8331J3626l6172n8841m4674o524K9553L9656K1701j627q457
64243A43777j940M23n482q640n559o203j3291j2099R114L8183M9749L4109Q159l231N593J4358R43k8152m1509k3631
64223A54671P06j835k7128m1162k8072m452J3572K6364K7386j510n3346q5620p1917l7935j8045l079L0340O1026
64205f0036M5211q361l6840n891M9180P7668O9035L7865n836m5344n1046j9148P863p138m2786n1866l1730k2919
64187a02119m2160n5810k8256L2090Q7810J13159J06528P6179K9307k5721p3227r1390o6777j1801L9033N7136M0634
64170H4615O597k4956l4542r199L8556O9286N2106l083n9617q9921q5633m8903L537L8058L2076K404j4390o496P872
64151d1633J3888J4721J4835J3354J5895L0465M8125M8259K6794P53j6723k6836l1078k9171l1910n1297p4007o9811
64133a45377l2944Q668L1584L9072L8800K7708J1311Q714K0117J5101k4433p0182p9237m4944L294L5823L9896J7363
64115i9666j2844k1508J569L3151M4860L3079R171j9496m0676l2412N488L2707J2254l7555o4493m7104q920K3108
64097a89287M0656L8156J1201k2667l1406p039K4258L5943K4608j284l0544m2725k0587K0179L8395J7972j0668j3744
64079a18583K663J0573L170k322N797K2461L9502N2802N7146M8447L2206J8936R581n536k9602m7811m0663j0155
64061D8612J4050M346k8768m3286j5804K7719M4281K5354k165j7107k1856k2596j9063j7399k7443m0460l4645j0714
64043a36944N877J0127L1845Q1462J13158P9682M317m5484m8865m9961p9705j04923p8763r165N4230Q2031Q2152
64026h929O6008L3392n430k3423q235J8513K9109K3143J5788M859k5098o7133q6916o4162j9453J4919L4453N3074
64008a5521O6564N2754Q791l5481m9703l3351q000N876j431k5459m3840l1334Q580M0184L7829J9037J7368L3131
63990D5994L5265R230k2462l3605k6893k1668k4394k5616j8092n241M682L951j0965l3210m7538m6926m2568m7082
63972c07138n1953l6239R36L1693L1522J0500J962K4242O1859Q2491O6610K3556j5141k1095N521L7733N3282N7612
63954E7953O6486P4055N6498Q108m4188o9744o5195m9267l7643l1616k3927q912P247M732k9773p7803r9258p5334
63936c37581k6779J7267M8965O8912O8258M6483K7961L2338M1751K7152l681j8333j2335j0527j6491l824L1658N3012
63918C4206L6498R075M435J1432l48k5321k9763n276J9998K2169N369j6971l9669n8330o3352m9984k4454K930K2644
63899a44712K6166J3311r48J176J9455L5789L5108J8271l931k0356k4222j7379r987r613j2935j3821j3472j3425n653
63880a41178J5944L7064L2409k687m1441n1621k5880J5648M5815N0816L6536K0091J5422K5379M2613N1865L6142m503
63862A58434m0029l6676m370N487l2446p4696o3002n523L3905K3957K008J1947M3662N7751M3210K1174O274o205
63844A44862j9224k5510k3184k1385k4665k4661j3787J319P152K35q716o990P002K3944L4602L6781L1731K0856J0145
63825A50507R157J5433P518k9323p1982p4698k2946M4649P8883O9244L7650l41m4030q4011r7479p4820l3785J413
63807a18961K2705L3043L2890K4120J7217J9240J9438K167k7419m6191m3315l0982j8790M436M8093R2565J05606
63790A35862Q1714M5399J6702n190k1901k4538j4092j1512k9246m7807m0171q217K4644M6666O1076O4406M8495K2688
63772C44978P541L455q906l1885m1865k7699j0911j0428j2254J319J2059j3193p0147j15377j17149q3952m1383m799
63754b20596J9200K6107K0340J4789J4383J1546M145L614J6396L1633L8509M1806M5882L7496O069k8069l1868o095
63736D5287J2230J200j6155q034J9849L5293K5410Q085J241K800M410O137Q946N461j1487l7383n9481o7587n9135
63717h2913m0049k2706j5438j1840J483K5074M5135N4482O1381P0583O9592M6308J0395j7067k9381l5817m1040l6928
63699E1254j6152J5633M2529M8054K4961j6939n4636p0404o4812m7493k2533P611L0172K8636K354k9951m7947m4992
63681a64655k7187n037J2887K2706K3246J3143m179j4256l728J7601K3233P543j208J9175M9155N3648L0530P201k793
63662E7025j1240k6036l8431m2052m0534l3713j9312r877k1302l9682k7998K3067P5840R0483O7309L1408k012k8558
63644D385l9463k7390K45K7028L9682K9484k814l5714l9144r516K4081L8540M0516L9531K4490r526l4584k2796O306
63625E3341M605m0484q8281r3296n0198J1182N6134O7128N2192L6588L6468M0719K7882l035l1017l9270l0063j5405
63607d810n523n978j5017k3297k3933k0483j8218j2796L087K5531M0181L4396N812l2260n0853k6430K8175O8894
63589c3522O8446M3989K4680J2711k969j5227j1603n475k0238m6391m6912q257M0798O5307N6585K6525p250k6803
63571A14394k5779j9931k8136m3881m6103l4667k8035k6695j1353J6919K8850J2798k638R023L3423M0810K8216J2676
63553B9891O36r605q490J3446M0325M2916J6529j3546k6455k6401k3772j4399Q379L1277K9411j63k7717k4470J811
63534C9603K0181J9810J6496J4014q922n4124p6519l7152L2557O0249K2094l5755o5626o6551n5016l0997K906K1168
63516a81584M443k9290m6306l5129m607L8572Q7937J24755J28935R8108M5250j2559n5243o6280n0881l3251k5997
63499a3127j9558r680r311j9048j5488Q778K3750J0981M885M3210R6603R7568L4033l4243n7001m6047l3969k3214
63481C9122j956J9871K2848J2528J3396L1226M2734K7202m795k3630j8312j1571k9725o3517p5150m7094n247J7173
63463e4897K0702K6794L8997M0727K4992L612j0903j4215m971J0096J0422j6918n1015n4595k0360J8971K9711R397
63445F547k1715m3604m6752l3980j6368L32K0989M3730N0000L0246O047M49j678k9175o7102o5701j1780M9911P9180
63426e0424Q4590Q6273P4031L3894j2320l0481k2027j7046k8745m1250l6761j2810K1983N0687N3162K6666m119j3797
63408A61506o526m356j3693k1082j6373k553J3561K4608K0927O62k1356k7903j8630m070J2168L1534M7964N1758
63390B28146L9913J0837l9517r9235j31773j11275o0021k4561j8410j6057k145P535K695K768K4057M6748M0837J2041
63372h7417l809J1204L6600M5227L9286M3373O6414Q2677N9065j662n8171p7951p3998p8477r0438p5831k0324M5039
63354a39193Q1635Q3875O7652M0443N966j7432j2427P631J1550n972j8654j2276p945k6737n2227n1621k3720o34k528
63335g2614j3899j1981J447J1393J9051L9120P0478Q9223P6989M2779Q828j4068k7066k9552k0955j2821k1470m3953
63317I0929n4827l5110M681L8529N3620N4527M5764K5860m68j8557j9076q849r28j493j2299l5937o6611q1869o0565
63298h2679j1890K7049L0247J1005L611K2877N0347N8216M0187J7974J8671M3588O1386M0676j0085m8433m8848l1358
63280A92541k6883l1537j9193J0773K8650J8010n350k5491m7368o9780o5963j9986L4796M7384J4696j5870j2365L906
63262A0970m77j9141k1202n140n906m3060q6574r1365n2367m115K8475N1544O7970N2092j3586r1912j17061o9693
63244d10548K373M5974N7589O3827P4458P8984P3332O4623N6379M7401L8271K4239o978n3059q5548q1411n4169l0606
63226i4869j0582J9497M5056L5461k886k6149j3774Q421J7820K7796M9763N9688L4026q200l2527l7423m1743m1905
63208a2530k0429J2098K3044N922j1525j0773l414l224o612r679j8146k9284k7544r905N987J0412J6157L2144M6443
63189a0858N2092O4347Q7966R0682M3698k4343n2329k5084Q421K561l1394n4143n3116m4471l7306k3171J836K5614
63171B1002L4430K6607R852n510q898N475L0542M7459L9381N642l5745n9011m9277j5950J3899J9760M568j3911k3028
63152D7287k1569j2495L27R707R711M517M914J3831K2534K3658K0668J9963J8809O471k3627o3640r1377q4080l9918
63133a34309J4323M5416M5316L3481K8185K7116J9553M793r166j5480r938P073K2578J7469p980k7473k1568m897j899
63114C2593o908N436L3788M3675J4518l1236n7599n4509l5405j2948O567J6617J4919Q652M412K54m231j889P099Q045
63094h150n739j7859j5602j6075l7322n5437l0120K5997M8331Q497l9396l3435P474J5970k0372m3663j7517K0095
63076b14323J9973o332j5686m653m986k1714k4502k817J4796R196m85L758N817r852j9979M213M4346N6217L5241
63057a31772J9659K8313L6132K1407k26p341o461j0125o787J7977M6479M5582J1223k9479n5660o6927o2697l6048
63039a86751L606K4975Q096k7376m0132j0648L8920O5302M3066j1311n2314m7601q698K5151L2016K6588L2923N0163
63021c4025N5294L4799K049j9396k2462j9464k0196j6603L949L5789N7557N8833N1498M7947L9733J0977l2507o2382
63003A71390n8378l0149n044K36p958j3116r576p250j4319k1608j3711P044K1530K0443J4212J0921K397j6540l2575
62984A7949l3552k8149k7662k3591n679J2247J1913L788Q279J3290r390m6677m8303M39N2504O5378N4664N4334N8991
62965A30773M2920J1991m308mN078K620J248j038j6588l9998n0522m4829l9380l7882k6031m755K075j4040k6976
62946a09646j2785J4528K2805K945k6152m1787l1830K837M3231N8872L7440L189r584K892J5799J4983J3484K2624
62928B3845K5015n504o1359r6757p4850j1262M1288M9671K8424R822M352L520N771J6134K5714J7330m722j3661J985
62909a5244J9111J1241j7043m1127m8336m2232k5293K787L2056M4643L3682J0881o396r878l291M041O563O703O709
62890c0423q90k3386m8401n0891k5837L689K0333L2994M7474M1108l169n3626n9118j8724J6060J4600M939K2058
62872a11210N1391N1414J2756l2811n2466l8901m945K6538L1729N553k7701l9032k8171j6524j0187Q057M5372P9048
62854e0090Q3072O0774L6414K2918J3845L711j436J180j024k1898n5272p8454p7206n9290m2106l4905l5716l6692
62836b72175k6940O81L6462N5371M3370J6067j315n136p144m512J7084M8454N4665K0858k4455m8361n2356n1289
62818b00671l7949j0M4259O4105O2668O7915P9251O3968J4527l1029m3670m2156n1887n6790k7593K1837M5369K5419
62800b437j0316l2176l9264m3402m8109n0495m4279j6204L9682R7674J12727P0819J1129j6186k238K3210L3476K5690
62782A09301P107j7506m0331m7450l1989n714J0767J0455P335J6496K9417J9287k3634p0934q2444n0401n366J9787
62764a45817J7763o1j9287k4836n435L1273N9376O2189N0130M0992L3150J1644k7245p0468j00047r9047n7101J2425
62746b30402O9405Q2430O4235N1749N3914M3324K391m7011p0463n9075k9205P42K1097K9696L0988K9869K1858k43
62728F5299k7478l8408k7525j2400m325Q101L2674N1589M5600K3763O900m665k1778l6339k9717o404R486J0153Q411
62709E2937O030r967l1930k6171J8061N9772N1270k181n0067n5687k8423j835L271p019j3168q679j2549m4937q9266
62690a90538r8444n1839J1551L6901J8317l539o69J3792J8192J5250J8205K2917J3296j1315k9622k0751J4313N4322
62672a69661P5677O8332L9998R336o331k849P082M817j5247l9797n3318n4469m7264k4584K0362O7988Q2644N8153
62654B0869L0062K6703K9188L579m2892o7139m5959P08M0642N7384M6126R014l6447o5153p0200o5198n6537l4148
62636b19398K284L0242L1521J4905k144j7357l3311l9904k8465j2409j1389j9746j1752K1668N8406P0054M9801J4991
62618a02003p713n14L0817N8475N7184K8499n048k7393m1392n4306o1344m9502j5224K5434M7884M4270L4947M4796
62600G867O7338O6432K1320m2609p9750p2038l9224r929L574O768J2549K7904M3347M1464K2409Q856J4089J9652K969
62581A22988k5280l4608j7564M942J4733O938k3642p3306j06686q1212o385N4317N7467K6904R004J1496J3783J2345
62563c3766J9888L1658K7112K985k1274l0303k4659r282R602K0576K0667K7042N1129O7272L8525k4787o6102n3095
62545E3188j6095J189o6P555K2239J3531k4901n6725m8157j0498J6742J3137o413j7190j2642m711n385j4237k1295
62526a10734j6531L393L2017N3955N4198L2423N988o717m480p0k283r710k0663l6805n2768n4087l5479j3559q573
62507a90485j5861r006K5231O6740Q4895P3452N1025L0969P308k3960m5414l6692o986R371o825l8160n4710m5528
62489a24636j7772J9785N5673O8288M1757r765n0821o2017n6055n3223n4669m6924k2291J3613M6907O0506M1788l922
62471a53778m9280o3528l8857L634L4986M4334M3296M5825M9449M3125K9247K2414K3057J1565j8589m0911l0667m469
62453d9147L174q069j0418o02l834k0140j3668K5475N3752L9887J8094L3496O6342O3389K6093Q952L2022N1529L0016
62434C46343j2610l9317m7959n6125o3155n6780m0761l1250l5136m8301o5207p6610o8103l3707J4873N7349P4668
62417a81788N3317R60m1544l2039J9546N7013M8885K3435J6116J6417l371l4821m6234l1706j1465M649J9793K6958
62399i5879J8922J3858L3988O2406N9343K1777j1636j9456k1477l3500l8015k0046Q54q24k0241l7652m8451n3411
62381a89440l7974R433O7138R4413P5299L1356p462l0155m3441n4677n9468m5495j2312J6496J4953r957k2118j944
62363b05355K9349M0274K5811J449k1025l4355k7192M671M5444P3002P9116O6337L8022N309j0813l342O280l204
62345A09778k1234k3778j2374q893j7487j9195l780J8421L7833N3893N8179L5422q529m2157m6038l8660m9098p6051
62327e3748r1131p7432m8488k6499j3011R647M9124Q5000Q9071O0470K8047J6748K6698M8990P9935J05260R2456
62310C81137K6462n6521r7944p8231k9690P316K0176K0562K7902N3938Q3211P5154J1076o7137r6463o8578l1991
62293A80379j8471r546J3132K8908J5603q731j3288J49R310R287P725k581l3944p3114q8418o7595k9888k241L155
62274h0169o627j1122N299L1478L7922J6175q216j3750j0236j0524k978J9655L0019K777l7302m6298k7603k1702
62256a33202l6471l8681j7551k872m308J4911P3534J24118J10085M4376r411j8859p196l615p237n566J016N949J0079
62237I9099J5941J7128L137k6418n5891o3220l9047J394K9737L1251J6325L750M51K922R795K1130K7255J0515l4191
62218G1063q2956r5119n0765K2053O6153M9826q18l1038j4086K9676O2778O4897M0588J0261m081K229R788r85k1313
62199A28151k5813j0696J795l80l056N903J7225K1455K5041K8678J4611k1078m5518k8866P855J8622j765j3417O390
62180A25137L2046L1390R190q479j2103j0970j0513p047k97L655J030p525k1754m0295n5294n7177m7769m2471n2661
62161a71907o6423n5251p488M9182P1400M8754J5437O204J5244J3411n632j8644q945J3884L4737N2257O6723O6575
62143A19518M4175J5871P514J9779K2751p971n7018q0115n0277J1785N7224N6331K0455k0235m7318n6529m4616j2378
62125a054K2764L6049K2498L033j817N178O411o882k4658k7254l138L6647O2463N3846K4025O465J5181K9727K2110
62106B81594j3624o1431r7677j00341o2311q020J8691k95l5595m9153m1708l9952m7313l8559n620K1152J2185k0193
62088b88170l7073j8840J8728M6645M7124K0767j5789l8126l1025k207K5326L6918L8718M4746N5218N3398K7136r167
62070b5673k2453L254M4303O0393L8938N565j1161j2380j8937l9742o2247o9114n2735j6101K8938O4135P6126O7818
62052E8927N1673L2373O127k2410l6453k7783j0769n373j3111k1284k5901l5090m8332m7995k1744J4756L0225J2669
62034a09495j6567k5255o67M3336Q1055R1680O9418K8636j604P65K8756N0910M2663J0446j7620k0687j942J8595
62016B72423K3604J4146Q151J7787K7172M792n3802j08733j17056q2978m7684l4042k5480k277K6746M0655L4827
61999a749J8662N05j0369j301K6956N2221N6461M8440M3631L4966P680k6423l9046k7937k0230l0063m1384m1035
61981D9985m0382m9098n2539l6200j3743o334n818J5548O1218R7921R1352M1257k1546o3084o8740m6187j1965K2753
61963c5602N0895N9716L7586m489l4415l5470k9907m9401q8799j07967p9532j9215L3992N5495M9379L5931L1882
61946a29921L9180M9000N4692N6436N3028L9311J7778K062j016j997q230n342J9531M4396L1082k0376o4397o7397
61928A07820m6619l4161k6638m88L5427L9565l820n5834o9986m8119k7014k1437r447K4593O1375P5116O8351N6655
61910A25339L5581p175n3713o5617l7947j0743j1879j9572n360J3726J887l2769m3392j0557L4257N8417O7339P8091
61892A15913Q0943N1382j1592p8539j17140j16291q7520n1245k0048P093L2336M6904M2527K9499K4985K3894L548
61875b3351l6476o1967m5772m892K0797J5440l218j2986r375j427J691j065j805P797K4915L6777L4228J8063o004
61856d8630k7755l0860q214K0243K5390Q466j65J1463J8349J494j9739k1326j4023j8047j9943O380M7274O0180L6739
61837B7276J6399K8677N4895O0449L8306N309k3436m1046m6216m7491n6742o8066n7814j6576L2694O0077N9471M2707
61819F8873J6605j8672n6467q2896q5274n4277J1805R3578J51547J57198J20616P6089M4888K4304P481m467j3120
61802D57811k9946o3165j03045j27016j17898p6337k0046K6637M6813L9896J8119m455j7388j1804J6947N8027Q2968
61785A76118O7779K0681k1760l2946k3384k1031l2852m1322l5003k2002r490P768K6940K6927m24k4706r856L3747
61767H5184N8073L8968J728k1378l2313m9783p0757p2892m8498j5714O264J9365L7191N9427O5048L5875j6256n5011
61749B4521n5928k9318k106J2069J5414J1783O540J1123K8216L9321K8003Q543O057J3879K622k7803m0830j6726
61731C5380K0442M2489N0341N0604L3554j005k7450l2498m0658o9824r1340p4711m5186m6093o1512l5333L5592Q7465
61713a69743Q1044N2607M9520O1268M9089J1355j8999k4562j7187r746j034J2737K8840L9952L7162J7512o098j4253
61695A79464o708m158j6883k9556k8066k1479k1245j8174k118J1232K5k5560l1961q100K0392K5728Q759q638p811
61676A5143J2942L6620L7281L443m3932o5193l8841J6705N6455M3993j7193q1132r7679o2005j6856J326J932J1650
61658a85341K6788K2892J452p908O180K0895J9592J8252L3407M7059K8905j7329n3193m9647j5471J9450L6661M0256
61640g100M1600L9435J9579k2919o6737p9842n3742j3782O980k518k7141m0646k3339K3605P5980J05788J05254Q6014
61622A66469N8799K7307r58j7428k8221m6350o3748n5324k0581N078k485k2183k2755q274m47L352J7726K8812Q632
61603B7421l2966n3276l9254k3910k7575k4813M960K9825O117n2592q5543n8598K631N2740P2643P1220O3417N7486
61585a0067N2239L9070J2274k0397m2128m1068j6678K1383N3486N8555L5727J1467J0119K1797J5903j6933n5198
61568A29551p6722p6058n0312M152O7870R6606O6748Q457k8497l1825k7372l1772l3399k2052r366p726r364j892R526
61549b3447J2107Q473J2683K6657L5414K6538L700k0094l4466l6772l2772l1938l5671l2868j5461N680J2552N265M7
61530a14373J989j514j5012k3167j6057o885p259k511K4400N7023O2812M1359K4386K6443K8429J8895J7077L4022
61512A50057M0144K921o0227r9407r3978o5778l5811l385K6337L0144K367k1980o193L6833N6011K3298l3707o2250
61494a14604l6458K2296O7886P0086L8379P211k294M30n04O75J8982M3718L9218j0517p4297j05710r3793o5961m5177
61475b40434k4450R925M6986N9584L9900J1491K333J5159K9939K9367J4244m121j8216k7139k9658k1929n083R072
61457a03030O756j2141l2461m0612l7541l0748k0568l717J4611K5608L3213N0208P3649Q0263N7065K3089M958L7
61439H8639j5636m4749n6611k6769K7163O3295O1594L8800K0798J4802J2771R960R059J0937J3752K1916M2980O9219
61421C61920P4660M3741m063l3905l6487l2603l8643m8821n5364o2527o9425o1481l5890j5485j5951j7526L920L2455
61403a1475L1705J486k0656j4864q05K468L308R587O251j6078l4042k0424J3511K9705J1204k1160l6497k3694L423
61384h7047J9678J1043r143j2869Q471L3598M1050L4784L0360L1083L1210K8797K1492M099j5283j4758O335J1338
61366A74238k7100p8839q8046m6395n00J2710L685k155p81O02L597J0748J5585J5392J9326L1377L8820K9533Q970
61347A20767r795k0642k0251m105K1120L3654J9094j1138l4104l9261k9112p977J6215K7494J4486j4783l9599m4513
61329b2450k6241O644L2330K6727r357m2623m2807j9887r197k3678m0004l3160o314J9805L2172L0817K0317P470J832
61310i7604P792J7640K0647J7830J8345J9999N619l1064o4592o0735k1363J3099J5627P643K2678N0749M9642Q569
61292E21l2692l7175j3989O926J6792K2437K0699P040l519O000K2858J9922p4o295J0829K3377J0909o260Q40K3886
61272I3032K7557l128m6815p3694p1386m3299J518M9780Q4067Q9239O0369Q421l8768n0111j9482K1574L4113J7295
61254A40282P674K6184M5355K8476j2527k8500k164K6897K0309n689j1888N93l518l2476n5194n6436o2370r0102
61236f5094j07394p6176j3330K9206L2810K3514K0723J4668K94m769P310J4707Q65j4116l127K2696K7069Q28k5254
61217a14570k1109J0474M6171O7414O6159M2724J1120m293O629K2023R809l0055n8232m0232R983M4151L6334R660o09
61198A13551M662l954l4294n4910l7344K290K2374Q082j5051j8917m603J0063J7132J8521J0807j0268l2390l4199
61180c8448j6558q733k9597n5533m6837j936L6279L2647Ok2286j5332P349K4589K7869K0070P935k716j1793k3619
61161a16644l5025l1067k921L5296O0122O4880N8271M2294J2260k1118l4162k3801j6502k8780l9138k1858O528N238
61143h6127k9178n1600k9873Q116J0565k8651o1482m5558Q990N9641Q1295Q1601P5786O5181M4050J4394j4966l8546
61125F3638n6220o7437o9022n8553l8048j5903m276p886j4051l619K2869M0860L3303J5654J4096K6822K7750P140
61107h2883j3835j4241J523J8980L4319M5566M0034J1319k0794k8894j3498r83o559j7940j9170j2377p528n092q7
61088i2140O934J4411K6640M2673M4931J6680k8658n3325l7870m653J1062J090j8363l7577n8403p1416n5549j1215
61070c04748K8130L4645K0687J6010K4636K8833K6760L5578N5709O1908M0528J2155K892J1573K0177K0447J3882o94
61052A49108k1096l3797l0332k3567k9769m2568m5112m1584n1498p1973p1309k9619L3115Q0948R8848R3414P0945
61035C4154L3610p073l1366l1111j8936j2282j4054j4449p874L62N163J0761K1741L0580K5298Q817j857O27L608m675
61015C1044j5659j3466K363K1500M2463O8948Q9296Q1308M4413R937P070K8070L9112K0761j3644l9396n0151o0036
60997B93933p8838r3822q4686n4961l5343m7405p3919p9104n3030j9127J377J3140K8508M3489M5724L6480K9823
60980a27761L3261M0626M3269L9245L1624K5283K5885L4997M4685M3084K8202J1530M061K158p353k8869n0751n8507
60962A34669m9942l2933j3365O303J9125J5956j085j6740j9000r903L474J8766L2785L6443K4017k68l0551o1382
60944E6369p3676l9161M0462J13904J27424Q4547L3008N05k3094m3271m3901k5051j7647l6720n2097l4447m033Q8
60926F3209k0231l0605k0315j1363j4747j5365n391N32o484j3693j0844o537q019o175N827J8547K4674L1575L9528
60907A4123K8813q763m3254m0976j4958q132k8397l6272p169K7537K4996o561k1081k517J2436j3618o7081r8409
60889b89283p7588k1215K9920M8087L5472J5634J2362L1207N6864O8474N7518L0428k582l5354o1402o7646m0722
60872b09826J5386P0500Q6987N5640Q755j2637k365J2730J6083K0089L1998K6714j9270p9800r8338n6597N046M2162
60854h6743N2531N3935M4259J1573l0412m7361k5552J2485L6925M0217L3667K6957J8464J009k6758n3988o4769n4896
60836e8457l7680k7702k2652r158J4995L3350K9326Q061o018L533K2974K2260n493l0453k4481j518K561j5479k1874
60817a23905m03K1287J5196p040k0899k9628m7751o3328n2208k0049L536P408M131j702j5146k2035L083N2109Q1167
60798b16177O6035K9807K345j6933l7603m8640l5275n311K4472N1081P2232O7822K2700l9763p2708n5234j1743J6261
60780a86632P236k5385m5395k8901N212J3838j1562k5320J3439Q0595J14098R0373M3027R798o269j7546k3661j8055
60762a1110m972N300J0265J5982K8766M7588N8910M3094k018m7701o0753m2897k6801l1410m0217k9463K11K9611
60744e7615M3899M0113K4310R945P577Q729n867l3377m2306j5518J5704N192m6225q7158p6431k6374K1500M5292
60726a68610N3865O1499O8742O7524N3808L1383P134j5587l8453o0086o7502m5398J41L7161L9712J8556N144R246
60708E8279J3074Q066R384K0859J4732k5692o4304n2126p45K7234M991k5719k4774j2582k6739n4739n4196k0899R482
60689a96414K0052K7536L6822K6109q065k9867j2201K2024L2461J4951m588j5695l2077n6806o6309m0305N664L0281
60671b46427R207l6443n8403l0405K5015O4322P1165O3638N7853M6142J8788j2033k5364j7795l378M893K441r322
60653g6106k0367j4716J0889L6550M0148K3546N359o300j7751l0015l4197k9702k9996m1855n0565l6386j60L6183
60635b35441N2395M6450K8939P876j4955l3472l1860K7M6219P1198N3923Q523l4699n9954o8095n7948k4715K1940
60617b23649N5686N8890M0887K2448R868m508k0689k5261j1483P222J4512J4312K2010L4980L1349M526k1026k4022
60599a3948j9249l2371n4009n0740j9437N054M458L308K2637M1232L1780Q878N179J8000J9205Q344J4324M4508P1367
60580A08520P5322O4465M3877L990m5619o9074n4631l8928n1657o5934m0616J1250L9952L1754J7327J1475m845l2331
60562D297l3493P130M2599K3170k8304m5107j0574K2682J1939k0367k9638j2779J579M556J2234K6700K7521P156
60544A1301j4976k5315l6704n8192o6670l5818J7969M7884L4597O251n354m989j5828l6802l9017l979M8602P8057
60526i8983O5020L1783J6783L0009M2087K2829j9389m9231m8882l3655k4403k3668k3718j9850o788K1574N6499P2698
60508A0715N6954K7729J1710J1446J2674J2473J6529J4080j5125o2028q2322m6967J5604M6940K3625j9580l0636P067
60490A0888O3495R3218P3986K1569k6944m5344l7457k6197k6253l1542k8790j5440J605J8646L5703M6161L9773K0605
60472A87682Q724J4304K1403J0546j3040l1292m4062o3076p8351o1862j3790K3964J8808j0218k2440r249O401R004
60454d6544J316j3680l2272l6882j3157K1258L4561K7911L2519N4828O0663K9507q402j3757P621J9938J0087k805k65
60435A32445J8353M5163O7552O7367L6942p318m4288p3473j01477j13831q9206l8927j246Q141J0770K2339K5269J838
60417c3587k9897l7280j6286Q203J7207J4482J3542K2408L6950L9342J1875l5273o0949l5639J9592N5403N1157K9799
60399G1049J7862J3785K416j8182l6500m3497l8762k6940j4216m300M050J0925J0094N60m24K6107O8217Q6392N9794
60380A88430J3625j2147q080N548J3398J9530L0735M2273M2379K2302j6261n6518p5463o7819n4668n5842o1025m5398
60362g5001r718J5513P460k5677o1524q4102q1192m2470K3612Q3333J04887Q8543O0526M2875L8371L8553L4686K2448
60344A81123M244j3093k6170l6739m2928l6428j4448J2030K8438K9338J6688n059k4802k6498o682J7495K9279L3006
60326A18794M0102M3524K6182q137l3505l5375k7974l1680m6945n7739n0104k1608J6749M2606L7632Q531j6528j8698
60308a4173o053N230J3278K2303K4788J0963q398r157J2131K8322J6668p219o262K7969N7170L8025k5030q1636r0020
60289H899n6864j9081j543n295k3723m8060o0844m7719j9804l890m520K471K9091N2137M9371L6787M2158N5251L8459
60270B3281j3865n8816n7103j7464K3776M7114N6653N6506M1952J3324j4495k0424O074N1863Q2003O5327O979n1014
60252B41671p0803n6151m0962m5923n7458m8138p665M7338Q6448Q7421N3194J0044j5718k0214j7341j4851n567J5335
60234A40660L5580L6859J4885j9050n1427p2339p2606m8900j4385P887R164L983P216J1309n42k4074l4564k0212K383
60215h8173J4423K0695L3586M3409K8349o523k4436k484L4810M4263J7579j2008j4686K271J1288N43j8181l0095
60197E4630l2718l1393l0849l4865m5945n8927o0336m1867j2464J0597K2365L4087N4680P6345Q3254O8679L8421L214
60179I6908k5874m0254m1100m0343m4904m2570j5307L2885P3291Q1283N8150K1386j3912l5852l0269Q931O3843R8106
60161B04398Q4021K4319n0472j04218j18918j00877o4169j3090M9192R8515R8286M2749k3892n0075l0306M86J5748
60144F1697J7073J1092l446j9431j9139j459J0199K522n092P409K2805P621l6463o9958o5828l8488j5691k577J2587
60125a24567L0388L5436J7455j4168l8623m0788j9369J6069N0896O9311O0325K7646p990k5318k3240j6906j2561L9
60107a5965K3751L8784K6298l531k4709k9255k8771k7941j9469n361L62m251l450R853K1826K2025K1075L0595M1408
60088G3274L7288J8203m540k4971l9741l9766k1472Q97R353L014o873j4112j6721q746J1360L2002M2208M4110L7549
60069A32316Q838m1245p3278m6823K1724P1772O9930L7484N300k1172m1471m2808k5354j5740l0538m8954m5700k8974
60051a14693j9456j2804L923J4728o601m4421m7770J976O0598P3041L5267j0192k5916j2774P75q022l2130m2571
60033a87042k4295Q90o96k8928m5905k2285K6472N8463N0774J8732m693k020J4855K1940J2958M438P115O556j1093
60014a03764k5764l852M8025Q0480O4256K8626J7286K8673K8466P992m384Q275K2512Q146k8664n4412n1099l1931
59996C8867j5112R61K6338N2087N1128J3114l2098m0565m263L7781M3903J4699j5497k3423j8815k2371l5511l9417
59978C1806j9590J4343L4267J9875j8889m7897m1566q773J8020J8048P65j1035q630k751n751j5202j6996k715J8156
59959d4515K6187J4939L123J5399M8581O7027M1705j2132m9528m6231j8959O042K3188L4284K6886p379m2851m0233r1
59940D5442L2972K9323J0113Q230J9951K0874R870M866N239p469l2744m7354m3063l7630l8622k6394Q391L5469K0615
59921A8079k1746l9465o951M1503N0188M157n4897p3724m3140k229J2571P988J1353K2962J9264M21m01L1690O2281
59902C9904N0592L188l9214n3021m4622k4582J154J8229J1352r941j5072R488M0863M6184J8948j5681k5538o44L6410
59883D7997N0307K7442j4290n1891p9048r3049q0574l9182Q20N254j7180k4267M185M6799P7647R3068R3826P0150
59865A18014K2244k4204m1273k7141j025J8096K0280P030n959k463J0003N339k3223m8092m1825j0449J9877L3120
59847B8349K7464O932j4673j7425j063O746j4217m7467o4884o4841o0867m6933o010N1571Q9201Q6813N9779L3570
59829E2045K0922K4048L5911L6522J1054k4004l5346j8544n436j7528l6062l1674l176K8863M9366N2656L4510M50
59811A74577k7329l0275j6914j1461k2065l2446k3703L968K9995L0377J670l0072l4647j4153J033l343p274N708
59793f354J8398J0870j046Q284K3970O562m3740p9190o8674l2690m81L1041P1340J00498R3411O1568L6990K5123O883
59774B62763j7371k1153M484K9524K0324k2167o9849r7298r4204o3010j8215J8230L0021J4117k1611n7982o6395
59757a69792l1402K4675N9637O0453N3251N6268N1370K2837k484J1803N2575O8869M0638J369j2955n629J102Q6m558
59738B78113j4996l3893n3066o2890o3642n6674l6656n344J9002K1628J2182J0527J8460K1308J3111L847J553R22
59720G3492o759k0455k8972k0519N669L4358M5302L3110J1829j849k025J0356L0119M0474K0898k3968n8367n5213
59702H7480k8557p311Q288L5797O5179O0006R883m8240p4019o6832n1928m3516l8646l3661k7947j7789q51J6130
59684a56534K4004K2594J8626J6223J5528J6631J8624J6985O032j5982m2823n9134m9473j7086J1822J5189K003k996
59666a59767L794N243n40O802L2263M9007L6630J2446K804K731r560l1584l9340k5964j0628q152j1854r378K698
59647a52349K2182M2609M9825L3919O830p884n207j791o083m626J3045L2645L1423O073k6850n0375n6283m2108j2574
59628a27579J6867K9017K1789J1144J2727K1869J7237j1330m2585m1986l203L9566M9293K7259N584O800K5695M6104
59610A04268N7440N4084L5675J3294K945Q040J7759K3753K6525K4840J4193o81p573o732j3581l3901n1802n2302
59592B16244m1365l2048k5015j7143j5534k3787k4077L618M5601O0074K6115k7704n3925l7614p206L830l809j481
59574D4774K4910N1594M6401J3319j0493k925J7101J9153q25k3794l3530k4846Q83L1539M5612L4436J4187P6j8309
59555B29263n3329q2728o8773j4114L1909L1160l080l2926m0436l3199k4486k1848k2141q806L0150P3399P6958K8698
59537I5671k7637m3044k1431m179j0659k2151j7732L513L5773P3164R6795Q1370K8529k4175m1748k8228j4581k1068
59519A38182m2107n9734o1458m9296l6780l1930k3092N279M0686M6985J2636k5300k5595L915K2564J5520N027O192
59501e8306O997J454Q952L9846O7474O1708L4361K3069L9262O0194O7861O5882N5234K3346k9953p7745r3629q0411
59483B15596n8565l8573j8177K658J7629K0029N524k2392m3805l3688O259M0694M0749J9361R939K2295M0551N3160
59465B79244N7787M3498R16m7747o2166l8378k0160l9334p1189p2698m4135k3296k8931m0022l1113l358K6249M8403
59447f6430O3953P2276O7322M5552J5655l121Q75J4506J1186j6331m6662o0022o2160o5197o0891l4125P688M2520
59429g3406O3971P7775P3994L6502j5922l4919o195K3287O947l7244n6093l7124j6408j5502j2337J3432M1113L9511
59411G1382J5217K342J3105K5063J6846o127k6019l2224j8117K1805P4496J01815P5110J4222k8654k7231n343J731
59393B89419j0132k2323k6711l0086l4535l4503l1236l1545l1651k0209j031N109j0130k5583j4692K1413N4720N8602
59375A04896K7719k3257o9833q9061p1985l0415R946K6158J2988j3355k7769j8694K434J9121L2035N1077O8319N8721
59357F9045J6299k6802l2443R7L6051M6072L2921J8475J4476J0541r926m3272o2401n0343l0828m3507q5169j02530
59339b43244n9848R876M6536L7987K1634K1308K0676K938j8372k3042j3724n698m783q325j2012m951K3070N6281
59321a53693N6285J1146l6741l7712K241L3808L2635K2941L0105M1920L2438J519k9368m6875n1146l9724q348L0726
59303a07843M9395L2239l655k5061j5296J3831L8026M1619K5133P37j6069j6136m329L621l492k0369l1661k8613
59285f7923j4924J318J3700J6161O519m293L040L2811O2021O2326L1928l513j9391j1870Q398K8102L3494J4695k1688
59266A70911n0767n0535k4319L061J0380j909j5876j4666J517J6356J6666Q996R272J6769J2806q591k5545j8901m266
59247E1359j1330l8728n5863m8980l6531l1817k0787N551K3715J0266j5676j3854K0110M8660M3401J6689j622K132
59229e3305J9482K9730J3783k3966m7994k7702J8447M0870K3998K131J061j31k6764n9830o1887l1385J823K1697
59211a59942L4388M0368L0497Q036j1733k2029k3270r415J8237L3472J4737j3300o397L0419M2899O097l9241m7651
59193g3828k7188r472M189K9733N5724N2996K2207k226K789K4578L7512L0526R237j3087k2723j5334k549k291k0874
59174G9919m6612n8197m0152P42L3528L1220M653p491J1925L7743L9700J9332l733k0956l2139l2770k5044k4319
59156c2651l3254k8171L818L2826K2201j8299m8200n2150m3406k2975J9785O6234P3716L2904j5977l5225k5236m23
59138a04483L2337N6779M6793N414k6258k1453j327M724J427L604n7k3796m6818l6653M54K5307J4988j9798n5496
59119a44312o6929l1913M0918R7174Q5862K1736l3365m7074l7711k2286Q975N2871P2965M6843K404k1593k5919l2041
59101c3395l5980j9363N053M19l7403o4267m2538J1667N1043N0188K0525j4822m1055n0007l7740j1462J0344J3335
59083b25458J297r064m886J4637M2485O7798P6212N7939K2460l900o585l148j9829m9566n3510j2176M3261O6213
59065D180M7668J4481j4367m1781o3746n9789k7597j017q578l0510k5900O466K6620J2474j3244k4142k5113k6626
59047b50521j3587K8515P3931P9487M2818N539l475K614K857K209J5048L7233N3381N7463N0326L0213K298j4711
59029B01638j0274j516j1928l6695m9017l8297k1934j7350k0404j7348l825J5466L5838N3617O3724O1269M3071R174
59011B55209l0532n4042m3463n621L3424N5865O3159N8429L4803q756n3034p4898p2268o0355m7514k8717k332K0065
58993C9422K5023J1065j0705k3988j6723P483K7706K6262J1462P007J7574K3078J3372O001J3255J4118j2821m4573
58975A34018l9802m946Q920j6176l4839r248K9404K8311n494j6819J6868O1059P9231P1177N0189J9057j7592m5028
58957C08290n6149n6912m7770k3400M446J2873M530O780K2680J8093k2822o4046o7215m4309k7765j4429J9804O4905
58939C7584P9098M4751j0387m8549n4776l8495k5096l9794p7629r8730p6197l4198r645N871M3982R1144R4842M3160
58921g3064j1219k1864o44J9927L5170N1965N8503M2912J8753K555j3855m0065n5416l4103R115L1393J7430n024o044
58902B6425J4108L7587N3243N8725N1089K7330o253l0498k6035M269L0459K5762J62j2525j040J1837Q780J665J817
58883B76907n879l4619o2590n8568k8151m378k60j719l723j8819m4033n1440k6398Q825K6724L0332L6952M0432J6583
58864I6178l4375p4750p0217l0367O124J9940K5280L3517K7074j0375n3291n6411j8087J1660K11k0664k794M4814
58846a06533O5332L0900k3037m5837k8525j450P264k507j0414J044K8500M9790M5875J9276j1327k8588k3691K937
58828c0991L5758M8016K8622N89m411J3625K6809K0547Q023J179q128k8103m8658n6013m9452l1872j527L1209L7784
58809f994O638k7063j6249L4809P0824N5802J5725m758l901j2688l5913m0605j0818J8021K696m7929q3782p7282
58791a63467m8721k7040j3157N683K6471L3992K3629N743o537m719J0999K6193K2419M405L369L7008P8606Q7274
58773A02150O0261L0630J6772K404k7993n9578o7073m7748j9044P884L8298P8681J19469J36163J10109N0258j0456
58756E21187m5409n5011n1756l7235r693J4688J0605k5005o7091q9113q2188n1947j4934N204K50n021J7578N3308
58738H8417N8776K7295L081J4100K7486J401m6818o2757l1049P827J3360j4375n1447p8395q3472o0030j4937K8915
58720a72622M7218L1531l782k8533k1504K347K123l6858p4364o0205J519N8086P2770N5784L1412O233j8895l1219
58702a38959j8723J2704M5936O5381N8867K4817j4157k4529j820J9775J2155r614j3366K720J2543K432j6584l3842
58684a4264n1066o5272o1535l3010N583L3683M4886M4537L6470K1116K013j4305k5501l6788n3742o9692o3751k2537
58666c23175L2151N2091J4381m3978o2576k5981K4155M5203L7945K7868K6543K8791L1825L6718L8878L3742K6703
58649A284K4330K2971J9124K0814L1041L0023j170m2841n1200j6996J6063N163l8963p0106o3050l3066p809n98j0783
58630a65769l1518m9145m6214j7039K1196M1860L7276K7843L5548N3062N2718K7062J547l055q86j3657l0252k3758j6
58611h3197O511j3467l0874k7155j9190j9211p299K9044N9545N0240J5345n890o065n216m437J1961L3967L1833Q630
58592B5075L175K8654M7974K8306j4498m7160o3149o9774n9068k4627J0354J6739L373N810L2658N2037L7108J548
58574A4535k0818j5676L746J7594J6680M186q967r891P192L2881M6377L3191R49k6179l1020j7326J715K0370L7539
58555A07078M4213K8420o364l9378n2997m7827l6085k7676k4543k1842j3146M12P832J957p493m041J4171L2224L4780
58536a0305J5294k4948p2244r9238q6841m8149j4284L773K1197M6815O6324O4708M6210K3121O64j8230k7600k6727
58518a40460k1876j4191J809K4145M1714M8480M4120K3176j3482l7871j7717L2421N6047K5285k4627m8443m5264
58501f6734l6540k4252m625M815q020j6119J1033N1451N4158J3445k3240k3275m429M919L997M173N747P594J7474
58482b8428L5926M6182L4708J0761m573j61J8628L4105K4811j5562o2929q0127n5293j2026K1862M1471N4505N8362
58464A22222M1706O124k3746j7854K8300Q2071J00901P3223K3647k1966n8815q5711r0943p3457n5808n1435l8397
58447c9938L957M8454M7874J525m4114n8485n1441l4108j21M1442N6323L1743J371j380J0184K391k5292m0877k4219
58428g4711J0863L4043K4336j4859n6734p4265o6601n0902k9628Q579M9585M9932l968n9451n3585Q667O4389P2948
58410a61362N3160L9970L7341K8507J1074J193Q635K2927K7377J9767J2734J3825J2931k877k6927l7798k7761j4075
58392A8641j7153l7119n7665o5586o1433n5540n4938n0431k2763K7982O8332O7340M1824L8631O9504R4491Q1239
58375H5356M9017L2637L0041J6168r256k2099j4658l967J144J2374L4249M7755L4458K078k6478m0198m4063m1990
58357A42568k9781q189Q193O158m924j013K3078M2298L4598J1829k38j213r943k4864k2084K089J7380J588k8724
58338A58806m5547m5732m2407l9746l6359l8177m7235m9900l5948j8763j6502k1778j0990J9746M7007M9896L4755
58321a38874K6399L9212N8836N6479K5798n380j4972k3750o1814j07467j05217n0722o967j4472l5031j9267J5667
58304c61542K3105N769K644K0623L4962M2193N6487O2702L0755k3964m9348l0299l011Q635J6701K0626n356n3897
58286b02215o8887k1512M1844O2592M3137K1314P382j0403k3206j0801J8609L5913L1074J4967q374l9149n9207m5963
58268b12885p931K2736L3496M0170N1356N2774L5024J2671L416N239N924K172j877n064o809q65J7527M0197N0411
58249A37682L9650J5004j1536l6392o2780q7722r7556q0575m1323J366K8399L0786J2443j1083k2319j8581j4026
58232b18563j6139q149K9132Q1449J06744Q0822K2073l3843o8251q1371p5752n2116j6232J9437M0587L8112J7020
58215a35040k857m670P833K0045K8384L6080L2870M684l4274m8120k8473r157j5701k7349j3387J6021K6555J2705P88
58196a33063N289J3871J5883J6522J7905J1919lk178J0447K1610J8399R493P230P086q35j2312j6095j1661n647J479
58176b4661J0176J0267p380l0513l5830k0607m847K185J5471M2178N7183L3941j1415l4264j9658j028j2569m3629
58158g5000n4534k5078K6489O5014O7476L7549K651p526J0691L0709K5767j152k3128j9496N087K6396K2157m768
58140A09304k4155j1628J6110J9381p432k4840p547J6123R439j6322k6759k4693m1404p6721r3689p5028m3377j7949
58122c21187J0284M7858P8123Q7053Q1224O6306L6037k496k1348q622J1103J2141K357M258K0529L5752L6478J6709
58104A92559j9092m8669m9234l1003k7180m0962l7112l710J7055r685n3373o0405k9354j992K111j949o374k0468
58086b28837l9568m2245k1899Q680M3563Q3653J10705R5235L8727j7802l5958j2918K7943N7828N4662J9226j7078
58069A23917k1457J426J9264J7883J1624Q291o149l9631p5894r4312q7589n4103K664N7296P1198L6628m944o795
58051d0683L0881O6016O2810K3183k2245m3549l5199j6780q950j0646o974M771J0740J753j5139k7603k7373r032
58033f4019K4360N2832N4106L1492J1342P851O835q834l3878n0206m8794l2803r513J2511K7140L6944M6999N0215
58015A14580L2285m512l7147m8030m1830k9803j3167Q280K5990L3749L6777L7654K5921l000l0096l3495k0542j7730
57997C5884k9367k9193j640K8115K3279j4671m6087m3797k3487j4398j8616j9101j5430k2683l6029k8422N410L1697
57979b18536K3658J07o681j50m579j6236p480K4049M6703L9471J4871q327k5645l2203j6740J6056M0933M3267L4382
57960e3080K4806N949k5715m8952m3983k2508r239m171J3658M8527P4828O6672L0336J440R821M6409O8315M3730
57942B26843j0945m8500m2796j1096J2540R857j4943m2658n0094l0826p913r373l0811m3716m0799m2958n2574l4630
57924b65392L0749J01207J10432M6342l4390o9585n0952j8027p027j5038j4174N887K2645J4058q609j8568j0915K267
57906a79090K2542N7119Q5322P2957K4769j5996k8100l1793l7887k5612O981J9455r506l9117k6829L642K026k7848
57888a26965l8451j3556J5804K2186O120k3554n4376o1048k8929J7700M3488M8839N5023N7242L5534K271r006K188
57870d9490P665O652K5816O0261O9108M1757J6294J4329Q724j9970m3829l6763k2042l3868o3364p8303p0533n0732
57852b18288k0552J6078L4684J7563j5861l4708l5539k7798k318M8553R4681R3159M5712l099k3001k2379j8101j3320
57834h4534q212m587M337K4580M1058L2935J0435O362K5184L2401P610k1707j9757P697K6479J9451n621l9334p2568
57815a7791q2129m7200J3739N0005L6911O893M606K7176L4174J0143j3313n825J7430J9365o695l1724l1594j0197
57797b6026J6737L8244M5125L2628J4286J1956K0814O900m1919q3659o9637j2353K7367J9680j918K832K4174K4643
57779D9874k658k6876k3468L34K5091M1992M8629L9763J5856p981j4565l864Q863J1608M330q408k3234l5072l8048
57760F2166l3669l0923l2508k7071l207L1379N3239M7595K4036M788P51L464O29n709k498J3144K4491J4126j2225
57741A31998l0599k7082j1722l256r926k7386m3808m2083j0111M0489P4950O6752K5068j6247l1161j7481Q569K2885
57723I9849Q687k4522m4664l3660j1669q025j7867j1948J5128L5615L1474J7608J0668J565k0707l8374k4788J3909
57705a721M2324M0067K1613R476O319J328j0666k7574m7129o1691n2021m820N9236R1741O5576J0323j7355K829L6659
57686A64514M1701J3568k0711l6878k7778J185L2874M3501K4272o807k6800l2984l3612k7770j4682r982k5595m1647
57668A6369k9160K672J5738J957l006K4416O0288P1534N9618M2586J8560k4082p5316j09911j17967j07256q1516
57651b34476l7301J9178O8011Q9814P8290M5034J6713J5190L2410L8254K1159K433j154n540k8596n1748m2495m688
57633B0488K3493J8137q998l4483m4004l1804n095J0213o803l9611m9013k4476L729J0278P324J8394M1656N7292
57615c3283N7104M8560L7793K4823J2613Q356J4685K4503K3801M2m4878q8306j03055q5143n7345m0173k8351m089
57597b32343L2747N8046M7345K158m7755o9110n5891l4559l2807m5009l9127R08N2537Q1103P8233O3587N6201N7415
57579b6321N9957O1046O2306O4091O4345N9965M7413K5274k234k7613m7511o3468p2808o5020l5193J947K2614K0814
57561A49604J3545J3557R793j1560l6149l2633M360M1886M6280J8110j8620m6917o3768o8864o3408n5707n3444n1114
57543b05049l5844n378K8279N2493O3655O3350N1651K6760r111m2842n4098l6001j0982j0725l5591n1085l4298n679
57525b50495K324p210k991K7133O0318O9772N1653J9313j1298k6585k1060m495N630J038j4370l3705m7376l9905m997
57506b27306L5820M7950K2979j0110j8076L183L1937M5190L4180N407k4956m0023l0615P62L7460N2052K8965q412
57488a3613j2518L0068P3937P1569L6200J5372J6977O486k4766l9213j5788J1985O952j7647k5915j3853k570L298
57470A06961J4590K5159J4201j9430n0328n5882l6119p121J0213J239k4844l4256m332M3894O7625N3713K8310J5898
57452A49491J0493n639l1495m6931l6099m336K6646L9014L4047K3465P734k3310o3564q2709o0495j5568J8378L4326
57434b6552M8317O2745O0137L4113K980j2909j0032M117J7580J2961j9006n9146p3111n3293k9296k7320l7489l3218
57416a38422n729L4602P4251R5902P6576J0839o8930j16437j16062q9431o1781m0147k3094r862O109L3654O4438
57399b73524P3891N4085L0527K9134L8688K8815m40j4059P758M0020M8142L3163K0420J5385k135l9779p3569p7051
57381f0529n2742k2483J306K0457L4403L5153K0938M220M98J2146K5999K6279R699j1822k2984j7790n2K2834M0722
57362F6252M1354K2207J19n235O16q191l7897n7792l8457N490L1622K3755P974J2129K9554L3757J5031j2780l5743
57343I3765n3536o6973o5907m1314m807J7322J3164j655n919J632Q480J1028J5460K0538J8351J3259K0519L9945
57325C3352M9136L3267O200j0061j3168j4449j8132k2413l0796m4569n0826l5788o668J5039J9179J1889l74j4731
57307i3913k1522q703J8845L8264L3282J1417p770j5347j9488l0625m1849l0084J3184N6108N2601J524m2975l5824
57289a22875N957L5493L8388L1717J9922o081l2542k9846k3K2818K6630L4208M8843L2749l1658r5644r7012l7283
57271a56239K7928N9009N9600M6705K9631J6589J2937J0349k025j7440k1309j5736j2965r567Q378L5721M8321L4860
57253A54747P456k0367m3707n3070l7575q356O261o54m484R894K1723Q685j3691j3142J1669L1576K8468J0869q848
57234H7454k6012l0669j1461J7095J7150k3618o4829n9539j6322J2215n2k3545k2362n009n116k9212n0056m5745
57216b79633k0029J6700O0157R5900R4454M4424k1487n6304n1288l8134l8830l7253j1856K3757L5070J4055j0761
57199a81058j4235m199j071m351K957K4504M4180M8597L9058J9706q152l3711l6842j3114J4646K3222J6125J0798
57181e2940J2444J8452L4434N9114O2983J7928m8373o4445N22R1527J29956J00563N0793J9530O39k3957m8060n3910
57163C07200m3917m0496n5712p3200o6708l3429r2R038J690K366J2539O682k7094o4156p4958o2330m8485l8359k0196
57144c09617L330J1190m491k3844k5271j1237J800Q459J7156L2222M4869M5232L7712L7062M7192N1366L3127L052
57126f91j1277m652m448k9651n6815m7709k623L6034L4035K698j7094K284M9173Q1487O4013M195n4480q0310q1592
57107a17423p6902n8672j3323L6602M7700J4317k1027k3082j054J8059K4440K1046J1008M748J5218L0159J5764l0872
57089a03294n9310k5178M7069R2786Q5532N3606K6085j325m2399r0964j24588j21458p3519j218M8777M5848J5760
57072b27790J2016M4731O9898N7915L5935L9156N2092L4765j0201l7826k6428o608j4647m4507o1964m8144j2817
57055a44424K3274M3335L9708J9972N263J0141K4873K7516J1630q936k1580k7554l0193k4357o187J6087L0994L6720
57037B6282L5568K2169r166m7105o7177n6685k6454M877K8202M1621M2377L1435K0067J9538K3491J0393l0325p8154
57019i046r5345o5015j2216K0253J7600N796J4224L7053M4605K5721J69j1257j0022p255m784P21P717J5030K5493
57000e58L2747J7563k5322o6450o9603l8041j1408j3936k6626j9446P149K7769K7882J6573O670j863j4374k7287
56982a78561k8603j0326K2235N1056N4914K5478j9204m1856j7804L7611Q1624Q7051O3518L3062J724l0470m7279
56965H4170l1436J275J2146r665l2359k8138q753K706J0233K8538M6019L6412R62k9897l6047k5204j2992j0077k7257
56946b9364o5072r5114q0968k7199J9140K8056K1679L3121N5339N6466L0302M082J458J9891M3479O0023O3465N2189
56928A90973K8088o660m7774q0597q5288n9902k7495q475K252J6316K4317J0241j4890k0934j39K4128L3613L4752
56910A2526L4177K0737j1254m0460m1729j9722N7N670M651J698o902j6147j1491Q211K4915K7348K6002L0638K9737
56891G8662J1368q435m475J4430J0824k5381n4476l9165K146K0026p50k9831m1153m2680m8836n0938l2634K032L4270
56872b04996N4730O6281O9135N8437L5562J1236l079l058M494K233k3445o1287p8572n6631j4667J3210J6091Q217
56854a06109K960L690J4184L4944M8466L1230j2295m6853m8102l1337k5271l0086j9764J7265N6071N9587J9492l1674
56836f3602n0448k5085J3827K8046J1542j2394k7100l7435m6573l9790o487L5960N9940O2515O2542O5453N4048K1218
56818A06177r809j5139p390k1223o2829r4304p7072j8467L6336N2814L7021J9529J9804K9409K6078J755k5171l0139
56800c2620j4099l260j1420j8244j190K3967K0645j4349m3222l8410j2676J1937L4573N5735N5108J8243l2431o1885
56782f3598o3627m9294j5039M3610R3367Q5286K1411l8896n0625k8982j2183j1894j9219l0988m5553n1157l9879
56765b77260k0369k742J3866K7417K7217J6751K0452M8674P5479P1643M1838Q758j9644m2739m6567k0673J7170M1443
56747a9286N2710O3666O5592M2269P134j0737j3585l0188o3409p9859n8148j3550L2185P1236R0979P2078K2904j5841
56729B16150k0879j3299j6847j9223j353K0535J5409j4727l8486l8641k5965j5009q906n182J462J7553L7116L8728
56711A28436J3133j7257k6498k1016k3290l0971k2997r63R837K868r8R932J1813o414k1088q409J7284K6800J9637
56692F0739J5860J7754J2103N056J8659M6263M5237o586p0907r0729n9678k3844j8809l1464l0245j0205P897J0363
56674a02536M434L893J6003M1926P5756R9979R4924O0497K0853J60j133l39r439k6267m3678n6556o0157n1731l6957
56655B9632k6964k4526j9308k612J7644K4993J7031J1812K6855N5772P1840N5256J3331k7047m4063l7269k2760j5611
56637A04006j7195j8443j3364n705j477j372n941k0927m5659o0919m6046r534J6829K0554K3611M2805N8734M6151
56619F6108J4924q398k3922m7556o8016n8401k9278k1500l5923k2122L8129Q6675O9874K3134J9869O0808P5621K8099
56601A68125l9923p7317q2324p3817n1347j4082J4019J1128j0232k3940k5787k4113j2856J7289N1489O2679M7029
56584f3980K4307N904j4733l9164n2315l9198n88M9333R0138J03122Q7001O3489N1891M2038J3076k3081k6805J0621
56566B81056M2476K3777k7051n3399l6916j4705j8420l0835k0703N006J1466j2674m2484n4343n0455l9299j5406
56549e2909K5178O4213P5556N4619J9042j4616l9553m8896l7505j7224j2521l1317n1059m3496p690K8224L4457O757
56531d8740k7868l2710K072M3817N0188J8500j3434j8150p574n81J2398M6898Q4192Q6979N0656P581k1039m5217
56513A87968o9733p0885l1556K3293N2750M9042L5511K3859J243l8242p3868q0871n8604k6742l271N322j50j5190
56495i0124l2054m1891l7731j7656J0211K7821K2076K624m131J5274M4681N8341N1145L8702L0435J5989j6112n4825
56477B2775p2612n6606k6018j1092j6959j9095R10K6841K8574M793j4519r939L911O633M440J5703L6701M3695K5043
56458f821p403l5917m7952l4008K513L2830K5018j4763m6122m7054l6896l4250k1772K0352O7442P2258K7726k2556
56440a07375l6899j3523K5034N9551P8706P6407N5445K3618j5429n4725p1871m8120k801J7265n937l8239m0585j9008
56422a18486p925j9509l2305k2039J5159O3571R5133Q4046L4053j4029k2725l385k30k9207n6852m7489r804J7825
56404g4198J4325p210k1449j5237O283K6139K9216J8522J6824M2747Q4330J05490Q3535L4413n057j6259j3392k0644
56386B88378m3410o5260o6551m1012n19K8520J9641k8793q2357r7109o2720j0456K4164L4242L2191K4614J2008L011
56368c1418Q924K4845L2326K3753J2397J5114L4340N9038P3967O5963L1868j4253m9995o6620p5705q7286q7537n0080
56350h0359K6943J02094J19135O0095l2646r3545r2904n3301j1672J7999L8548M6061L2784N816j7301l0268l8716
56333a237m1231k9374q623J670l320m236J2227K9840K5558N155j837J9692N0988N9662L2114j4307m7103m7717k7297
56314A0624j1393j0718j5517j8129k5289l9306m1221r880M5777Q7727Q5186M4728M809K602M0617Q1533Q1866L5452
56296C49468k2584n6486o1049m7024j6958K3662M5868J9070m4432r2099q7937m9174j7302q965r043m85J7178L7063
56278b1229N7415P7696Q7787P0677K2660l0647n0026k3979J2010J1012l1460p2877p5198m6032k0599j5584j5522m04
56260f4300K7720M9877N3481M2593K5887K968k8868n7438o0175l3788o185l326j2983k536L0741N2933M2212J7255
56242G6068K099j2558m6716q4931q6423m1981P904K2593Q296O5J0748J8415L439j9537j6766K3095P3104R6521Q4353
56223A17788N7563L6389J9751k327k9344n2998o9432p5372n8989j3217M1108O4394M0521k401k5321k3782k5919m8498
56205e0086p2048o6417k9723R838K8135K9921L6721N7661P8641P7641M5851m064m5980n8644m2242j6684M80J1145
56187i854K5340L8541L4667J2145r315j4829j2815j7415k5848k7244k3353k3281k4005j3968O559K5301L6444M2442
56169A9512L8440J4935j9769l7925k1708J7837N5079O9044M6929r959p3983j05423r4281p2023o6923o5702l9986O155
56151c39751M3139O0593P3977Q8016Q4987N6729K1843m08j1662j8214j4789j120L267j7602m7692n3057k0206L2465
56133e9485P3775P7247L1813m2314r3381p8784j1520N0439O4421L8153N363j1621q946O091J5046k087m1148p0210
56115e7148o6275m2866k5415j4439M292K5928L2932L0396M1092O0496N0681m625o6411q4978n9559k9100j6433q749
56097b30181J0278L3940M3125K8490k030k8819l4485k1144j0687j8440l1896k7324j183K9105M9575N7976N3168L6258
56079f4274J9181J0763l154l9429p6702o7222j822O5987Q0390M4942L426j8464k4445j7875L809K7566K9212O844
56061b1267j2097n962J4639K4006J3058n294j5175j3491p825l713K160J3549K3245J9360K966j2107j8879k1585j6798
56042d1210Q804N0152P4630O0263K5262j760k2094m9273o8835n4878k0062o515k1760k3980J4460O3915P9493N9349
56024A25961L6187K9037K8416K0056K978j3090j7105p553J500o337k8556m8554o0956p1782p1570l7332K5601P0900
56006b2199O1777J5937j8677j5846J7250N7796P4712M1263k9112p5733n2351J2916M9493K8163j7737m7431n3146
55989B7075m4901l0347j8932j9126k2764j4996l956j3172l7296l6421Q394N9892O8210L3213j54N33K4274M0871L6816
55970E7213K0500J974k0989n2291p9234p9578n2377k5778j9434j4448J6600O1744Q2388O9190N0870M5352L8934K3596
55952A24232J6259K1358J0472l1294o7812n6734j2258J4638P697o64J5762M3508N6648M9065K9922P730j1487k4417
55934A92625l4920m6797n1243l5959q335O049p130l4739n1826m3054r672L0613N0397L4657j036k7070l4064l4638
55916a06142l2851j5701J8244M5649M8102L6311K8017J8070q181m1749n3762l1819M875K8191K5724K517k7539m7586
55898a09630m5847k4746J463J9690K4833J5951n728l2661n1454n1429l1101K596L7102N8143N8584M5029L0255J8459
55880d0491M527j1132j5641K826L9121P2880Q2877N8172L544n8201r4874q8074n1309j8974j3682k6574l0162p166
55862a92333L3909O7207P1154M5175Q864j5541k1278j8596k0550l0187m0561m2469l0838p857J6542K9132K1662l692
55844a30257l5127n5605n0150j7002K6187N3941N6059M5979M2700M8405M8341K9259p220m6522p0458o6515l5110R754
55826a53341M8672O6780N8290K8483n579k3450j7704R20J9050L4748M8856N0106K3184k7896p5268q9168n9799q06
55808g3922N9513R2726Q8624O2574L7264J7573p359l8829n9748n5455l2363j0538n706k1009m6069o0415m8475j6834
55790a18448J1649K3638K5090K3643J6715L659n908p026r667k1640l2661k9303j5859m877M275J9571L4608L2901
55772d9640J4257j460j941J209p464k1317j8040R268L7416L6038K628l4494n1504n4842n9342n4514k0742K3930L0492
55753b20062j2624n2204l8621O530K7440J6969J5527L5789M2274J6725n219J0692M1898M3574J5572k318P800K0119
55735c0139Q093j8058k8513j3591N849L699k2373m8139m8369k3071N612K0052K1402J7021P395o808j5305p078J6598
55716a55723M5921P2987R0060Q5511N5409J6546o145q371j2547l9366p8870r6629o9479j3087K8216K1428k3763o3774
55698a51676o1190j6361L6604O0822M5944J3481n754k133O664K272j0100j3723q517r245j7485j6440P10J7217J8522
55679a10388J4088J8958K7996K6872J8200J5802J7406M798k5770n0436m3089n099L5744N1508L7695J4465M455P827
55661F1032M710j4326l0847k2239O063K7563K8909J9648R421m766k3871l7240l6458k5734j1033O996K0267J0068
55643a1837k6593n9167n3890j8030P827L749n499R575L8259M4270J6827j4416j7829L901K3551K2554K580k7209n7851
55624a19228p5423o4061k3337K4881N5488O2638N7153M7444L4104K1206J7961K3057J9583l062l0103l8581k9678
55607a9958k6028l5153l6162j3566J4534K1666J3245J6161L3327L7869J7282m808m604P750Q843j140m297M008J1628
55588D0597R881j295k0963m1442m2842j4059K6815N2734O0118N8768M1083n468n9799p9654n9111l7950m2272n0344
55570a65203l4533m033J7945L2106N0259O5299O1891M3156K2833L976j3771k0972j4583j1421k2277k9446j5849K135
55552c2488K582J268K7099O4201O2997J0534n0733q1220q3759p5075n4827k0999J3873M1373O8346R2636R2124N7913
55534A35845J6919r25m93l817r999L36K7880M7879M2150J9516N89n478n139q683j7744k2792j3918O678K7205L8539
55514B74548L4802N774n2952j17750j44801j13917n2912o379Q806N831L78K01J3690M4858P6640P8231L9486j1085
55496H3449l2903j5592J2409J8251J170j1484j634J7796K3181J0596n429j4672j7439j3802m161K606P34M991L3097
55477I1164O8963P1423L0086j3562j8111O272J8836L175k2703l9011m1118k8972m265J9580K3431N123j4354j2307
55459A43650J2062L6286L5799R809j5387j7338q240j7517m3992n1250k0620J8762L1599K2752J6001R702j1097l2794
55441A18187k4213J2281L7238K6896j788k5231m1391n2217m6745k1071M052N708j0845j8607K20L7420O6066O0467
55423A26427J8460l1575n4330m0772j0265J6422L1310K9421O846k6195m9531n7443o1429o2965m5897q038K1424J5691
55405a82439j2426k6826j3020J0788K1957J6805Q230J1588L1018N2211N3324K8757n383l3663n5120o6061m8213M916
55387b03557O2215Q1930O2149L9688L6264L1577J757l7060m5945j6232J6745J7624o301j7285M994M1269N9408N0102
55369A79342K7236K189k6862o0821q8728r6104p6905l6099J0973M2482M6734L7763M0823N8122O4669M4881J5007l929
55351A80773j7902m4779p9328r6471q4971n6987k6008L882K5320K5506N078j5371j6084L553L0619N0421M8747J7536
55333d6466l1278o7591o9359m1417k036L8282P3132Q5803N9633M766m2822n8502n4273n6309o6148o0859l0245N411
55315c60278K3282K7873L7031M8773M4427K3216R342J6307K5266J3892r516k0021j2956n033m188j852M068K192p956
55296a46131m589K8205P2370R1260O8189J7793l6294q0137j04532r7539n5824j04L4963L3838J7040J6498L7413N5238
55278e2343M9664K7476P137m112o316O686L7991O9698P3525M2217l220m0240o5532q4697r4195q4096n4292k0050N61
55259a94138N144J2216M1660Q6248J11757R4653N0799J4155l342j2339j5532l634J8089K7966K0717J6112K3021K1094
55241C14646l475k7327k0213J0311L0228K3396j379l7033q0160j08452q9600k3443M8041Q4454Q3411O4223L4833p863
55223B94598n5832q6979q5236n5382j7566R422K0968K4463K4282J4043r505l1892l4523k0711j0582q395M066L2239
55205G478M8221K4587k4031n5726n2998l8254l6185m0827k9604K206L3316L9783J9589n862j2653K144J7934J3876
55187h7006p096k2254j5506P743L2693N2193O5157O5875M7144J4811j1358j7806j3370j7900l6161n1367m7521l0597
55169g2326j9860k1498k0646j956K9084N0243M4689J6214j3944k2842l644K6292L7861J7091k0286m4683m1489j9950
55151h1650L439K1450L4686M2561M2555L5146K3926J1905J206o149j2234k5635n1456p7241p8580m6589l869J8222
55133a48307J6508J7506L9079O5085O8734N0123L3711L2434L2514J7235j0077l4174m6222m4135k5301P907L9909
55116A12529N1123L5200J249l6886o6476p6958o6901m8989l8783l8407l8058l0735j6816L029K7559M7321M8588K8575
55098a03836m25k3042l0089j8124Q842L6075M7566M1402K7240R414j4099l5506l7808k0039p539k4681o4065r0860
55080b99574p3352q990O8573J08333Q6278L6514J8050M2636O0175L0439j9826l8261k0148k264K15N126J5299P553
55062A6776j9251k8595p91L1771L1675J1827J1902L7203N4182L9493N051k3439k9216p684K9473N1503L2483j4226
55044B30137m2421k3738J9368L9895J6731l0156o8133q2712p8210n8893k2852K3273N6411N6979L1951M429j6338
55027E5721l6726n2047m3567j1586J3016P545j1981j8870j5447j9354k6338j8218N18P884M561J5418M5570O6056
55009c7845N4592K5097M236K50P091J8772K6529K0278N763K651J4874K3252J9827K4343M7044N9544L1278k1883n5750
54990B69943n3338l2477q061J7641K9530L919n0418q7273p6862m1690k0694j7800q424J6683L9439M2619K8551P815
54972E9103j3818l2175m1789m3565m6009n0889m5388j9208J4554K8728J4354q211j6396j2666j3711k0679j6253R407
54954b54611M4269O8128O8547M2305l145m4034n1835k1401K1477M7294M7290K7642k386k5941k1288J3493N1611O9005
54936G6420P0466O7697N0887R047l6074n0141l4644k2316k5541k3250l415J4932J3051k240j6307k4059j8444J1401
54918E7470N5137P8737O3928K9586L33k1666l7766l4583r267J1134M164j3882j6996j3310k5806m4319l5950K164
54900D9108L7540N0010N0587M9103L5247J502l9728p0315p8920n8395j4326K2587K0237j3215l7143l3017k2112k1207
54882g2457j4469J2041L6838K8967j0392n2333p0620n2021K548O5456Q8945N0340j8611o6480p4672n8605l4982j3325
54864b53832n230j1786r849J9832N6878O4079M2746L2109N0515P0081O0016K6181o922k9223m2897m6366l9218l0401
54846e3287k5951j8507j576J6527K5507K9803L9438N2538N9455N6995M6889K7709P62k2420l1729l3408m1294n6520
54828G0931o6693o1312l7623L024N0107P8681O7186K4783j2574k0378j0971j4350m0208o6376o3067k4202K4968N0116
54810d7958L8107N437k1877l2063l0352k6201k4749k5705k2468o335K0071L8165L3560J7751J5870L2813M7084M2836
54792E3986L2270L5713N0837N5895L8987J1479p837j2799j1703j4224j9543j7872m794Q315N054j4255l0788l1087
54774A27634k2305j6352j0879p3M680j4112m8573o6533n2131k7547k0860k6537j7507J0271K8906J9012j165j534
54756a35605J6282K0481n630l6714l3412J0743O0990P7696N2378P892k7316m0791l9227l7833m4844n1811m0685m337
54738b51743M1564P0725O8863M2529J0887n738M203L2726N2252L8978O35k8537k4805K013K6024L2889K1394p920
54720A26939m7752p4728o6657l1288q61N920J45m055j1831k8704l6799j4065K8442N2644M0195J3995N860J9163L3877
54701A0440L4942K0956n764l9420o1940n1028n280M5672O3110L1777k8062p7177q7274o0460k1436R479L1077M6963
54683a43425M8287K5654p060k1468j1781l581j4684k5272n631L7938O7911O2985L9114K0898J2536M897n441j6166
54665F5711k6954l5378l2455j2662J6427M2255N9644O8531O7126N6444M4578L5661K0941o411l2578l5442j5792l24
54647B79322q469k8894l6718k5143j1271j4767l7167o0595o3976m2699j3061N591J1046J4372J8896J5493J061j2056
54629i035j3060p702n175Q9J7803L7888L6329Q775j7845j7120M356J8767J4169L458l443j6655m3136o0231l5448
54610h7216K5996P4552O8975K1848k0981l4311k7956j6223P5J7404K0231J508k2872l2823k5917j0281J0730L3294
54592c967M4933L8389K5529K1082J9868P390j3289k4650k1359j4555j1472j0460j4916k9805m2493l1326L43K2070
54574c8688J7493L948r13n947k0251k4722O32L6936M7258L0622K2313L9887O0768O0509M3499K1986p966m7390p0989
54555A68985n1517j797L3024K8467P154M724K2801K8364l574n6975q8950p4638l2866m362q405k8393l8712l3626
54537a30296k3199j1645O126K8902M3481L8356J5382j4476l9627n0307m2400k5002j5857k0292k0929O8L1834M3550
54519a86331K5679O757J6887M4995N0280J4232l6855o6083o5569n0353k8231K725L1585L5426J2157o831O244L6161
54501a57125M1464P595l5534n2214m0291k3049j5433j2043k285J5765L5098M3894L2554O299j2471o402J3968K3370
54483a36840J6819J3452K2276K6867J7066J4014M0045P7133Q3694M8904L429k3688l0321j9165J6127O5067Q8911
54466C23790O2874J2931j7407k4497l7689o2319o7190l6446k81N292j3441k2289p495J3080K0089J2652o69j2596
54448A48389j5954o600P408J0784M60r602q713m768j0607k2985k6966j7726n191L265J1765K3049K8563K0284L733
54429A28588j0581k1085k9019k7169j2219k407j8712m6824m5839o169K9227K3121j034M878L8487M9400J6005k1883
54411D6765k1043Q902K9385K6768J5618O144k128k926J1978L0759K7499n312m6186o9553o7696m6856j7040R266K0920
54392d4736J7652Q371k238j6126k8985k7915r617Q740P425j1004k3872j5193O651K0607J8745J5516K9251N7613P7397
54373H8282O9257L6435k437l0374l8306k6486r927j1677l5292n1145k8938J8963M7601L5209P506j960M437M8k3928
54354D7268m6250m1716o836L8800O8769P0308N4121L9340K6854m64m4790p7523p2991m5721l2132m0978m5908k7500
54336a37349K304K4702L9713N3748N9928M9038K8492J1909k278k2616l9505l0244P247M4132N2287L3196P339j2996
54318A69047k9689m7384o8106r0794j05183r3897n5251j7155q319j6677q2N4208J03857J01438N1948j228l3794n4199
54300a41260o4048m1276K0740Q2286R2766N0631O279L348L2646N0220L0375q317k6545o133L3698N8352N1445K5004
54282B50211O75j2086j7861k2000k2317j4307j16J1825J7155K1513L0317L4588J8005j7585m6192m8465l7435l6540
54264A09385m0124k0317K6381O5744O8349M2744J3507j1134l0746l3034j1322R296n632n1423q4200p3939l6131m420
54246f7016Q651J3531K1422L2478L9678L7370K8717K3200K0871O767k4741m8738l7635p911p379m7152p9232o2133
54228a49252j9555l040j7301k1358M685L5348M6760M9709N8315N5624J8274l8666o8902m6810N325M3978M5524J7515
54210A6173j9315m9844o6214n9722k2075L8901Q9797R0938L2452n2475j13822j22249q2668k1732L1779O2340P3708
54193a74028P7726P2855M1457k1790q6278j07013p1614j3152K6076L0520R243k2202m4639l6547M639M7002N2238
54176b15507K2245j084J0363L4939L1868n218m2825n0098k8871R7K3880M0837M7724L8854J9977J1182K5250M6060
54158I673M1516L550l6154m2703k2109j0190j9462k1468Q081M9045O2045M0130J1554k807r902k0975l0843k9295
54140b0314j6424L451K9951N7346O7316M5394K791k8566k6275k46J6631K749k6710l4367m882L4327M6878L2939K2821
54121B04810K9076K8436k424n3191r3026j02489q2103m4198r535P91j3471k5790j1833K1216M5731M6973L2870J6962
54103a1195N998J616J645M49l415l010O127J7254K3768L1016M4029N1328L7588P990j7613l2733m7621o3610o4498
54084a4887m1252q869J2365K0762K6955L2860L1279K3019J9399K2583J4713k0247o5416p7464l5020K8826N8362L5538
54066F3506r423m3951o2499o4476l6393K0633P0825Q2026O8381O3445O4473M1508m583l6567l8769l8550n4723o3088
54048B1775l8984m162Q31k6732n3459n8332n1059m4752l5200j2379K1919N2304N9519L5066o500l4902l2287r659
54030b16993J0629K0404K5450K9936L4145M0848M9970N0515L1174j327k4534k2320k06J8709J1039k4777n7921m8696
54012g3955N947N9892O5104K4297j8482l2745k7353k3272k2778j4648M352K4420L2750K1853o684m0640o2845o3582
53994a48369m5915j7293J8764N7262Q2504P6071L9623J311j1945n486n935j9309k0880M252L4248M4656M6952O0691
53976A91202O4624K2114m7617p7037m4254q891k4999o2979o0197j4272K5044L4726L4576L3834J6656j4434k8368
53959C9728j1537J3573K7108L3868L4546J1805l4692o9629o2171k3910J1805K8445K7301J1391j0453j9430o732J4280
53941A5296K9717M3029N6582N5281K9425k995k0298k8762m4525n6686l9877J093L0904L1080J9368J4658R807n975
53923A37122j9886j2684Q336J5916K04j9537k4404k0273k2157k6444j6834M791J3760l101k4976k3630j211J6529
53905a8479J7492J1948O016q800l2223m3139k5491O450K2474R635j6896k9509r874L5293P4631P8015M7324J2663k807
53886A34723k33J2830L4875N6427N7025L2686P786J803J326j4557l7403m3354l2768k8071l6104l8592k2173K430
53868H8656J5028O023j8402l9718l9697k1070p445r632o492J8879L9153J3497m6668q1353n8965j4246O015M208J5736
53849a36493N4055R8240J23104J17858Q0923J8292n0366r7192j03302p0073j8697J9369K1827o198l8039n3501n4523
53832i4716n1856m8632m2918l4043j7956J2636N4061Q7682R9572R4470Q0726N3930J0120l4182n3543m3140k2779
53815D9432j1746j0117l763K0389O0229R1408Q2425L0354k5151m0987k0510m844j4804k5937j0878J6164J7548j6580
53797A82632n7043p3962o7817n7273m9860l5391m342L5764O4298O5537M2302J2930l970k018J2171K5685K6461J0051
53779A26155j6097l8262n0419n9039o9249p2060n5184k3343N185K2578L6694M7804L8682J969l7060m5478k3549j72
53761b10845Q202J1175J7443K1049K2399L6886O6262Q1845N7246N075l8185n3797m9575l8643l0804l6516n5251o3508
53743b49542l8263P750L6358L0689R737n081j2634j4655j826K7213N1771N1288K9793M602j7677l9316n4804n1651
53725b36248k5317J5074N1426O2518L6374j2979m9759m8690j8434J3323K8503K4053K406k5976l7194j1771L7795
53708a94896P0368N5297M897l5785l2263N669L4901K6553k406j3865J318J6249J1161k82J634J1695J4904J4861K2631
53689A2641K7955Q361l4424o9568p1084m0132O396N1451P9425Q0394O0757L9277K7854K3901K1250J7208Q298q435
53671B41525k7567l9753m5181n0594n2240l7003n609J9392J7665n901k9214l5982k4328r39K4431M2528M9690M8294
53653H9214L9593K0035j0900m1107m9315k3092K3601N4641M3609L702k4797k1071l859K460K210J0202J6751L01l2393
53634I9785n0546m4710l7583m4000m9580l9874k2993q898P921K7392L0222P901j4140r179J0523J3268l368j1909J837
53615a37931K1958K9171K1902Q256m377q931l263L326Q45n966o765n421j2396k0602j0938J6142L5883L1286J0456
53596c7365j3856m1134o8460p7776n4578r781L0211M9327M9653M1370L3261K7051J5779n026k2360j5240J4998L9036
53578d4890L4346J1205q010j9561k9768k9553m162L4320N0017K5814j3984l0739r787L1736O3130O2962L6400J3649
53560A73125J8156L3013J5749m5449j07306j17039o9461m043M2172N9282N2613L2595J7363K1730L6354L5494J2026
53543B06374j2841k2496k7668m2308n4612m2717q751K3642M0066M4244M0745K9687J7561J2685Q623p422k7821k9881
53525A47110j4417j3209m3554p8113q0129n0919j9070L803K8584N6055O8162N6981M0246L7925M5774M0404N061n0982
53507A79712r3811r0866m5175K344J6620O059M57K771r161l5993m6123k2127J0964K1577J3313J0299J8550K5091
53489c5499K4296K2002J8211N609j5396l4762m4912m3769k9717n531J6179K3202J6894O038o759k1514l0391k5305
53471a61124j2483n403n395k723M832Q980P278Q997K1203L7965M5659L3805L338k8971l9272j9282J3744L7203M5199
53452f450M1229K2745q464l1871k9010j3486j4098k9697k9215m91K9288L1873J1954q981k0426k0859q008J3431K9915
53433d0621L7286M5264N3790M4606R745l1563n9363p5463q2872o7453k5312J3124J8214N504J1471L4659L7773P292
53415f3919k4394k4121K637K7125L0535J3806p209r852J5301M7559N5305L4594J0826O77n589j9266l4718m5636n7469
53396e3808o9881o6117l7294l483P332n823j6695k276L4677O8180O9542L3937r168k1973J910L4538N0645M9785L8526
53377A02554J4777j7073l6143k8773q627K855L035K14n562j5506j9704j1746l259l317K854K9621N8459O0516M3303
53358A68478L9385N0798M4675J2084r454O695L0217J5938l0003n9715m8192j6265P405J5584Q800j7868n7597q0790
53340H0175o3877k3840m917k7413o2796o7411l2838R076K9848L7934N8052Q6528Q8790M7811m231k2196o234K594
53322A25055j3365k0341J0073M2240J4526o8445j24857r3821j0257M5979M9450L9447M5863N2756M1968K9279L3170
53305A98720L6675J0196m1488q1014q2241n3688k1759n453n598q391k187M204j0240m4730o5050m0593J7167O7728
53287a27742Q3817O6667L1276m206k2715k1477j5858j5233o627J8365L6372K2323l800K128M1453O5328M1869n906
53269A86034m2633o5115q2988q6410o2895k6303j12J5813L6858O1762P2142N8028K6038j0453l4077k8384M67J7862
53251C5634j023l5393m4402k1373L119Q486O183J2235K4448L4471M0158L7119J8397p332j6419j613J3920P940j0400
53232A04155j7702j1320p542j1951j2814m096L825K207j711K653J2090J6007J4369J6326K0635J0747k2305o0915
53214E2658p7423o6421m6277k8235k926L2450N1784K6670l1130p5938p8390n1125k1130M017L1654O0291P5054O2655
53196h1762K3985k2807m9074l6994j297K1431J3762l841n546L159j165k0966l4793k9119r710J8946O0518J05392
53178d9881J24717J00816N0185L876k3664l5949l8741l8181m3967n7387o2670m5952j7514N71L571L439L388n183
53160a28526j8400j4588J6740N5216O9632M9986J4573o679N247M0043O0483L9033l986j8176J2035M1299J9553m2013
53142A91472q3785o7972j3794L3970M9356L4742M750k8377n9033q3901r4919q2311m8404j0477J7216L5427M5420
53125a60620L5059l605m9675o5808l6956J5143N5325O2883M0811J0341n641l936j850r259j1849M094K4961K9857
53107g0725K5439L3381N0684N3131L5811J8449R183m277k2611k8106j9340j9251l4787m0989k2925k623k531j0628
53089e2715o695K539K707M200K3890M9674N3241K8881m376k8694l4165j3855K3110M5665L2497j168k9071m9062o7404
53070b0801o8674l7701K099J2505k810l970K3530M9608M4839J2189k8644n6629m8597J560N8431P4530M9508K5181
53052H6154J8517K846l3769n9965n4645m4949n7363o7933m1928L984K3427Q668m707N989K7496M1128M1404K2589
53034h3057j9925o5998p5883l3397L2173P7377Q5621P1170N6148N2553N6815N2658K4988k1699o2330p4849o2838
53017I527m9406m9072n2217m1482j7832P32P025J6459M1370O6485O7039M4266K3960K2581L3150M2288M1240K2429
52999B28542j0899l2165j6990J5084J6491k1003m8840k8812J5630L9278L5759K7314J9777L938j5866l0278m8413
52982A48547p7876r4339o9673k1780M380J348K603K1155L0430J6701O975K4287N0080N4249L5392R603j6137l6951
52964H8994l8666j7739M207P342l01l800j0775l5121o4576p1051m6688q293K6509M7028M3892K0962N791K0375M4701
52945A2791L8884K517k0158k661K7898L4716K3009K1316L0090K2152r986l7770l5274j2956q18j0185k4162k0843K035
52926D0595K3338J6667k3330p0842r1094p3997l8086j882L2220N8486N3083J378o8710j05536q7235l8262O123K9882
52908c37202L0905J5036N401K8492P1821Q1202K6962m6403o7476k2582L7785O7717O5971N0590L1750J7872J6635
52891G4476J8024K627k3508l0184r983O867M85p798L866J6519J607k9928m6382m6651n3191o1906m0450K0225Q6656
52872a18629J22036J17479Q1229K7202j8337k8604q216R506O138n155j3386k7694m6387m2546p100K3013J3255j4404
52854F9400j4229J2390K2005j476k8075l6364m1450n2868m6431o394L5169L6271M418j6673j0345j361o365n084K3858
52835f3604O2214P0056L6099q601k7237j3771J1186K9193L7134L5649K0880l730j9158j1070M864l375m0974p4098
52817D1657p0178l5817k705J0822R430M183N006K0944M6846N4670K0956l7371p6713p8499o4642n7303m9421k8455
52799b86590o176l248j6626k2365m955L0503O8653R2100Q5801M9731O342j6329r223J5656M1084N3634M5267K0337
52781A43596k394p182J031N968K346l055q457k0816m2098o2258o6525m4295K821N2995P3698N3320J5934r087k1290
52762F4252l4386m1629k6882l824o674l6452n2512l0762L268J7811J9316K8381L9957L9947L9995N8510P9508O7736
52744B25560K0509k9025n7994o9954o5765l6379O312K6822J1639j0205r546N988J7872L2776O1968Q2369N5725j4063
52726B54609p3487p7913l8336k232k440l2774o2675o6340m1800q053J5575K5994L2147M0588N0208N5049M6319K0063
52708A34502q692j1254J9189M6817L0687k0431n5862m8345k4587k1058l6182m5365m1644l6008l0798k0170j1040
52691a80241j7150l1996l1191o189K3671L7731L4880K3292Q469k84R183L1190L8655J6880j1282j3313P575J6182o721
52672e0659m0803n5839m7457l2264j9066j12L0438O0316O5712L2314k9159q5468j02015o9108j0346L8264N9323O1967
52654a93962O0448N4021L3804J922k7057m1086l7538j9353K554P209j5510l9753k4487K9729P0479N9239K2870J0773
52636d5698K1969J5263j8233l9815k5353J012R972M992k519j9190m3400m4827m879M4777N9555M2011L0241L8347
52618B4225M4320L1145N856k1149m5087n5049m1628j7057j566Q684L1142N6277N2624J8016r612n260J0544Q266r824
52599H4867k4485l0859l3252k7689j1225N036J0295Q944O585l619k4130l7647k7652k738J7182K8324L9484N1463
52581B8884N7455N4765M0153M866m6692q3511p5418l0274J3298K5124J541m3543q4079q8453m8071K872K1233P843
52563b42007J817K2329M5899M9083M3470N0241O2403N5615K5060r411l0168l6932l6411l1048k1910j4837j7799l0746
52545a15352l8730k1407K2731O5095P2726M5727J4999J0j2289l5941n3238l6620N792L3092K2404o252k4127l0730
52527i2110l9684m4192k3456J8570M6344L4255j952k7147k6896j1480Q480K9907M4597M0060J7813m714j5594j7499
52509f4698j1587Q500L5326L9297K845m6513o0607k7678J5210L0694K3004K0791L2947M0029K7083P200K830J2026
52491H6699Q458k1098n1601m5689j853L8778L8862N938k2038k2343n326Q510J2376R716M70j6433l0484k4006L437
52472b7627K3580O258m2081q0116p6672m0762l19L0220M5457L3069o999l8286k0755L0651N8510M2563K6145M3346
52454F182O1125L1190k9602n7654l0613P439J1785q502j4548P605L1231J9669l1465p9710p2178n870O1378P4769
52436a7769M1489O529j0350k1635l0492k3271k821R345J1041K5505N8881Q1565O5704J8261l3318o6027o5283l1160
52418A6194Q197J5039j2347l4308k1465J1366L4314M0640M0472L8511L3955K5169M508l0898n7922m6545q687Q671
52400F4864o252r808K2119M5987J9100k5144k6958K642p79n0314q5067n9787k011L7038M4035L5680K5309J9809K3960
52381G4423K9681K1312K546m398M475M795j7986m5790n6508n1177l9332k2642q248j1823k7498j9751L0299R0360
52363d7262J12817Q7905L8668j6126o4684q6040o8334l6200k5488l3526k7280M51J9734J4143N290J1349J4949l343
52345a02977k6102k4072l363N340k097M009L8724P4247P3062L2034j9931n6179o9802o4036m1764q135K4893M2964
52327a23185L9181K0067J156o083l391R86O520K0128L9933M9370L5536P454j2631j2371L808K4768L7833K8840n460
52308A52459m2616m9230j9808J1769J0901j6964l7163l0541j1206p28j358k006P67J79n459o786K553J3168J0202n339
52288b7206j5605r806O74j176j4370k3765k0836p089J7082M7767O4223M5051M121j4934M812K4307k067o3264j03822
52269i5903r1734m7264n526K2096M0483M7545L6961J6632Q683K6429N5121O1640K9536j6678l3040n981L1564M1204
52251A21768K1790j141j2549j4467p815P123J8154J4683J0437K5549M6469L4272k0258p8444j01674r1728p0471m5718
52233a44020j6581Q641K2106K9554L5562L0560J0607n818k262Q141L291j0981j0754N635J3565k105k9383m7794m6115
52214a48151k3357Q660K6024J7090M210J7812M9432N8071K8074q146j6358k039J0893J7403K3967K3828Q645o283J471
52195I1246K2487K1866j0505m1538l8775j3034O55o086m353K9437P5640Q7959M5648k0828o2060o2078m7878m6707
52177B1096n0053l3024J182J9737P538n230J9636P3520J05187Q2188L0018q89M603J4719m528n0061r1316j04220
52159D0103q5322m3389O127M0631M2481J8555k891k249J2203K1041J9078J2741P86k4114n4127o5012m6156k0732
52141a30246k2446n4762q4361p6973l2675J7373M3964M4598L7270L6587M1664M5886M9474N5009N5392L8302N339
52124F9395k3644l1892k3799j3709l988J3590L7474N1490M4278K4092Q692O717J3160J7836J3920K436q179j1219
52106A86650j2673k6308n2817p0571n6134j1911L4127N5846M9709K8936N954j3296k1883r146K6941O6615P8204M8854
52088C07097J51l6373n5153p4561j00016j08054p6666j7261L6302O0961N5136K7911m838k1071j0241R903J1707o342
52070a408j9161j2641k716r562k9438m2691l7567j5975J3492L7686M3440L1116J7055J3614J4686J0279N676J2308
52052B8193K6107L0491J9154K496q351j1902j0593o891p280j8325l3690l3935o314L8477P2575P2446L6662j1042
52034A78278l7412k8015l045K130k4964o1471p5748n7237j7414K5957N6274O0795M1223J7850Q761O350r869l5867
52016D6576l8687j410M3133M3940p404o6074q4848n9233j8874P704J0043o952k6003k4867L292L7809M9316K9281o937
51997g0195m0785o2460o7069n4671l4524j6624L28J9445K8149J1470j4965j1257L3415P4772O2323L212m4028l5240
51979b18704J7635O8375Q2593N9771K3820r85j0128j8771m0834p1152r1647r0108o8235l7161j0633M567J7511M3358
51961c40728P7524R2563P3363M1866K8202K8771J7458q370k2666j3415j344o457k0732k7579k6528k2239q288J7216
51943a21383L4185K2679m295j2964O994L0342L1794J6851R337J9384L3905L4972J9601p1j2109j5696j6405j6831
51925F0290j7861k3834l5677m1360k7056Q69J9706J9590J2508P324l124j8111j5360J6531M9162M6374J6384K493
51907F8848K3799N3837O1344M5472K3239O120q67K296K571j6620m8455o5170n6395m1264l1096j0288K3783L3092
51889G4246j1769p4584q9017m3942Q153K6680K2780J6488J024k6734l8527j1966K7823L7735J3618j2898k3208k5254
51871a29352k4090j2098Q519K2037K4908L1008M3019M1589J5446j6918l0997k7993k7459l7271m5483l7911j3704
51854b16750J4041K8083K2429J0625J0367J8050J2509j0501k5144r584K1928L8407L2333K1322J8305K1308K7809
51837C5537L5943L2539L945l7241n8964n0434l4395k8984k0552P876M0621M6961K5376M988L973Q486k492k8820n3186
51818f8823o1192m9822k5001J433J7123J7240N355j3050l1532l8671k5281N4J4628R057P98R035K5327K5245N061
51799a83016j1594o198J2305K4741K6584K4408J9119Q305m0P515K9567M6653M2590K1472N85p142r76J1150J9816
51780H5844K0040J1717n388l1900n9849p1292n6793l0055j0240O215L7193P8173R7726P9174M5175K4969J5515l968
51762B32256l2373m6894l7961k1538j6898k9359n2736p1129o2007j8925K9489M5772L0393J8921K9722M1793L3042
51745G1568J1640o111k1404l4557k7065P572L4123J3866l5372n4428j9130L2749N7419N4670M6755L7059J4315j9128
51727A64541m7351o1243o0647m3417j0123K5202M5683N0003M5378K7378j3380o4892r6454r4653p7074n9406k8704
51710b99159L0619R6682J22145Q7445K2433k8868m7297l6856n598L3545N5067L7395j1088n7465p8165p5206n7884
51693b12255k5609K0928O4322Q1649O7775L6518K017k8845m7048m0648j1002K0611L3033K7463K0853K0752J7707L415
51675E1636j4663k2646j6951m222J0962K9573N0095O4436O3423M2200J812m7058q1874q0769m4915l390J2013l165
51657F497k4164k3652J274K6339K3921o578l3440k5089J2852M4204M7230L6741L4007L4159K1956N790J0088L7164
51639B29299O0421N7510L0379q750m8181o8550n0312m936K2025M35m3723n8345k9971K253j739l5416n7993m4306
51621d9900j1163O108n108k5341l3059k9582k5623j8343k156O883j4190n4741p2987m7126J242M2992P0819P9676
51603a81599N4224L530k3564L907M8217N1831K0082P007K7859M1103K2680L057J0850K8541L2822L5692M7999L9079
51585B73317j7912q2395q2695j3129N3309N7539J8515j0448j2154n091J737J7340L7762L7497J420n0508q0612o9599
51567G3893l1102L375R289j4824m7763o2630m8438j6346J4995L5150M0546K7677P43j8389n992L2744O3387O0345
51549A16660L2410K870j9369l5114l7604k1654j209M569j610l140q48j2628m0929o3246n9149k8307J9037O8172R6718
51530A5629R1924P4960P8843R5434P8065J1433n6161p4637n5570m3229m8453m8962l8221l2933l7538l7070k4330m175
51512e4991K5607O5135Q6407N4404j7947p0409o5357k8825o523n911l468J0857K2558J8405M072k821J1212M1695
51494H4100O3798N2822J2041l0114n4009o5524p3289o8286m0338j310K5647L3548L4090L6776L7933K9666J2094l534
51476H6111l335J1923J9705j051l7953n4074l5536j0434p580j6914j1633O827J3477J462r629o717K124J0546K6145
51457a6536M8771N7640L6873J367j9124j5492n485p994k3368l9352m6821m6041m1741l5296k2271P11K6460L8961
51439a08738K8884O032p840L16K2345L6157K4194j2791n5272p6778o0973j3272M2642Q1912R3745Q1551N4517K5736
51421A62367J3225K6534M7170L8409j1423o6877q4379o4993m5628m2459l3215k028K9622L5894K6053K5053L1133
51404H4458K1887n750l0959m2708m9808n3880l9907n585K1375J2131k8058o5726p2495m4485J525M0794N5989M9327
51386a51875L7112K9640K4189K0063K6623M6030N8893M2393m04m1035n4212l7836q449J2009P178k1937n1832n3699
51368a17149k2973J4240L0272K5906K3494L4064M3145L2651O696j3624j6433r389m567m056l960l346l809o976j6120
51349a1934l1249l9207k2975J0055K5591N600j9915q470L6215P0207P1397O1666N9806M8084P578m0258n6512l4601
51331A31078n69K5748M2739M6303K6032j3764n0353o5667n8973l6106k866K8902M5641M6736M0739K5978o455m6234
51313A78909o2220m0120n219P623n608k3137l1990l7634m3077l8429j6000J7058M6217O0627N3296K1221k5644o1344
51295e471o1228k5109K1369N0050N1535L3337N622k2880l9310l1297l475J9614J6501q543l2385l8029k5173j371
51277i6243K5058M3545M4433K7971M672j3893k0124j0427R941K5059K3998J7208K3472M0750M6677L0023K342k6680
51259A97782o1795r7339j04121o5278r598J8268J3000P456K1529M1635N2589N8642O2002M8166J1727k2888k8230r139
51241A34408Q522J3932J3977P478j5129m3048m3214k499M5500N5070K1277j9836l8804l8780l1684j3344J9837M5338
51223A19001L3038j0536m0758k8119M954J4992q312l7683m9566m6644l8489k3058J721K3718K8901K0641J4297J5631
51205f271J4925K659j5716k2207k734L5231O1109M6764O99l1933j6188K8960M7981J2438m5651p1642m9535j3079k95
51186b4485j3208k7849k8858j8202L127L8624P5071P9701L7864j8295m1532k5561o646r915k0564j5780J513J6985
51168A990L0599M5713M8736K4954j4231m3242n5377o1830o4184n2978l0777j0969N943K8557M6767L7994O912j2532
51150f7955n878K220p325j6312o012L947j4481n0372p0118o4821m6869j4133M1307R5205J05657P0445L2726K2542
51132I773K8042L2767M2602N9167O2320M1756J6335j7k0962n0671n7167j9450K5574K7626l342j6586l579o568l9536
51113A28084n6438k1619L2102M8246J8935k0882m7434n9296m9716r121M3953O8379M6955N348k3143l1438k8136j3881
51095C0898J3372L9914M2985J7293j6571l3132k5204n062J0905J5376J2502J1851J8241K3841J2469k1797n9723o8948
51077A9210l7135J2150M4582N1513M9928M8406L1416j2414n9717o8974k8192K7177M9544K5825j5362l7368k9833
51060G0756j0734j129l762p175n010l196p202j0781m316R701J8254J5316J0476J6323L1125L8631K4524r550m8174
51041A24077p5152q2500o9815m2200j2100L735j067j2016p991J2222K8279K7643K3735L3396M6969L9992J2660l495
51023D6372J3670M6143N9738M7628L1139K1146J742l8512p7930q5145o5268n8471q4469j07681p6935P616Q8090
51006b31127J11698Q2965M6683L4658M2484M8695L9227J3745j7612l8647l6420j2782J4244K2312J24m3095q0400
50989c248q5948n7464j6073J9766N0418P7557Q5142N8284J4554r238m817k628k4446m9273m5087j7043J080l545p618
50970a9627J0391L7342M1331J1217k8799m2247j5545K8222N1570M0187J3765l257j0854k2207l3287k4263Q466M1731
50952H4136N4313N0366M4735L9176K6277O320j5176m0119p1554r6716r3099n5966q481K1384K7046K2519K2249K7095
50934D4505K6512J0469j8823m5087n0409l1054P18K9298M5686M6425L1715Q940q498j2762r531r448j3825j4073m180
50915B6578J1436K3479K7320K5205K0968J5467Q868N949J3578K8514L2933J2400k1640l9912l1437j9470l0119n4785
50897E5332o0754l6152n587L385o535j1983l22K0036L3712L1598J4361o457j3545j762R115p579m9714p9745o3643
50878a76239j0658L6780N0589M1652L4482L2655K2718L323r722r175p648j3920j4919K924K7152L4678K5950J9911
50860I0533J8082K149k6717l5884n805L6475N1072L6231K0634J6614R499j0010l0490l9814l7635k4229J48J8606N141
50841I4600l7059o4379l8245K9263Q9661J07239Q0412K7317k8015n9928n4146k2452P351J8753J5057L283j5283l5682
50823A17747m6076m3355m1535n2628o4272m8942K715O5872J02825R6487O0175J9383q646j8332j0557N233Q059j9736
50805A24417o6689r1228o0793P934N9321N4450R703k5350k1743O465K9085L3221K3623M332k2029m0759l2449j155
50787i644K2617K0528J3284K9872O0655O6413L2013j4903m2879m8534m0611j9568Q028J7491m838l3231l0405K193
50769B8481K6801J9223q015l2686m8379n7023n6785m6852l0505q536J6795L0597J8038p361j0230K1857N9881P0898
50751a3801N4438K8925M077j4224j2671R973K6720J3636j2498j5949N845K2562J9814J3372J0799n291m0948o8004
50733B6775n9712k9299j1184j7102k9922l0319j2275J8497M4911M5320J6625j5028k0506R39K7238M0123L2720L974
50715C1775l3786n1097k9437R871K6525R388j6442k7198k0675L78L6996P8735J03157J00193P9087M6965K892m2474
50697C04853o8647p5484q2512q7587o1847n676K9428R507k4508j3952K6810L1692j4240n1730l5451P221K5780J2201
50679g4142r137k2884k4038l231L7754P0777O8321L6038l00k6133l6680k1808J8757N4564M8969N307l4206l7461
50661E0467j2288J2259J6073j378k3226k6118l853J9959J8849J552K154K9562N0701L4938n494l6234m6194n0841
50643C0888n7835n2858k3632J8421M9006N4781L9192J1364k0755m7085n5299m1518j9425j1945k8950n3617n4631
50626b63898j5950M4131Q6197Q6178N8267L6978L7237M1208K6939l425l4055o0772q6811j00789q4007m2299o940M460
50608b77351P172J8882L1228K7559J1233k514q076l881J9130N8817Q3927O4810J8370o746P705K8312J7347k1153
50590G4771n1592m5580l434M6177O1239J9169n4078j00371q4855k6433L0275N8819O0604M7753K9947J0471j3775
50573E9107m2984o3566n8192k9409J329K2300M1116N8790N5892K0829k4677m8047m3790l1789k6987k9036l5117m3658
50555b17889m7561l9967k5759j4087k878J4544L0720K9717J3227M803K2148N5848Q0028P6105M4363J656k9308l6792
50537d1082l0126k7979l6276m3824l8695k0591K378J9888K2656J0687KR078L3801M6945K9936l584k4438k1451r213
50518a21888o545j6637k7571k5815r768N728K046j9344l0393o024M0381O5622M6443O789j5041j3039r488j3461r650
50499a57655Q407K0239Q167j3892k0394r921p51L61K987J1691K2351L7677O2858Q4181P6997M2307J2444R161J6345
50480B13560Q011j4930l2482l5809l1649k6227k1031j8007j5703o782R420K0118J6147O703N130R774J1758J0782Q061
50461A16844n294l3605n8209n4660k5257M030J6952J9802K2348K3987K1375J5828J0006N326J138r240l2613n6886
50443a8128n2205p882M5155O9656O6658O0053N1321K4945r058j9883o297j282j6238k0952L424L0032L0170J7851
50425B47340J9264K5501J2373j2101j9161p881m065j3322j1774J0699K8976J6645k0588n7417p7653p7968n6960j6852
50407a4944K7290N2362M6059J9709o45N21J2655J4663M119j764L005l16k5791n6607o7554o1318n8322n8129m0339
50388b05346n521J5312N500o760J6215O8460J04062R0517M0977p986l5410m5273m7038m1108k6420j2858j4979l2525
50370a40181m5818l5774m206K9323M5292L4873J497l8159n9253m6945j1121K3423M0870M2878L7027K7070J5306N644
50352g8254R75J886Q537J9846L2098M2276M9533M8951L0369p735m8693p3087p9370p7421o7566m3930j6207n870j4860
50333b78522j8270R62K6660L2156J5253l952r633M41K2706M7533N7282M3360K3212K1880L5669L3545J196l3765l3463
50314a5750L653M1368M6452J9823j1583k4066j5478K53J2197K3273M0171N6046N3155K6177p093k6332l1239l1897
50296A59130k5099m8L3016M3422K0515n531k298J7329J0244l5961q0792p8249l0498J7394K6781j596l8220n6612
50278b7073n2738l7990j8518J0683M6504O4038M1341l544k4116l385K1038O111m0903p8453q8048q5425p9359n3792
50260d03629j488N0999P0517N5410L1460J9862K2556L0977L5305K8708J3209q35q208j6701l3079m6743l8936o833
50242a97449L1403N5291N7034L8792P113k4495l6504j8057J8458M4401M1862K2716J5953L3922N6142N2253J7939
50225B16774k0515l7124l2000k3524k4637l3503m0288l5482j6835M730J1570k09j2543q026M693K458j7130k9645
50207i1236j8680p92k692k3529l6547k6327p872k730q698n860J2091K7405K3875J1628J4631L7182N6062M9455K2657
50188C0023k688j6313k4072k8369j8722J1938N0064O9842N8494K8689M220n290j2393l1236n1233m2353N006N4458
50170H0065N5358J766n6118o6721l0372J1698K8428K2607J1411M461L996R908J6457J3794j50j5753k3562k2943j6500
50151B7830o133L68r626l6212n8517n3711j9763K6984O8331R0374Q5687O4219N2470O3766P6412O1228K3905n167
50133D52445j8706l7232o2473o5067l6554j6518l6174o4007m9543l749J3026j9041n0285l5251P245L1514K9017K3159
50115F1806K1465Q913j6544l1900j8012J6777M6897N3603L7516J4743Q01m822j3811k7167k9763j3583O595J2087K967
50096A28568j0887k7732m5349m7470k2257J3574L3748L9376M9127N7276L7350o722l0709r147K7085L5701J8535L445
50078B43512n913k4417m2177k9514J1253L5604J2454l5631o3174n3127k1908R939L1528L4578J4215j9554m3511m1388
50060A2769j9876j514j109r937o158J8040M5830N7216N3197M7821M2663K5922m081l2544m8785n5692n3092l1684L735
50041D2721K2793P78m7091p9389p1058k9183K4902P1031R2032Q0179M5597O850k6966n4435o6930n2333j4777K4232
50023c1047M7377N2737M3502K1099r026l7939o1750p7569p3657m3056p439j649k5256l4617L67N3584P8498O8311
50005c7530N3155M9510M4358K8106J2350O834L047o735j2364l027R879K786l0752p1250r3056q7481o7739n4114n2751
49986c06774m9808l1124m708P767L471O801L4668O6003O4625K8992j605L142K6362K9927P078j1151n33K5893L9235
49967f1739L0278J1941q18R57K0863M6615M6582J232o1842q8345n8501o546K7188L8919M4097M3715L0794J2133j735
49948G5788j6202l8218n3217m2879j8203o748j0651o381J4041L1744L5225L5920M0156L3732Q876j7207k6898k5080
49930A3798k1970j3240M727J8914K0887K7939N8033R3930R8111N9108J042m8930p9740q5494o2228k2886N642J1800
49912G9443J1358K0294K8732J4902k2563n9110o8563m4315L86M2846O1381M7387J4975p185l537R340J457k9857m9913
49893D7458k8130J8876M2929K3416o640k400L7175O9342N9118J7401j6642k3267k1875m0526p5367r4085p8677m6450
49875a18344k0778j803J5895J6159j7115o0649o9842l7559r65J5369K6115M2700M3742J3356k2946l1686j6847j165
49857b26363J5407M2948O5258N6848K7941J4180K4122L2340K4014J1211K233r980k1636j3971J1979K5466O377k7257
49839F1117m6629m7337m3071m0361l3104j1935K7037P1347R0833O6865K3703O201K1906L2915J3610j4508k2290j8179
49821A38120k8861n4541o9948n9280k9927K18J4421O976n891J450K8243M1116J8407j8312l5294k9463j7685k925
49803a03176J9806L7991L4365J7977J2840K0627K3658K0670K8119M5766N2662M2398L2636L1400K2147n280l3350
49786C01256m1334l1645j8604r064o966j8336l6065l6484r078K3705L4040K3754J2495K916j6585l9065l8373r463
49768H7104J3904j206m1689o1332l6718N421K1385p9l0789l9541k2687K352K0190K4746J3485r618k6305j4933K3604
49749g2706O0179O5622L9293K892k8221n6331q4014r7887q0443l6403M170J7100J3457K5937O4599R9427R5876N7279
49731H9826J7271m305j8644l8427n1536l9442j1289r7k2837n7796o8502m2302K533M1792O5038P0360N4827K2346n807
49712C009m910K4333N1325M6445J0576l0298n2172m7931k2646J4045N0009P2305P0984M3187k473m5097o2913n1629
49694F6149k7969j1279o056n535m715k993L00N331J0110J4361K0127K4395J9019M561m644J084J0618O072j1548k2339
49674H5049j1707J3962L4886L6062K1043J0169J8050L1503K3264q282l2020k7272j2702j4019k2859j3666J2855L1643
49656A75959K9833J4475p683l0206l5782j6794M19j2787l7187k8451J0826K8527P97l5297m3879l8617m3422m7154
49638a16423l0615m178J6065L9147P0311Q0192M4120j0339l7608l7568m1799n2373m2605j1334J1706J4914J5295
49621i3092J7764P867q507k524K7389M3792K6960O084J0897K5016J5494j5972m0747m5273l8293k7163j1486M879
49603i6915J4273J5492J3217J2666K0488L8967N2753L8194l219l8794m6131m1534m8064n5206l8257m726J1943J702
49585a53151j1113r651o158j0844q141J5278M0025L8385J8384J4667L5811M8979K7594r197k4238j3865n555r846n149
49566b7785K1092M2671K6106k3384o8053q0742o2331k4575J9960N1431N0901K3523j812l201J5559M0046O3604Q3068
49548A46078Q8160O5936J4064n0844r5865r2716m9076r895q931k8140k9707j7312k6687n6231n6063m058N3058O6086
49530i2143N2639N8713Q0240P2881K6522j9401l4025k6459j5768p625p923k4718m5395m1260o892K9741M4836M0951
49512H4914K4181j0026n3227p4106n3543j0718K2523L5162L1251J4133l876J392L3425N6288L5917j1392l8858k9337
49494E4103q250r36n125q015o857n907r307k1182m0188n3333m7993k8406p211J4244L9968N9081N4577L1919J5205
49475B6387J1596L966j4572k4207r376J5309K5624J7221N13j6388k3532o271L1671N6065L8091n344l1081k4484r348
49456F1840m041L348K5241M3018K6565k1297n7995m5145O304M3417K8473j6973l7648j2861K0482K1011m289k0843
49438E8607k0364k2375l0794k5204P91K4791L0074K8294L4266M1230L6442K1735L231k0603m4480m8815k6944m401
49420C5481r070l3240m6581l7910k2972j7066j9862k3352j8306J543K6513L1482P694j6263p539K5905M8946N0312
49402b4285M8723N0237L4852n573m6748o3530n7810m1010j2700K5038N1874M9830K7915P682n780k0257l1892k5043
49384c8477K769L0886L5338J2281k0138l9611l8451k5548j0997M912K2670L3179L0080K6323L9736O3199O8872M4274
49366B41297M522l3983o9059r5109r5141o4739k4360O235K7294L9411K7666j2773n3491o1183l8567j3478K918K0794
49348a91746L9106L6312O46m7434p1005m7978J3403Q2085J26451J33646J07989N6841q500o1682p5732n6665l9505
49331c768l9771l4857q736J5516J3645J846N641J0724j2698n1352o1009l2982m899k629j1098q777N070K4673M5666
49312a49795N2932L5412J8427M1216R1410J05363N4077j2609l5761k3558k1272l6423m0053k5700j8388k5091j9094
49295h907J3073L9990K1725l6352q4963q3483l9061Q535L0918K9426J4237j3824m8667o4368m0200O419L6965L9068
49277a79469L1564K5553J2905k659N48K3388L4157J5516o583m730O589l26j5440m261L6351O7032N1846l487n8252
49258C0242o9852k7991L1404N4977K5746k1854m6521l9699j1099L5317Q6452J07382P8485L0704R814J5154P315k9235
49240B66741o5176o8752m0364k155K2734J8940j0507l9832m4468k8359j2515n108k304o325j5948j0671K2670N5525
49222C4126M7447P598j3996K20J3832m37j9238j2773N244J645k6092n2829o3622o3229n6921m2215j5851K1421O0269
49203a75401P8986N9849J5942j6064j8437q428l118P041L2453N5205N0297K1940m544j7390k4126l0576l4156l3123
49185d3650k5823o153K4914M9250M8102K3166j1737n0327q7809j04979q3209l4969K868J1269P508J6282L8623N7806
49167a68868O2757N3860L3866O446j7795k5494j5635l968m999j1765k859K7621N6704N7055K8488m014j8237j1193
49149D1970M631P879k0382p1661j01102o9218M643N6081M9762J4350o126o231m852l981P674K4096K5115N593k1272
49130f3031m5243o2558o3225l7838K763L4089M4822M0939K5878k426l3020m1974j9570J6715M3729N5518N8457N4666
49112H691L9876J3587j4758l0129k3741l007J3938J6982J1819O055j408r416p265O831J3053l383k3249j7626L499
49093C49j182m2405p6700o0269l761M5085N6395L7054Q999r222o556J3366K9215K1690k740j9368j6004n224o279
49074c7557k5221n2184o7163m9730J514N5157O8110L0769j9969m4018m3369m7488o1970n8018j8700K9261M8339L9305
49056b52932L3830M4703M9976L1389M987o46J7214L3957K8008J607k4140k7134l301K4699K5294o493l8659l7120l119
49037i7880L5380N9878P1649P2470N8091L4117J7732J3646L046l0722p4245r5039p8102m1916j7380j6861k6131k3707
49019a35974m628J6772K6193K6094K9979M4183O0335O3250M2204j477n1384q3339q2771n4629j4153K5204N0001M6135
49001A995J5652j3809j6268j231J195j2166j2832R147K2259K395k2308r776K8278L8548N602k3830j1646J4207L221
48982A8633m1922p1147n8020k6078k714J5516L7884N1705M3385K6358K2064K6125J9031K266l049P953J4118j693
48964H0415l1841n6804o3171m8073k2601r689j8878k5328M78M2573N2431K0236m657J5402N0996N2768K3941M260J510
48945F3968j1634l7249l8997j447L8731M3166K4151K0853M2004N8740M6287J0259k6901m8214m8470l1873j0101L715
48927I6988N886N699J3512K5053K3134j050l2808m6854l2768r80L1430M9870M3678J7287k058R198L4213L2024k461
48908B68993k5601o797K9707M7969N2039O1018O2075L2617j0613l2722l8392n7688q1457o8305k1053K646k4552n6420
48890A33464m3946n160J1392j305j2205m677J1530K6627L7766L8835K8124J7542J4984Q992j1270l4907m6430m8304
48872A21052m7151l5541j0911M793p435k9676k9929r306L881J246M004K5097N0031O0798N6487M4542K9544J5235L245
48853B50006j1495l1036m3292l6896k3170k2955l3071k8244O93L2516M5823M3642L9071L4554K7662K2777K2253J5083
48835C03921j0406m5645o6428o0270m0737l0144l2356k9362n994K8667N1188N1234L8792K4710O978j8805m6643o5371
48817E3329o9107n7645l4991j1382L461J2237K2614K6803Q873k1163k5924J0420N4142O4203M3388K3666J8698J9716
48799A41338K3674L1554K7001p229n1955o4727l5844j658N825l792k565J7501M0373M3618J3761l9757q2638q5859
48781c1379n9837l9002l2968j9548J0614L4348L3339K1748J8174J5296l32j8719k1309j1050l856n68R582K4378K9545
48762d1544K1738J2413R420R690R715J0570J1782R648J548j3440l3576m8262m1361j1314J8817K3807M794j5503k1200
48743h2258j4460k170J3190K7912L5059L2184K2531O243j9970n0154o5006m8801p366L6204O1169N9755L3446r030
48725B8478m6722n2600j8474K9737N5410N0350L7113L2034K5813R069m901j487Q170N552k202L591J2882n663n3685
48706A12465r1786r0743o7242n3136n1746m3287j7273J9336N4891P7842P7648N5013K5325L080r703j5142j3263j0677
48688c8398j8678l2736l1513r026J0762Q442J396K0198O4236J01009J01629O1527j647n2659n5955j2948K7585K1504
48670A64728j5564l0498l171L4355M6910L3520J1231r324k1442j8723p395o451k4634m9101o3193o3465n4960m2835
48652a20012l2394k5217j4621J436O734j3151l9526l7219o373J3777M398k582K4099O1445O1767J9441k4225l5302
48634a57525j7359J0032L4837M9939M8983L4815K1108J9998L2704M9190N0261J8288m1066r3925j08751q6138m5907
48617a80516K611N4877Q6377O7911J0870l2982l0325k641R552k504j8052k2549j9720j6530j4282j1283l289J3562
48599a08913L2822M0414L5025L2039L5991K6655q127m0682l1712J4811N0705L9333p619n0231n8129k6700K4341O2771
48581F2794O9186N5014M4058L9026K3725m560k8410l8317m3403m8475m4505l0382k0384j8983j1267R119K5415K4953
48563F4604J7714J2684J197j7389j9886O575L8499M9952M7793M4135K2392k8961p3639o9349l7600l6084o5943o5731
48545a09037o374O4373R2030Q0028N8781L5398O814j3643j8887k9064n5677o9956m3252J692J8386K226q749Q658
48527A3747L8735N7485N7027L9939J5629K764J2343K8812K8546J3481L562M13j3212l7259m7897l5619k3039l0816
48509A24641m6881m6208k6246n681K565J550l09M968K6497O5140R8086Q8147K3973n3010q0335m1341J3828K7578K610
48490A79572j1110J1755M4215N3660M2039K5032K506k6379m3671l7344k6836l3781m2959k6342N800J6546J171n540
48472A28334J4377L6292L5712K3140J7631J3058n385k8675l2200r561J8505K6240N454k8817n0271m5567k8846k3371
48454F6050l0266l0723j9024j1844j8375k4110j7612j2727k5065m2207m0139k0047n050l131L549K7978N6091O5714
48436h0938N6004M5312M3900M1165K3633k320j4842l549J6258K1266O824j0125j1645L580K1321K5944J5906P831
48418B05525J9327M4034N2643K5721k3543o7138r0849r4356p8512n1726l6713m6513o0695m9684j6796J0466K4585
48401b34224M0023N2273L5160r834l9342k3456J4923L8126M2875M5463M2999K2460o717k0854j6128r269j0388j6505
48383e2415k4128k7218j1619K5683N9913O4853M8201L6131L1015J4120j4296l1098k9423k9949m4770n8158n4037
48366i7195l7279j6386J0093L6181M1874K0916n744k0029k7198k8534k782N4246R6247P5016J0547l1840l0489k4774
48348B2870l7849l7173J809M1835L7379P633L623K3228J7923k0114l9422j2875J5176m002n1293p2554n3841k3783
48330a81430j381J7189L0656L1080K7271L5861M9421M4010J8506k869q183r191j4032j7752k1847l2593l7436j6728
48312h9448J5855K1739l148j5700J1087M9759O4952O0853N3895L4305p015m1072l3694J019K0425J3708K949n229
48294A55240k5192n1375n4488k5809R335L0344M2495N1408M7658K9241J1552r6k3601o8146j08400j09677o7624r601
48276a66736L2281L9223J1305k9098m7748k7685J3204M0858L7848J3729r658j6468o496N812M668j0428k4368k5190
48258a64947j8381j7573k3425j8060J4398O1332Q3376N3476p571m8824m5259k0188o571p745j0384j3440j9511j4739
48240b24036J1456L5766K3029k2350n7007n2356k0623J3425L6536L9207J7512o709O43L5711M7907J974p2792j15380
48222c08087r7235l6541L1546P7593Q7169P0981N6811N5128M4734Q070l5837n5347m9910m5109n1884n4905l8811n917
48204c47551L1205N8950O7373N9859N3238N4765M6870J1083m0942p8903q9002p8201n1950j2544K4766M1689M4626
48187b04669N6710P7876P9095M5700K692j7005j1253j589k591j2946k5587l2867k9478k0516j8754k5999k7503j3873
48169a82557L223R209R461J8766L5126M0544K5819R88j8570k5504k0662j0477m979j0184k1359k8501k5627r637K1728
48150a93193N9318P7283N6459J2501j7494j9835j6992k7839l5026r578M4075Q8437R5582P2325M2558K0189M407j0419
48132B42758k7406m3345m7975l3492q797K072j7954n9650r2358q7429l9830K6474P3995P9050M7201J832l6330n2761
48114g3945l4837J4750O2129O5148K2150k2181l2179k2092k3614l3219k2201R640K5020N92l8738n0220k2050K0111
48096a55736M3658L4745J864l3338m9433l7523n411K8011M4041L8208K7940L7926P0259R7372R3461O2414K3480j5596
48078C06342n1979o9638n6801l3362k7941l0519m982M6661P2976M1548j7289n6361o8120o8989n8670l0892l392R49
48060a10459q658o322O996Q188o947k0930k8509l8314m0900j2040M3456Q3102P5295L3183r099l0395k4815K501K8124
48041e6543K3905n574k1310k848K0604J4539p959q597J6509L6463M0124N1493Q1295R8309P1799K0301r500k381J3581
48022C74210J2229j263j3987l2173o3537q8574p7605l4615J980Q520K138N231P096j5142n0713n9774k4649K6365
48004b4263N2921M4093J9228R25l888l996j2325l0730m5021m0653k2059p466n740r984j4341k2146l1821k8924l970
47985a90160K9484M6774M1066L1718M1024O6215P9341N7926J2870k2180k9385k2223j7649j0039J1851L6565M1691
47968B04889K6879J0678k237k4031n2245o3118m4859j4127J0056K6570L6335L0004O194j8085l0186l6269l9640k7139
47950c31M715L2530L7971L6796M9338O0160L9638n410l6551l5339j9353p906j721N56n955j7002j8444q204n29m605
47930A00354j6804l3998n2112n1860j5097L7808N7222K5754j5193j8576J0178K9014J5230j7509m5680n5863m5035
47913i2167k2877j2187k8665n8150o6691l6294J6078N5310O0397M2841L4235M9198O2265L6177k4914p1561o8710
47896a25715l7325j8093j4465n16K7054L9767K1981m917j2513J742K1599L4952L9107L5674K9576K4668J5919l731
47878G4764k6280l2911k0463q079r142j2614m767N111j455k1429l2980k6860j7561j9765k6561j7922J3982N1065
47860a33867O0739K6950k4770m1838K402P3435J07641P8919J8338l1975o1600p8310p5596m0370J4320N1163M9135
47843e284K5154R649J5068L4250N3607N7166L2127j3768m9295n0347k7745r509k328Q975K6701L0689J0914j2848
47825A33176j8166j0461r503j7217j8432r068m891j9397m4846n9973n1558k7248q488p744j2298R15L2341N5058N0557
47806d7243L4390L2177M2816M3980K5850j48k0762l0367k6329j4637j4387l3866m7370k3798K2924M3877K0999r806
47788a700j2726L218J1159P591K872l232q790M316L9731O0321K9423l2161o7406n6714l3391k5545k2332r062L88
47769a14040j1305l1228l2004q535K0681M0728N1040N2640M0873J5701q030q335K1254N7598O5426L4584q729l5529
47751A42790m6641n7937o6684n6267k7555N05J9201L1747K8281o528n3676o4393k3280K4980L6892K9643M6749Q6347
47733D4174J04941Q4235N2573L4850J7864j8511o2757q6680q3945p0998n4973k3517K6297O5599N9488J4128k1334
47716H1434j1529K1038K7986O79k4578k5430k1598l0831l2059j867L6993M0871Q028k0430k0202r724j1333j8181
47698a0733j2487P420L2762N7964P3618O2107J9227k7587m0500j1981K5123L0997r52l9456n1371l8367k8544l2327
47680A4913k6483N016L4882K4987j5673l9034k3707J804Q903O614J2416J7773R745K632J5674L3984K5353r774l6530
47661F3495l3915j6066o29J5956L8844N2995M0757J0113j2672j5342j0454j3401k1366k0197o769M067k522k1215
47643E1679l0511j6011J6502N1409P7781Q9842Q3071N9479L1397J0066o621k6140m4254m7267l2345j6158j9460m6943
47625A85516q1981r7291p5445k7838R715J1979n865o705J9488M2490L4535P544q223q137j1806k3301k1538J380J7522
47606c7961q53l7207m7430j7060K2168L6966L0820K5519K4144J4115k580p689K911Q854n133k4643k3585J841K9593
47587g210L7958K5154N497m504K777K0216K9765J8269q894l3047m0030k9290r170R025J4013K167j4670j8401p629
47568h004l330k2069m9045n1616k1004J3721K1569Q321M758K1718L6232K6789M266n156M765J9641L1780M6642O0382
47549A40360N2677J4281l1047m7177k4401J2593L3358L0009J7792J4589K2018K5057J0635j4492k9366k3668j0286
47532A92932r102k4237m2773n0853m4382k7685r128K926N469K467r86l464m285j192M447N656j80l172R013L3276
47512C4747M9168L6334o349n5491p6302m9344R320N9043P0155M4342N96m3464o8527n2828J542N0954M7614k420m1965
47493G125l0222J3356M1346L2583k14l6519n8741m9881q478L4990M1367R264k0156j3351J6934L5260L1179K4207
47475G0049K8014L2435K5477J3531P332J695j4024l3399m0878l9842m9784o9691o8012k5948K6475M1085J0616k6178
47457a11047l6195k4914j4037r871o265j655L092J4263L7222O2163O9523M9605J1482k4557l9165k4452J0116M4054
47439I362O1637N9277L8896M053l3979n7273n5897l5223o220K0904L1590J4003j9588l7684l0455k6173m5927o1789
47421a70486l2176L1835P2452N8099J6838q653p359Q534K6689L3027J4293j9368l7102k9650k4207l7738m3917j5419
47403a64308K5879L8699K6121K8028N5691P4758N7090J4744k5297n0450n8012m8020l1193k3180k4139k1988j5285
47386a40862r525M578L5861N8207L4954j5529k9031J0447L7674N94o0554p4608l9562n295J2442L5008N5211M0558
47368d9432L454k70M0245O3833K5373l8920o6931n1758l1723k8866l3067k8644p634K8748N9830N4289J0937k7735
47350g8271k4906O303L0481M0563N2007O4060O0494L9730J4448j1539l7404m4390j3785L4692N3516K2412l0147o4287
47332A13977o6415m7052k3520j1507j6343k5764k2494l851K2409N3564Q3518Q7847M7783j0044k9997O571N8597Q0135
47314B97414P1020N5886L8250K757m8610q7866q8371m8889N897M1373L8417J2257k567O743J7931J0433l271k089L654
47295C20369j4296n2775p2186m9118q812J0520O928O550J7139J7898n72j2216J0304N1910O9343M5789Q024j4199
47277C40600k1333k5000k0438j601J2399m062m2468o5201n1573j5115K3785N3590N7429J8774m2795p3205m6235q35
47259I6716J0730q721j7159j281J2106Q717Q055K1553K6382K242l1991m3099k7442o111R950K2701K3376j938l9867
47240F4919n2187k3434J6159L1225K5415K4316L0982K8370J8858K5577M6400L9893k0523r9391j32697r9040l4579
47223a09737J6682M3326N7765P0379Q0106P7028M9625P21m3259n3932l4753j8168k4656m0159m0823k4151m584Q763
47205A0173J5818J4799K066j8134l2431k8470n590K0993K8329P630k0219k2269Q254M1311M3568J3105k5567n0913
47187B453n9167n6629m7567k9694Q33L7170N7711M5793J4503k078J2434L9835N4649N2795M3027K5351m677l7507
47169A49235n2285l9109j0552R493P249o170l110K7102N4988L8937k1170p8992r6822q1848n6456k1315K7835O9615
47151h3375P6141N3073L1767K6510K4412J3284m442k2726l5520l4236k2675k5586n5484p9759n5385O352M8744M7483
47133i1422L7430M7254N1143J6291l5043n2294k8721o433j3079k9241k4534K342L1385M9228N5419N2876M5162L7850
47115A45613L2621K2611J242k5259m0805l6947k3183j6253k0603k3695j1954J1696K9487K7841J2956N562J8384L9383
47097A48697M2970K1015n695j6787k4023n3495r7544j11110o8118Q23M4852M8442K9272j98l6320n8159l5922K6268
47079a45032Q4031J01439Q6615O8545N7062L9565N554l8094p1067p4946n2152k9437l0378m5017m2722j5709J0099
47062i1644J2341q69j0857j5176j9811k0644j0781K157K361j2499k5499j6313J8532N6934O5882L5842k514j1339P583
47043c6314J9616R247k725O54O348n71j1719j7318k5316l5101k0435K9021P1971O0824R576k4178j9144j0078k4485
47024b0127m1347k9113O631L5189M1457L5729L3863M1074M8288L7834J673m2033o2061m8301k1158l275M052J0028
47006B8403J4363R391n559k1113k6571j9676j1973k0806m5856n9289l6941L183J7765k206j6314O701M2211M6208
46988i8079J8631j713M385J7855K2114K8399M7377O2511N2767K5843P605P211J1874J0555L379j0685l5103o0562
46970A14364o6376m5441j4405R010K5467M0751M7327L5212J2505k168l146J633R086K2619L6954L8893K4371l47l3270
46951B53039p3842j05385j03105o6235k2666N144J8870K3057J1280j2005k0208L339L8626N3388L9235P007l3897
46934A5642o9347p3747l9194J764J2516J556N235L0523M8841M3614K9993K4778K6939L1835L7551L4216J3400j0647
46916A65468j6356j0076j4217k2449p448K2142J9289k9933p5743p0301k6722J3736L6839M7013L8855J4784K910J8785
46898A06576L4567K4764J4875L7169O3436M0841j8573m8247k7322p203k5852n6013o2427n5489n4062m1800k986L3281
46880d4465L0734M069n096O223N573j5562l0931k8161k6018l4822l6804k0405k772R63N176K7917N6701O4691M8848
46861E859K7432P458j7790l8880k6774K7285Q7490J07072P7392K8753r489l0741l6723k5753n845j175k6149n9087
46843I0335n9600j4506M5258P6946O6915L6294J3821R352J1379N353q881k0153k4116k9385m1073m8254l8994k0819
46825D9872j1164j0373j362K2201M4625N0863M5058L8113L0525J8145L633r201k2821l6390l8034k0094M646J5283
46807A73525O749j0318k7578m3087n1890m7925l4772k1791j0348M149J8561K3954K0400J5819J0258l562k2147k9863
46789b9866k0964r509j0772k3399l4761l4189j7873Q258K8298L1251K7436L4891M9027M6794K5715J3332K4633L4604
46771A42906J3992k6283m9894m0597j0475K4210N0031N0047J9654j5064k1534k520R535k703k6937m8208o1494n7520
46753e2854k8135Q423J8818P11j2407l261M998p207k1364j5212k229o040j7937j3414N391J7574K1672L1415M0914
46734c0144K9603J147j5232n964J2390K3524K9549L3666L0515K1055J3830M434k2735o3659q8840p9790n1754k9119
46716a87524j7074q011L784K5701O4252J04104J09821O8413J5239k782K0168M9593N3454K7571j1023l7971l6502
46699B41213j5466n763k4467n1588n7788m3350k9623k2701j0905P002J7380J4857N802j1186m1756o9089n9696r193
46681a66317M0540M6785J3153k2334l0927j0064K7694O1673O7871L9099K39j3525L504K2020J4803j1954k9753k2332
46663C0175j812P658l448k2344l0498k1780j201K5997N2582O1720L9710R3k4488k5172l2126o7906j02214q2874p764
46644b05692O5057Q5022N9380K4692l867l1239n0535m4969j8857O08j761j2464j4614j2434j9162l3133l9559l0319
46626b83846j0759J0282K7728L8430M0215L4688K6673J9521J2929N685r10l323j22M258L891J617Q610K6946L9402
46607A915K9017M924p541k103K634l667p240R87M407j0860k6051j5986P009P335j9173l7055k3050K716R340l474
46587h5916j1478R60K5727L9033J8866l3146q3109r2424n7946r842K9881O2724Q4804P5883L4770k557n220J2273
46569C283J6287K247r641j0485n449P040K8698M3515L6823K4024K8345L7232J7993k4529m5853k4572R829K3802J9813
46550A78402J3728M705j0464j9382j3666o167q578j2248j0351j5686l2876l7464j4052N570j8132o6236p8080l5420
46532a76397J0937J0686k3757m3972k9674l012P014p311l4134n5099n7283m2742k6382j8152r219J7653O3509J03945
46514c13390J09028P4687L2092J8509L6195M9136K7603j3938l6300k5471m496K665j713l566K50N389J2443K2126
46496h751K5800J3403j2617l8647n0697l9756p045K7547L4788R300j4785l63M3018O5678L7244j7445m8625l3888P682
46477h159M0544M0990J0550k5267l5736j3267J8687L2528K5880J6265J4384J6506J9249K4928L0132K4270N622j2759
46459B25347k0006k0788k5415l5769m7521n7206n9837m9621l2258k5998l7581m5648k3549K6334P6210J06169J15909
46442F8772J05630O8164Q640m5003o4298m6771j4502O725M423j3765k5818j7861l235o214k4555k7617j021K7467
46424h39K4182l909k0948j0768R597K0474K0458J5829R917P583J3437K0564J5399j877j5324j4914n771P186K5774
46405A16050M2606L7498L898l3830m4237k1638J5645M8692O5144N3067Q357n1765r7442j10753r3892n7707j5924
46388a36231J1395O454k6877o1119o8304m1218O453N1133P0278N4971J8868j0757j4609Q199M6564Q3004R5132O8633
46370A61969J6080k9350m6628m3358l4422j9536N494K8679L2402J9027Q178Q611Q088n880k6956l6167k1643P914
46352C2502K5615Q965l1066n2390k8640J3502K4463l952l0314k3442j957J203j0022l328L3796P7139R4209P4837
46334B01120L6413R304J1719L0011L2036Q049j6010j8740j7512l8728o9623p3389m6721k4948k4487j7064K1636O8022
46316G1088Q0968N7206K9803K1649K5016K3570J2344o437k9954n1065n9264n2549m2812m3471n3021n4874l5516j572
46298a08891K5278L1199K1780Q257o688k0249j9804k69J7901J2453l086N063L5681M6617J6369k1936l0213j9306
46280i844k2393l7402l4342r122Q689K132j2102j4092m417R372K4562L1494J2448l2983p5793q4321n5608j3500J6118
46261c01104K3571J8270J7961K8267L3074J5231j5074k8059j2975P487Q727l390k755K1701N1033N6155K9552l653
46243e5981j0766J0063K6126J2645j4515k4476j6388j3354j8326q207K3581M8451L9290L995k9833m4885l8479j6587
46225a27646L865M017j3433k5233k0149j0550k717J7552N2182O9942M4358n501l7716l5855j0684K8188P0811R0141
46207I1572O3922J1800k1297k0849j4266k4872m2477m5609k8164K925L4341M5288K3519j0476j9686n21Q682j6908
46189C6924m9512m6062n742L3247M1650K0614j4716m6660n3837k6307J1976J8813j5799n1028m2104M874M2361M0275
46171a01033J5761J916P343J9429L1602M5650N2994L8196N301k0169k3975j9850k3323k8328k4803k0267k1930j3416
46153g8902K1954O3465P0145L5444m603k1443k2595k1962j2965R294K3622O984k9234n1375m6229l0222j8098m202
46135a10922J8174L4980K3952j3839m7767n0522l1390k4064m0658n4644l9574o944J5125K6845M9495P7340P4180
46118a00233K9056j7382k4000l068K608j9103l8287k6392J2570N3523P5033P0451M6828J6410j4018m2428o0597n6981
46100i6010l6181k0332k0370k0535m191K0053L3645L4709L1079K1589O947O198L4037O8041O7358K4799k3753m3113
46082H3970l0520m146J6433J6511l817k1970j6129J957K74k5404m3857l4782j3551J813J8790M6003O5860N7354L1082
46063A45871J7028K4919L5300K4235j5406o7586r6329o9721K245O5220P3457L6245l252k1214k4248k0843j1071j795
46045I3055m974j7592k4390k2845k4434k8558j8664P865K8463K7532K1673L4616N8377O0434K8785p524j0679K1016
46027B22156N0656M5739J4443r621j2554j2248k2503k7876j1807P711j743l7199n9159m3021o018K3228L6707L7272
46009A94163K1788o562k6299j9933K30O330j1333l9342o1674o8406n0704q030L8704N8477M0531L746k6169l9369
45991F148m0157l3494j9944n88J6965J9327j137l3145n1900m4000k1116k759O306J2120J4682J0464O155J2029K2034
45972a22010J8155j879j6878r058J3226K6815J9593l84j4369p998J6085L8732M4792M2463N0770O8267P0467M3737
45954B80526N397k0210l1785m3442n6153n2376j8293L6902Q2866Q7286M1391k7660p6849q4826o3308l2093N30K7309
45936E5212L4163J9271L739L715N464j0186l1222k9748p026O499l838k0550k7126k9559l5127l4352j8334M529K1494
45917i2982K8990K4058K758k0285j3228L2390P9970Q8903O2850L4200J4668q775l5927m5052k7191j644J1608J2800
45899A48111P564n708k0233j4436J7342M1775J9799l9930q3427p1816k2598J6525K0223J68k1669l5580l9908l2146
45881a15944j4910j513k440q601l6K6746M9849M4689R027l7224o9358p1145m0813O395M5273N8912N0707L6130K6057
45862h199K0355J2363l623k3547l0427r738K7471M9300L9658J8095J1371J7994J7664M655j0109k3044l8423m6536
45844B5280k9031P924L1474K4437P756O483J3377N401j8387l6524l4642j6697P629K9476L8074K7395N236j5448l0781
45825D8432m0831l7751j6483O501N778j7963l3053j4760K4440M9950M1147O540k8107m0863l0218j5898j7579l1926
45807a42644l9974l6591l5308l7905k0417L2081R1195J11080Q4571M8542L0478J5492k0797o7585q9233p0736l1343
45790a79094M372K8144L7608K5543p494m2237n6988m8714k6964M652M3718P0752N9676J4345k4653k3910N889L2787
45772h2568M9824P3247R9187R3522L8139l4667p3347o1577k5592K091O951j0958l9628n3939l6506o611o421m6700
45754a15553q5626p6824k2372L8864P9258R6178R1448O7313M0050K9262L0554K3478Q945J0303L0085L6579R619k7714
45736B63847m4288m3356m3925m0854j6616J8781L3288J5627j4473l6107m1934k7359N715L4751L5472J7553J3070
45719A29192K7210L2294J6399K207M460L722j7632m4443n6717n9627o0329m3813m166K5305J1220k8035m8252m3245
45701a54250m1930n1725n0631l4726k7058l1407k0475J5218M6473N2843N4081O8794P5327M7783O830m258J7561L3083
45683A533J9368k865o315N128Q686l686j8626k2227j6896j5615k3195k8278j9150m561p549l5015o4395o7506l9148
45664c40312L596L9160N1350L5578Q653P47K1198M0938K6263j7095n2853o0794n0478k9733J1047P1128J19148J21485
45646i74Q1167L2030l23j6997k9070l8949m3413m4929n0634o0507o1993m1933n807K0433J6798l205l755K8195O0763
45627a63103N3538R689k6369k4465k052Q667Q678K3507N2172N4726N193o2113q2619l4498L7482P3665N9066K4694
45609A5858L413j721q998l0386n6905o8702n6081k7963r6J8190K1289K642l1424m8659j5801N5150J05691R1817L4079
45590A393r245r539R635J1738j0552l4687l5880j1731J3585J0988k0732m9185m5107j7116M513J0227J6168K9999
45572a35528L7209K7167J1396O850J7965M1901P2348Q9904P1151K1613k0394l0003k6573l7998n4370m6606j7776j026
45554B7230q530j5454k73K6452M1591L4550N684l6079o4870n3103j0707J4001p967m7163n5976k9787j497J0972J9482
45535a51444L3156M3338M4776M3970L9682K0964n070r367J7994M3692L0712j1127l7700k7108m80J3023R788L689J855
45516A04343N22l884j0933k0345l1351l7991l1679j1309J1868K2472J4426m456j9764j9395K680M2330P9710Q6904
45498A74148N4155N714k3741k7837k8668l8252m1584k7327j2700j8002l2343k9630r643L935L966R828L1328M8469
45480D1816M0569J6750J826L777R968P989k543j5515k6138l4157m2435m9815m6962k7496j172J6560K6760M1386N4566
45461A5734M2853L337l1940l5850k0648j3278j5128j0796j986k601p832Q18K0145K4245M334j5466j1002J3203L5901
45442e957M2313K8415N3k3596k1710M151L0855M3745M9236N1811M0022Q270k5929m2689m3099l6817k2008L037K1954
45423A02057J7789J662M90J8122L0088J8565o589k5472k9926k1956n592J0666J3514k682k6203l6336k1369J0832
45405D7660L7417L9281K0852P424J5300K9474K1939j0617m0626m1947j6173J5603L5305L7663K7733J5836R932R289
45387B61345Q436N839K740k202p234k177J4954J9557j7706q4869j27716j08332m7163O858K9727K8733J4349p392
45369a2253k3941k4260j5477j0510m361J3116K6124O044m0579o8549m9546m352L2700N3146O0996M9455J9329j013
45351F069J2662M0603M2776J5205q302p256L785N161n823k5789m9332n8205l6830m990j594k4287k1385L5098J01948
45332A9514J18734Q1779L2340m116k8257l5239j8030M056K739j2669n712K6491M3200K1424j0976k0428j1877o086
45314A96887k568P948J6031O717j3514k7101l2472m0315n1712n7445n0097k3487K5362P6760Q8140L7453m3116r8402
45296A5069j05235p7516l3400J2825L7993K5209q057k6396k1170j1761n452R563K8503K5440k721k1377n862K3656
45278a40689L4265K2917P048l875n148J2791M4748N9683L7570L637l164J4639K0056j917k6792l0772j9736j1762
45260A3499j4296k5856m0542m4150k4917M593J5199j94j3887j615K2796K7386N694j7853k2107j2158n190m772K780
45241a35590K7312N5278N8345K6148j5324k8735q092J5809J5557l76m095J3229L3239L7973L1593K9637L5507L7275
45223B24690K6057O749j4274m1121p3955q9713o1779n214K3778o694n8421o9031l0034J2437K6559K5893K8804K7860
45205d7409J6559J2284K7465M2303L1751J206k7806m8344n9398m6555m366L5141L3153n36j7115N158L6460M2243
45187C2194K3792J532j5213k6155k7016j5090K094J3167J1155n637k9091l9307k3685K773J4627J1047J0638J3778
45169d4397J918k0578j9718J7130N5332N9653L9465K3546J4770j687k4775m1445m9371m9184k9754J0790M4661M6445
45151C2801L2004L1601L6344J1843l9235p1519o0129l1625j9668k1714j4991R032M0018N9913N1275J4209k0933k1274
45133A7952M343J5531r06j4465k773J5031J4232J880m349o600j1948j2569o383j2609l8045n1464k5469J5172K4124
45114g9315j053k1841j8376o771L85J1514K8173L3561J9211j997j6720k2393j4558J1033L8712M2690K4465J3229
45096C9949J9248J6629j0187l0646n624N5053R8878Q8462L4864k1176m4903k8663O678K9993K7638J2502K805l48q005
45077B83147k3687l7505l6368j5892J2387K4403M885l0359m5872k7209J960J1522m16j6055k6345l2229k7340l002
45059A6025K9061L9037J1966l2937o2742o3258m4802k1030Q228M7981Q5740R1485N2277J004j0329K7326O2911M3771
45041B81714k2607q1742r4817o7112k2898J8956M1484L0586m137k7524j6737Q385J0784j3535l0034j2290K3638M0455
45023F2569K3282r505l1865l3129j8358j40P782J870j666J7583N1321O0374K0776l9588p0094n6612k9737j7371j5877
45004g8385j3559j5275k7436l7296k6234O146M5101P8049R6056Q9332N7654J8819p845k2102l6017n3031o5182o4552
44986e5757m7093j3624K1332L2990J4340q528o581J4842K7537K0887Q311j640j5081l2685m3048m0720l1509j6282
44968a72309J0757M2780N8678M7901K1295p139l2165m7348m3568k5210r010J317K0148N0081O7515N2122J4087k1927
44950B8005m4200n1610m1339j7476J151R85q013j0680j2124k5034m0468l4953o344J6972Q176k6526n0789k9076L8972
44931c04371J09098J27537Q5516K9215O008J4793K3772K0822K1809L7100N5774O2613N0473J7211k9288o3218n9279
44914B05585k3351J0798J7301k750l4327o1334o8239n0811k7705k1591k7111j8303J0984L8490M9222N2738N6301
44897A05897M8160K1959o429k2934l4209m5417m1802j4852J2452J2386q137j9340j0183L900O433p272l3565n6866
44879h9819n3987k4067j077r951k4012r29M8099O7939L9697N694N72J479k5606o5114p4838m8685j8205r47J5800
44860b57957L9012N0559L5432P360q628p401m402j0031j4811l473K0649L3461J8632o882r628J6471L9983L4752J5613
44841a1289J4167L1433L8200J8967p255j3107Q060M2587O8794O4572K1036m1608q4894q7326n8765j7932K4949N5418
44823F6007N1197J4778q943J9517P3746Q2445J8452o1722q3725m0167J1447K2701P85j8108j7743j1182j2702j8219
44805H8564j7002j1469j3770k4379k7023j0955J2139K4066K4490K5613L0362L5065M7626P4686Q9572N0060l4280
44788C63365q8509n9873P457K8266j0209m3529l4704k1200l8099n3912k6724J8101K2674j2576l0958q021J7210R221
44770C7980j4350k1007j2351p233m697O501K0778K5885K5588K6908J9266m740j9563O951N9255Q1239M6437q104l1413
44751B33330j7484K502O008n515k4286m4529n5522m5881j7919J3551L6739M7950M4433K5206j274k2625l6241m5892
44733I2551m5840k5031R123K9316K0557q04j2062j3638j8053k3250j8695r522r116j1026L151K4743J8808k1758n2350
44714f2896l1514K1452N3415M7809L3984L2023K6219K085k3589k8599j8204j0402m160J3577L6368L7552M783l9220
44696I0683n6851l2088J3430L8110J8911k3030m1196j4073L1140N3221M4527K8644J8449M24l4980o9139p6399n7578
44678f7795l5487k1403l048L0047O3200P0595M8301K0877J2001J8124J8584M782j2269k0919k1867j9685j4639j0242
44660E9157j7122l7789n5128m9551k4693l852j509r801j3947r213J911J8867M0017N4243M5734J2679k1259k2704
44642c3960J6188O1149O6868K8218j2243j5779P224J7814K345j6071j5661p19J6027L2534M6861M5030J6166k8896
44624B33095o7273q6014q4241o2188k3596J3972K6774P612k5643m5814l7357n852K5186K9556J486l4464m5141k3402
44606b03304O411K0112K1006K7361M0385L9600J2686k2327l4851j7066Q285J4512m205l5223o1961o9093m5352L501
44588b99523M7960N7159L2189O378P655K9747M6235M3883L2557K6546K6021J7763j0242n3755q8115q3269l2180L4228
44570a58763O9183N3525J3262j2417j6357k4359m9941o6744m2822Q952M1817L7711K8897M2303N1736J6884m7044
44553e4177p8605m9026M838L5346L7646L1344K0351M4j6517j3587m875j7695m5714m9496j2895K8903L5279J4713R991
44534a24132L6691O0691M2432j2666n9675o2668k6124J9313M8537N4021L8563J0370j6659l0766l4515m0968n4167
44517a51722o0516m4708r689K3796L5890K5016R462J0368K8746M2089L0598K803j5897j7316j7820k9933m2686l7207
44499b18726r123L1224O8669Q6381P2453L3962m642k4759k6698j6458M344K7310L4475K1378Q497J3660K5210J9014
44481A46171q538m0258n9644n7050k8210J3529L6053K2186n522j6161j4649k6749m9823n2475k1623K2183N7473P8316
44463d791P6055M0648j0256l7549k9930j5839j2046L989M6452Q0050O3039R989k7238l0639l0648n1267p5462p4006
44445g9449m4234q344J2208J2397L826L691J6392K6371J7508m267k0138k6543l6913n3740n7377l2093R495L9999
44427b21211M8767M8869N5036O4663O3437M4108J4809j0159k3355k6026k0861q507Q594K3094K4430K763m2719r1869
44409d6137j06850o4737J0098O2591O3660L6329J7250J0369m014k9058m5645m2162k6009m602K1616M1920L4972l59
44391g0768l1432k6891M936K9298K9136J7973J2383J1569Q429L657q62j0831k9665m6720m8099l6564k7634k4072o901
44372b43058L9157R7256J26655J02696M3870n164j7239o126n601l0336o4066q3772q2967o6436l6287K797L3641M1015
44354a53965L3134K9577K9002J2739j4903j8459J9707O5478P1901L6569m103k5083k8398j6805J3664M9975O0556
44337A60586L1375j4600m5201n2011m6547l7378k2746J283L2914O0919O8540M9764K0872M500K369l508k2627m3773
44319A44731n2792m8437l7997l0004l1661l9543l4439k909L7712N6726N1564M6337M7541L3943J881j3412J3750N4201
44301A97192N6986J5632k5415k6638M754K9175J8202j7395l9556k6109J289N317j5577k7432j3459M176N613M511
44283A51266J7811L1702K3531k219k4740l7734m7195n3485n5712n8130n5694l5038p337r279m3721n3303M826Q4690
44265a69761J02829M8917p466j4173J2269L4455M0250K8630m081m2457n1263j8604K3578L6637J3052k8498o0490
44248e6176n4286r64O4863R0023O3060K4139O902J336j1870k2820j2472J0929K0518M978k2414m0214l5339j3379L320
44229B0134L20p345L583K5485K8061M540k1326l6842n3235o9021n9098j7545K2588L2068J8951K351j5036k8786k0956
44210a71109Q675L0012K5910J6792J6292j099n2470r9490r2533l8555J6650N1931P2949P2637M1764P367P802L2549
44192e3926L6378J3560O331L1399M9062K5009j9206m1634l3456j3151O187J9483J9718P694k117k130m274j7929l0535
44173c537k6652j3849j2027k4206l2998k3089L239L0884M6040M7542M5931M7187M0468J2491k7297n1122m6487l1063
44155a8545k6525k9952k2269J894K4445K4831N605p069P569L6257M2978J5068j5584j2706J3868K0740r577m7233
44137C795n7402l9779j4422J0954M0379O6702O9873M1268L76j9144k335K8311L3230K43l8616m4076j5316J5747K8206
44118A07994K8605K5074J0407j9544m9575o0352m8889k5691k533J0730J0501Q046J9771M0566M2884J4686j8025k4232
44100G0423j0262o271j8048k0035j1J5767j575l8364n0597j8553K9183N0976L7039R242j2365k5885l3538l1508k1333
44081g5715j6488k5288l6208l2018j1485J4320L9426O2058P2230N7916K3922r480k7935l1820k6007j5469j0128j7199
44063f5368k6157j7982O181K2517J7922Q563J2773K0378P836k2512l8500j8038K0425L7530J8823r461j3495P760
44045c0805K5109J8099k931j6352j5508p183K087O143k303j9011k4543q322J3755K1687J9601K2436K6957K1004J2045
44026F1965J7866L4189M0808L6273L4980L2459J0350k1228k6597r75J4877o144l9741n3702n5083o5689p8703p1980
44008a36075m5190j5207R874K8172L3696L2227M6227P7072Q5705M4956r535k1402P566K5026P701j3643j2371l479
43990A41320q288j8825j8203j0083p628j1481j5217j8179k0096j6163p952o818j7137k7541k7027j9250j3655j1747
43972a33970p860L691K3726M2672M3606K3844Q344K1989N0706N4158J9937k0159l5223l0701k6125k2095q775J0832
43954A8597K6540L7052M2197L1323r58l6505n0531m1402k6877j5861r23K3621N1619P2535P8059O4507L9177J8960
43936C31130J1032J617k2707n0790o1598n5892n1182m9262l5524j3020p401k5483l6208j4469J7067J8411p524j8136
43918f9939N120K8377J4110k6184m9510l7384r925J1310K8117M5441M8439J9958k6163m8988k2345L7195Q7688R8792
43900A34109O8721J6381l2289n5310m5408j4471J6658L3736L2765J3937j7528m4976m7922k3777N591J7187J1494N519
43882G4417O580N563m022j3227r864M533J6760J6665M241j4621l3471m6867n0757m3326k6996j1225r630k6743m6826
43863b08816m4295j0539L3637N6133M2475Q028j3431L030M6105O9900L9893j9327m2545n47O1806Q0532M6708K977
43845A51724j7686j8702j2832k444R053J3453J2737J5910J6688j886l4604n0835l3655Q1K6837L8973L1413l465m9233
43826I1527o2702k4703K6481L8923Q520k7465m1054l0454k404K9660L9833J5699j4632j3509J1567J8142n840k4206
43808C3383j0033J4110J3004j0597k6537k2387j4055j7708l0261l7980l2680j7127k10J0830J4055J0722M671M965
43790a13835J9482L9611M2663K0558m971r854J500J0907J8861L6411N3169M4922J3312j1841j3632l511Q199K5601
43772A77552M2038L4130k208l7178m6843m2356m0749l3060p128J9680K0327k795k5294l6104m0476l8516k7577j8729
43754a05286k4620l5257k9645o961J7094L8269O0154O7503L7873j4392l9082j0297L9232O0529M4359J6846k395j4565
43736I9359k4266l1051l6961m5306n0973m4486k6080m799J5683L8169N7819O0507M1025J2196j0909k5865l3410k5114
43718c4462K982L0568K8342m072l4463l8947k7287j6644j831K7227N5331N8297M1874L4190M0295L4966O507k2611
43700A80262l1449l0282l7581m9214m9766l7145j7622P594L2676M0476K6146J2410J8564K7501R287l2147o2453o0973
43682e3716l6043j459L4709N8629N5228K9196J128j9398l7694n2050n1142l4878j5274M731K9311M6050L3959K014
43664f699j0772J3153M5312N3202M0314K5512Q415j9170m6432n5194m6174l0481p611K3509M2851K7458j2860m3789
43646E44m9106m1393l1534j4648P715J6165j421k7797l3241q877K4400L7410K1302j901j95L0967N8142M7425O567
43627D0524k4995k4379o144M485P84o747m519J6094N0213P4795O7639L5270N908q658k3385m5671n6586m2922k4633
43608B7073k5664l4173k1134J0576K6859J1845j2125j9683j2723n831l579o246k0594m6759o4322m9889o888L5151
43590b18106N2253M8139M2230M1351K9984p715n8653q4702o4499k2671j815q957r480K3002P1575J00366R5438O6861
43572I4601K5197k3821o7584q7796p4642l2378K3825O9952Q3770O6698M5090L5353J9632k4108p9421j06582r5784
43555a27998p3931n5638k1269M1391J02459J21176R5401N7698L3018K1151J3733P006j765j4041k4569k6980k3386
43538A23456j8110n886J9864M8468N7375L9878J4680J622j990j2764l5743n7244o1538m6685k1973M158K8074M5306
43520A20948M9016L8242K2831J4241J3869J5933J7982K0246J7618L821j6494l1846m1231n3224o4136n4410j7923
43503E5483J9345K6109L641j8434j9492n627Q114J6772K2155K2183J2039p393k7222l7136l4293k5514j9330j7218
43485b5818j6356j7934k3644k5200j0645J5659L3837L6354L9454N4957O5656M7568P624k1714k2917r187J369Q830
43467A37893K0793L1913K6947K522k3027k7905j4562j0120l0540n2975m2325k505K4036J3567j0313j8978j9548k8476
43449b3603l1506o414L0508M0444J8663j904k177L913M148O070J2812J3527Q101J1560K3415K2416L814q217j66Q335
43429A33739p22j5245k0295k6212m3776n4885l7098K8L0655M9292O3885O6719M3823N518k2130l2513l8168l8906
43411F3709j9225K0265N5028O7267O3977N7362M5308K1358p967k6504k5931j5993j6572l4925n0213l3046J2891M4330
43393B21119K7828j7842m7009m3360k9355k7721l7494m4490l3078R020P2955J17067J00857L6188j9826l0826j7039
43376B36994j5653k9559l3349j4466J0937J7130p255m7601o8545m2509J5973N4834L7848j1947l6233p545M1305N6997
43358A57356K4561k2111m4240l9581l2661l4244k9669r062J2441J7660J3458J5278J8464P943j1769k1754k0488k4028
43340b2446l3808l1882j4183j627p200j6388j4480j0867j7814k3594r077K0067L8954L6512K5741K2458K6341K3796
43322i497M229k4394l5888j1532L2188N4778L6371k209k9523l6849l2478k1369o027O125J1527J5360J6190J731k5770
43303e7037l9124k1999K378L111j3582k0552j6574k1033k9543j5858J9163M0848L4051K5859L7175M6197K6033r066
43285i553k7155k9841m4907p4879q6010n3070Q193O0143P9524P0601N4894N0938N4336L8738j1001o8817q8556n8410
43267a34832j5423L183M723K0712N5922Q1306P4406M3508P407k6835n4036n8228l1141O114K3237K0694K6054M6582
43249I3353N1698J8358k7373l9328j1695J6398J5366k596j2657j3694j8439k4161j5913O040K2308K0165P431m963
43231H0298k0428m5062o6360n9481j8131L1737N7109N1312L3896K1502J2583L839P096L6112Q1313J11055J00921
43214D19311N5266o20m2841o1999o1329m7571k4741K481K1147J4694j8293n6069p3343o4630l9966n793L3791O1529
43196A11024N5444J8861j6920k9755l0286l6616m2500l0740p826k83j5614k8043j1563K7244N9882O9750O2799M9028
43178B03886K8434K65k4908l4947l5188m3509o1831o6655m0023R16K3159K1180J9191K9367L2019P726l0975n5660
43160b7553n6596m6390l9316m0087m3817l5480o27N1113Q6006Q3085N6288K5189j4237o3928r0454n7938J3484O2929
43142a38329O2941L9638J7979n832k5220q578M4947P7490M3443k0106m0159o644K4762K0876R542K0397L3528J3565
43124A64240l2687o1973m8203r835J4146L583k8340n3899o0134n5609m9700l8523j9943p948j4498k6721k2816m601
43106c53461P644Q020Q303J1307R218R340K8950N6345N1684N352l4759k1189K9637O1210M9046J8136k516r477q149
43087g5359K578J7555J8784k548k8230l0984o736K0983K9002J9544J2544J7064K0895J3344O234J7522M0926N2337
43069A45455M5110L4991K5978j23m5921p7156o3186k0063J2020J9936J9815J9970J1514q216k9049m2723m2894j8271
43051a2813K7711N8422L9631p197k3423R088M4673L9485M834k3000l2795l2721k2104l8J5895J0542j74R566L2301
43032A37883L3472R9m1343n9639n1929l5806k3242j1448O471K8517M3267M4261M1525M8536N8054M7642J5411q415R31
43013B74247K9254M3204K9230m994n2243j03327j32515j15321o2809j5338J944m5P67J0276K0027K1286J2925M839
42995c8593J1052K8261K9570j599l9723m5645k2737j1801k6024k8150R971N7519O2871K1538k4066m2012l9134l4519
42977a33221l0349j5515J6060N5868Q2747P6897M1368O010j819J1306J4545o142k9169k4137J0769M4364M3331N546
42959A68459l6355m5567j7401J6231K0239q239l9677m3936j8215J5389L6486M7043O1764P9242P4965L3262k3430
42942C20260n5525n3794m5872n3913o8276p0596n9753m1077j1500K4823M3952L0175N866Q052L9978O8485O6448L7058
42924A84791r43k9733l5437j8175j121p424k5469k1198R813K9627J0251k5688l6035j3426J3035J8926N625j3543
42906D3876k6876k4168j760K6018L2553N318l6363n5406l1378J8237N2841M7771J6291j0779k0422k1310j9317r904
42888a4778K711J584j6210k7539j3595J2092K2812J3362k639j8073l2774l7253k1932m02K038j4502k2833r400P655
42869a69676J0976J0784K1839L2190J8181j7310m3071l6330o331K1026L1266L0491L2902M3232N1532M6364L1023
42852A09088J9646J7104J3838M661p53M182P171n597k5088l0552k0504j2793j3766q290J3770M0332N7085O8387Q3208
42833C21129R1876P4820L0279k2162o3962q9490r6134p9348m4942j5249j1636l2374n3378n0927k2990R551K1913Q631
42815b4393j1758j7003l351J6975L5297N1700O1282N0671J6569k2853m5262m5984l4355j7671j166M333p996k6059
42797b1024k9910j7143j233J4308L8187O3419O2605K6248j5261k8635k0270j7761k3214j7126k556p008l2452m0317
42779f9143o820L5881M2407J7327J446O113J91l3972o7743o5581l1310N268K9146M4026M8227L4293J0839p59J832
42760A668o383m2059q3200r0310n2967j719K7779L3016M1111O9584R7526Q4271J9629n4200q3355o0538k5744r839
42742a35730k365J3743K3857O972j8040j0893K6241M2646R022m0848n8740m1900j6962Q348L7886M8993J1653n1709
42724a47826p2066j8055N9790R1330O6005K4975j271j4137j9226j3475j076M806R61m995j4413l6372o1286n8268
42706b14599j2573M8481Q1042O8887L2774L635l441O291J7457J8297R035j562o166k636Q000J9200J7827k350k6438
42687F1161l1873j8170p313j0127j1465N46R931m276l4609n5317n6570m7208l0556j674L2812N6049O5020P1993P7663
42668F6017O4819K7379j3764l5480l7773l4193l1206k7127j7804N079M4219P5361N8250j1632q1583r6826o2945k6287
42650a35496n812J9299N7592Q1423O8044L4192J1457P839J0156P549l020j9617k8305p857M0756Q1209P7232L4694
42632C31335q009k5712k6648l0879m4479n5977m9317k1999N652Q911p404j0095J3564K8139l297n9879q4932o1859
42614a02885l0149k1370j9027Q04K4504K5733J1678J1261K8091L5894J8928p846k1131j3006R771L3675M2686K8984
42596E6595L635j3934j9063k3842l5084m3207l7597k2030p481L173J5694L2323M4507L9709J6597p700j2568K59N268
42577d746j3220l5364k9293N181L5411L7708J9468l475k6613m1380k4457L1774R0232R9574N4403J927j6304q010n729
42558A67087j8893k9720k6396j7401j1675m087J0202K0354J2115j0951l1959m3982n4181o2687n3955k0806J4451
42541a62484K0865r12j6359m99L0167L9654J7329j3028k6207k2592j7363j5009p207P046J2660l723l3536n1934m3160
42522b86292j5685P453R929m395j4356K80L6839O7146O4808L4857P066R7N497R649J4007K2853K6876J6087j024r112
42502g420r182j1371j1693Q21J6653J2149j2332k6370j1978J0433J2643l905j7674j8427j1179j149P096M765r256
42483h7376j8842r376J0751K3302K7372L5567M9395N8166N8553N5066M3271J4603k0526l6045k3041k321J652j4888
42465A65283l9197n3738m1113K051M8842N9731K7312j3710l0950k9452l0136l5521l7298l9614m8512m9767k5508
42448a71297J1312K6135Q197j6143j8867J316K9965N4983O5432N1746J9910p286j4597j0460j0230j3875j0671K495
42430a935J8357K9392L2116K5648J2032o373l1571o2424q0530o0914p375L8584M0690Q073k4024l9640m3961l1775
42412a85630R761O3429Q2925M9625L274n354K5588N8019O6973N8054M1439J8723k970j0210m549m889k0100l6606
42394B07502m2211m3856m7817l9088k279M4773O1618L1673j8830n2814n8425m6547k7101k335K2141L4850L0242J5538
42376F7034L323K707J7958M6673P3898P6494M4639k996l6640m9041o0118q3621j02678r1092n0471r329J3274K5688
42358a14298M0714N0807L8689M488l0526m5795l8828k1880q715n160p525q256m200J270M047L505M86l121r27J4424
42338a30801L9360N7419N5536L7596J7217L511j333m78o671l5192p7170r1891n0416J6308M1770M241m3019l8019
42320b02032J4842N9413O3137M6941L9851L4015K135n5232j00833j00298n8442j0599J6101K4516L1022L8200L4341
42303a22922J6718R97J464J2135J6494R173k002j0046j2716m628K1362O1539R8514J13690R7844N3179l462m0986
42285C06347l5651k53K2184N250l1272n1264n0493n5395p8765j00101r5754o8926l8286j1569J4071L4861M1198L3360
42267a60458K1544R900n781k2410k6260j2150O219J5138K0702L6681N8236O3618M3650J5627J497K378M034O54K69
42248G3088O952J0470Q73j4100j7013n078L753p051l2538n5056o5901o7007n4997k0319L1325P0029O7219K6131k2540
42229g1760n1574n4346l5852k390L5175N8927N4234K2216j9131m4149l4647L139L5879L0252j0128m4167l7947k263
42211a68532K3982K0638K967n351M31J0489J8934K7134L3986L3790K5306J6104J3602J4101N714j5654l6787l9634
42193a8780k4500j4204k9106o0929p8532o0133j4520L0027N2236N2114M4976M4907N0593M5767J8628j7809l3114
42176a2379j3646J7842K6702N725k2109l7288m2791m5179l5907o948K6209L7262K2319L042l711j251N123K0329M1464
42157a5192M6176J9244j9368l4662k0534k310L309O744J8046K5140J5170N05K944K0332K8052J1320j9868m6677n6815
42138a8444m3622o739L9693P1945P8295O7763N1815K7768r291m6201n8486l8397m991J7708K4561K5580K4828J3983
42120B17768j1156l7030m5090l6983l6006n7182q4164q7751o4641m2961m4719n6237m7088j0121L1053N1190M6320
42103c14798K7398N816q534o653J0786K8500L0144J6494L874M277J2297J4370R129J4326M7187R4738J12891P0015
42085A72257r141o0951n1839j3282L765q594j9629j3658q673k1822m5553o6146q0968q4960o2807j2839L7519N9127
42067b88194N3428M2237L7268L6853M1757N4170O7306P2982P2406O3766L1824k6565p6710p6481l1027J2077K4219
42050A11316K2038K6433K8785J4702o149j6759k0529k9478l7575k7599K032L3736M8868L8818P821k4282l4122k2397
42032A15659j6686l3364n3003n1834l9502l8159l7810q646M3533P1099M5638k793k4287p233J9374K7237J3885n463
42014A7645j4195m370J7132L1805K6520P650o978q569l326K064J2241L3055N3115M8051J0815l1083m3199k6163j2350
41995A09860j8540k4398j0101P240j606l0874m6610l6394k3097k5040k9497j8035K674J2595R446J1529L2224O2129
41977a6495P7589O3922L0533J759r362j3032k3293l5671l6043k4374j3479q282l558Q08R34K864J4362K4661J6909R99
41957E1751M911K8873M1216L0869K7320M6559N3064J1583m8352o2849j9005L0005L4993K265k9418l4557j5191Q731
41939A62768J4830j249j8909j9928j6822l1783n3009m4464l423K6645J5850j0438j2554P007J8557J8462L0172N5941
41921A37653O4267L6062l945k0342j4886j9675m8471p6334p4157m8876l4773m7904o4471n2018j1881K4124L7117
41904b18510M3521O5258R1145Q5926L6078k9829p2332q0222o9149n1824k7114J951J8487J1362o425j3022o311k489
41886b23499p843r128K755J5025J0235q408k1180j6204J201K0309L5611M5871N0402M7606L4675J2448o625l946K2586
41867A891M7955M4254J3393j5351j9646n782M154k526j8446k5045j2835L889m45k7701m3946j8011L4489O5553N1550
41848G7394J4971j1862k1908k4934k6174k7198l1782l6972l1869j7809j4055k7136l0399K534N4140Q0180O8468N3174
41830D8763O4322Q7809Q9605O1549K4464m269k5918m4832n6674n9291o2061p1808p5558n2835p494K7158K5192L02
41812c1576j2793l053R203R135R694K6703M9575N4256L5619J0140p636j5135j2905l647L98j3487l8512n1645m0618
41793b6284j5107J0924L1838M0515K5406q790l2434k1710R173K4682J3509j636j281L596p514l0144l8286j9976N283
41774c8236J0621m804j6201o269J1712J1154j1892l1216k2254P984L0958L0431J4874j726j7110l3128m2227l3280
41756a40609q248J5712K1694O978j6286l0012k3461m113P462R75q380J950L0661N3055N4160M4755L7434K4886j459
41737F7154k4822j8753J3997M1165M1859K6255Q927j3410m2155n5370l2050R758K5529q13l4445l1739Q428M6943
41719C6458N0620K4151k431p581N187J9190K4311K0609P456j9557n5513p8717o8569l0725N982K0802K0659K3430
41701d238L0225K5509K757k2331l0258k1645j2906j0712l508J6779L6713L7207K0718O827K242n945k2029k6634m019
41682A4752L0152M6843M0150K5919J0506j4716m6948o5427o0317m7135l9246k4655J0788M9806N6693K1623k7566
41665a8778n9623o8524o2457m1762l679L7671N4411L5131K877p324J2721L6956L7168J2457j7159l4296l1785r278
41647a25273K0265K8750J019l5946l6709M383M3830M7998L4122L3780M2025L3339J0854K890J5679K4405J4277o89
41629A58999o901r849j2226j352K3484L3848N777m2716o9932n9699l4246k2117k9258m0854l9167j8458J0435L1222
41611a23010M1321N4144P6776R3638Q1764L7923j7156n7762p1578o5336n7586n9400n9356l7833P81K6073K0103N82
41593a15912p479o000j1252k2499k6272k1309j5006l285K0683M3991M7668L8613L8457M3145K8466j050q440J6240
41575C8759L1929Q388k0848m677M5998O7167K7213l3344n6535l4170m988q35j3808j5000O049K7846K3230p136l5695
41556D9543m0724k6836j1015j453L312O285J1596K2115K9603J8503j1088l5477l2868o216K8426O1216Q2398P4110
41538B21430L1329j8008l7947k7350j8330l3441o2019p7840o3937k2155K5210M5513K5250j1357k8653k0798r751r157
41520i2011j4422k5270m8750p4855p6354m3122M285M2545O5309O9548M9621J7143P03R240J8554J0622J542R199J7760
41501e8713L513k1803k5455j973K2045K5631J0681j1322k3880m706M8443R4114Q2823K0874l1620l3750o119Q546l580
41482I3749l0782o0588p8071o2778j5340K7333L0497N827p779J483J2562J6166L0073O0231P7345N3579L988l1965
41464A25530l9844l8215m1807m1341k5396k158J2634J6862J8207J7534R641l767j5003k2710l1146l7991l6145k8871
41446a63986k8687l6459l5921j6846R565K8827M3407O0205O9087N3821K0128o905j3620q385n70J1233K3988K3118
41428C2000L896j3928q970J1441J8786k77k6473k8735K689M4316N9910L7103L404m092J3555J5644k2441o9750p6185
41409h107l7123M740J8928J8345K3156K3422P4l5122m8330k7907L090J9414J8963J1261l75j3803j7763j575K8343
41390b0369N2728O0246N6474N0868M1273J6875k3498o0712p0078n0280l1028m2087p6264r5146p4350l0339N385K6336
41372b63966N0359Q4551J08399R6380M7078j4999n9877p1220n2859k3777m653l718j2761j5672j072K9100N9197P0226
41354B0716N5776K7055m24k1066l4945l5807j6003J6069L5699K5629n592l3315m0534k9254j3415m904m590m726O6
41335f3565O707J0779J4269J9502K0178Q952p962j5264q326J992M995n3j0239k2144k6252j2248J4071L1252K6878
41316f478J2703R414K4021M4851M9678K0164l5859p6448o2387q541K5806R617k2663k4416J50J5306J3937J8753L2044
41297C9652K5718j2024n2688o2338l7617K740M0610O0600M8796O847m0857o6161n9879l1967K947L5115O0531P6463
41279C6488P5728N0881R641k3721l4631l6505m6788n5452m1747j5849j2532l8952n8151l6795J2763N0084M8120R402
41261a08016l7709n0036k848P1436J01210N4034k1071n1694k5531J0138J9201J4254K3136M6847O3493N9542M3634
41244B10020L1024K1847K030l1239n4985m5688j2705J4867L1008N2095P0001M6114k6900r3956j01654o6326m0865
41227D688l7478k8708q850m11j339J9603O2640Q1094M8292Q64j2602N056J7182R200n656j9211l3538m1488l2121
41208B7217j4024q934k1337l4728l9047m1953m8252m6219k4645O908K5519J9428j013j6146j6707q629L35J2547L2944
41189a96736N4089O1056N2183M1480L5326K1882n426k8479k6810j1178j2867l9308o1154n0384j4306J9184L6258
41172a25190M1751L8142K0283p393k5956k3851j3092j2479k1358k2434o701J8903M7667P8384R8311Q1170K0289m8236
41154A38210p8191o6364n1584n8849o7533m6073J170M0723N3850N2867N4585N6343M6506K6807J1758Q439Q012O45
41136A31321r478j1798o805l697p52J6789N0980P6382O6030K5800j2440k8864l1614l6141m5678n4839n6662m1189
41118B7345k191M7467Q0130Q0800N8848K6443j9061p8881j31941j48216j20715p3096l6790k5923k9820k4248M944
41101c64905M5627P3458Q2228Q5325Q4023N7889K347m5828m7427j3389J0014L198r660p284l416j8542m2913m7913
41083a57168k3361J3018L8820M7757M8335M8757M4753K4587r549l1221j4961K7627N3020L3667j2564m8527n9423
41066B3567n5352m3788j9248J8915N3582O2856M2313J0412q435o280L304M222r11M661K5932M4020L5180k972m7935
41047A44043p0907n8260k2509N375L751j5483k0654l364O854j6179n2665n7445j9662K1614K7392M768r413L007K6025
41028a03712L5871K5321J185k6023m1904k9714J3413O3869Q7840P4059M2175J5383m538k6417m4616m2043j6992J0243
41010C3400K2858K5186K6528K1269m72l0498m6986l9507j7135O313K2250K4619J3947O554K1936N2912O4766L7597
40992B45537l736j9901q059J10j0993j9174l486J8300J2721k0928m9735n2904m4941m6701n3506m6142k0611R530
40974a14619L3982N2733O4550O3726N0137L0205N638k6466n8578p1089n4045k1168O245K1031K6774K2161L585j9204
40956A5598k5051l716L0938N2664M3371L916m7164q4642r4302q2548o3668l9477k228M1247O4245N0945K2329J4088
40938a03455L0248L6737P612l7380n5282l1921N292K4933K3595J4726M263o478n429J9884N7012P4101N7363K7619
40920A43440J1842J2166J2883N278o525j3838n671K5354O4575P5559L9508j4371m1329l7035l2982m0116l5007j1495
40902A52236n312l9366p5339n9046J593M5970M4963L2963M4336N6785K6789m0065q7948p7535k9058O666L571k1477
40884a9274l4920k0599Q723K5469J1954k3987n4763n5350k2633K4367O0536P0041N0060Q008l9401o9148o4795l0973
40866a76685R488L6025M4336L9131K2140n086l2711m8393n0842m7987m1327k2880Q375L7495M9855N0498N6423P0085
40848b060P1236M1212r797m8105n0243k5305J4J2694K0650L1106L5784K5699J0304P346J5842J3838j2326m7248o2325
40829B8316m5838j0380K4121M5462M9748L8541K0978J2303K1227L7368L7839J1698k4586m2085k9757l970J2645J3834
40811A97464P999L204J524J153n385k8943o7838r8479r5729o1688k1104R923L3920N0263M5833J8520p999j0121M789
40792b2694R108r118l4489m4241k8189P076M2180N6586M7034L1291K4943K1780Q898q636j6783j9206l1121m7571
40774a3152m4667j9178n32q414k0368k714M0721P3317P0673L9379l275m4270o8434o0833k5781J1616L2971M4224
40756A283N6776O3459M8596J6268q472j0215l455j4579m8240p9333p9327m6591p492J2005J2351J4973L2513N1459
40738A1979M9117K3248m477j5269j2765q865j6K6711O5508Q8574P9819N6974M5221L9874J7077k1374l9855j5757
40720C85724K5117L6892O805l6054n8343n2514l2483j5844j2419j8469k0186j1697p637k5487n6854p2756o0487l8402
40702f5094k7552k5782k0906j3882j2885j5409j3742j1110j5011j9261j0191J1876L4241N1926O6881O9314M5321Q894
40684C7628j19L4049P4681P3560K7669k3211m5013l6821j8719j2438k8591n3512n3636j4206L0817L2966o568l5782
40666a7246k1495J0154J8230L343o183l611o670j9419k2838n906J8092L1660L1229K1359Q182K632J2637K6643K2252
40647A03045j734k0185j8901j8071m1329p5112q0472m1131J7592N6414N5084K0851k0043l7942k0586J6948M9666
40630e5906O8306P8657Q0661O5434L4420M266j3519k3665l1993l4281k8628k3617k3195j8479q348j1658l8183o0719
40612d0447m3953L562L5160K6552L295j90J6560L0903K7816K935m4354r8485j23079r3604k8189L3770P5398J03405
40594a12945J14677R2159L7629j6415l7422k0971J3827M0028L3551r035n7091p1331n0146k9100k6907k0430R087
40577a10835L3442J2512m3323p9148o0654o330M5087P3755Q0685P2949N7543L7693Q638l3571p6083r2791o8589j4020
40559a63040M4738Q4279R5556Q7255P6813P0309N4803J9248k4351n3915o4975o8961o8897n6468l2462j1240l461
40542a4769j0054l0057n4246n5567j4558M3023O4477L4879n879k1805k2766k7420j8624K8485R3938J26610J04321
40525B19988N1438K264k5727k7570r740N282j012j6265j3650L631J181l5670p4882p6115l8954J887J8305J2782P193
40506D366J7101L4552L4342K792m0584n9726m0609l007K5283L2574K1223j566k3767l2489k6897j9900k1989l0186
40488a28487l4398k5520K517M5415Q1107Q4448N4203J3304j9697m3340n5277m4228j1302K0245L2385L4670M3655
40471D9700N4103M9115K8100N373j1945k6547l6853l7343k9254j6377M269L2631N4063N5886M8847N0266N0249K0704
40453C44987l9747r5519j16485j08295r0504o6746l2338N790L5236N3405O1126N1761K3397p215k1951k7003m1240
40436g1341o1559o2126l2133O701K9742L8457M5971M9145L5758J2241J534J1943K7618L4571L6179L3593J3399k4669
40418A25024m5446j5243M3664O9215L6889j0966k7921k3566l2502m8589l2501K0927O4924O0807K4043n309j2586q931
40400A81933j265J3113L0457M0800M2424M0711L4710J9228m30r698l408O360L434j8202n2418q4160r4398p2635k9829
40381D6727P107J8427O438j3278k8761l5756l1488j4271R698K6963L0304K7843L1060L4933K1307j2741m1343l7170
40363D5999o294J9066K0105P178m454j4796k7284l4919l1683k4869k1915j5715J699K0340K4933K0808K8137N1042
40345E7378O9283O3338L4815n51k8872m4501m9753n1399n2676n0496m4508m0938l8965k4441P730L5350L4620J7712
40327a06874J9146M5018O2874M7913J3497j4532k9539l5301k7173k378K4276L4287K8203K1291K3581L4225M6544
40310A85058M9118L2096K159j9165k0848j4338j3092j6590k4047m2726o6178o5716k7858J5983K4524K37j9465j5747
40292c6595l341L081O057P108k0j2183j6818j3766j3949j2574R554M9047P0770N1601J3343n266M979K1327K1762M300
40272A48417j9769l8466m6656m7468m4483l3589j1414R809J1367m247j1014O320K8956K6400n972m1535n0438k7318
40254a51100O008K3728K3601K5598L7961L9109J1051k2968k4222L335J6543j007j4963K522K7915K4579k401k0372
40236D917j8350j0494l078J1186L1043M3855M2466K7340o74l1779m1960j8515J7204L4973L5915M2607N4773M4024
40218B65453m081o6695j08188j09955p3639j5534L5236N0871K8773o001k5958k2367m067J2531J2456n889k5355k6063
40200h8472p575J2625K0615J7203J1121J0909K0579L4143L8222K7859J3173K487j0506l1709n1005n6074m9978l9763
40182a26146k2010J701J1831j636j4308m66K2432J8240q453j9239n109L464m447L23L0296M8672K3576j8165k5464
40163h4908J0180N2839P0953N9441K5487j8643n2808o1915n1482l6956k3164p536M269K636q881j3701P15L1979O4694
40144c6801P9010O4831L2793M561r741j5372j6185j0147k413k729n694M300K1582J7830j5413m7400m8302k6745q813
40125b0848j571Q9r007l1765m7620l2907M199L3292M1210M1033M6845N8268O4801N0679O153m9190p0430l9287K312
40106D6256J611l2227m1562m105L6937L6485N392j5123j0267J713L797l076j1439j6289j3766m748m24j2603l5191
40087f8629m4890k7916o32P395q818k2194j1001J0863J7054R845J1987K2578J4483j6920l6113j7213J6154K5088Q683
40068a10196k490R936L9531P1207Q5377O1575O055l7724l6958j6806k6702o7824r2099p2572l5882j6047j0395K251
40050b49763K4278L8793L3691J4733J300J0350L6046N0866L9475K0773J7030J5353r777m5092m8780j3863J7541J3759
40032c3287p647j6468j4537k2369m2429n6086m5581q776L5698N5604L6898R514J5994N2148P0570M9243J8494N357
40014A02340o889l6283n7577l9616j128J4138K437k432J0666J5290m068k6284k8346j6914r482m669J0991L8068O1345
39995B1587O7086N2325J9467k7806p9578j17136j24169j02511p0676m3670k1358n96J4038K2993M0911P2682R0765
39978a85646O4162O938l2019l0763j5824j4941k0177j2857L799J7165K7052L4268K7412K285k2315k7880k0079j2422
39960b11842m185P297J2040O496Q151K7906M6576M4139L3016L2811L0945N134k7786k7140J0457M4568M8851L8537
39942A25971L1380J6846j6949n1721n8121l4217o726J750m403k825J8779M3631L9869o24m4532n0666j8014J2692N958
39923H078l0094n4267l5978J2161M5450L5280K065j2833k572L189p332q140J4279K9100J0529j3543m284J9806O790
39904A7684m6399q5251p3176l1927J236J7914K7366L2686L3099K8736J5611m883j2047J3374N5000P5278O3875M1798
39886A69974J9118j4548n3809p1570o0551m4689l7015k2381L565J5634n64k2597k6169j5292R98K8055N9107O4081
39868h653L2693k382j3443j6314k9579l0821L687M4437M4209J0577p292N408J6625Q712K787J3756K3960J6647K221
39849A17235m523o327q142l031J1494K1063J2159j0253l1853m4300m5824l8112k6857j5122L401L1064M8751L1858
39831D2681j3344n0151n5421m3632l6681k9618n818K4865K7343j4083o6591p6919k7776M2887Q4046Q4813P3438O9518
39813B9557O0292L0685p398l3585m8053n9199n6460k3342K8411O5102P0711N6066K9191j5533p1568j07983r7252
39796a50358m2945K6920Q2366J04387R0826N6161J6902k2430n9606p9905p0744m4640k2685m43L8041P3573O0663m179
39778E1904o3133o9707m5900l6376l7376j3845L1393N3866L2606r22q152J1744L3385L8872K8175J1975M277J1126
39760C3912K0844J5469n461k3599k5654j6225n109M621J1887J2766M882j0977l2425m8678l9092J447L9241L2557q034
39741c7628k1690K2023P3484O4489J24m8542l7647K332J8982K378k0655l0582k8821k1023r917m03M399Q517J2501
39722d7679M516k2888n3355o1521m3486j4752J7879N8340R4093R5507N5199N166k2208l0766l9266m3307k6345L411
39704g1462J8388J0337m921j9110l5893m2190j3244M0179O7003M3082J0869J8146M3795L0382k2544n0485j5918L9786
39686D6200N7879L8020K1732K5982K9757J5965o890k4551l2234k6972o793J7045K5537J5752K841p215k7484o1427
39668A03144q2652o3160j2778K9761M2281L7351L4214L1981J9388l193k4794l9509m8189m8125l4584j4290n350j6537
39650i5041l3301l2253p455K3571L9126L3760J9325R509M507r015l9470p0497o8108j8329M6491P4691N2187J7454
39632e2848J1549K8891L4278J7251L883J3012K5992J4341j7450l5286j7867J9001M2409L6933J4627l976j1548j4491
39614A08701j6925j3988m719q88j1031k1966j2305J7614M6976O5746Q2198R3359P5096J9482m0600o9864p7489r5300
39596A44097j18990j08002m8502J6761L7266J2356j6358j6185Q281K9931K9634J3511L467Q307R418j3501m7695n7410
39578a13614k9244J2765M0189M5908L1657k440m1557n4899l1776L33J4373J9940L5708M6555K4531j7633l4316j0491
39560f4011J8879K2726J4536K1671M0099M3552K3760r02j1434o401L255M934r110l5808o0492o7556n3063k5767J271
39541a39861J8120K1323J4025K282r229j7026j7541j0690j943M950J3591K5625L0741J8753m95n330P060J4605J900
39522b9140j8115k5819k4777l2866n0447n5970l5071k51K3693K5859J6172J1125J7178K7372L2800L5611M5259N9489
39504B2102N8184K7907j1359k1596N139L0013J4036k8670m6114j6936J9827J4909k9916o9413p1466m3101n825K8379
39486a23900N2151N7957M9775M3220M4026M1247L0027K2537K4482K0493l14k2761k9983l1900m4471n5589m1644q234
39468B7119J7125K6903L5329M2063L1290J0301J0029L4804M6361J6315l3952o4773o4604m6482k2704m072k652j3661
39450D4739j3489M872J5477j073k5731l3818l5144m9130o1608m5617j1083P820P768J7550M6327P1119P8144P6453
39432I3576O4888K8322j9688l2611O056M8651M0886j0461n4645o1752m1869j4928P868J8505J4435O481O363Q220j541
39413A06756j9115k5006j1716L835r88l0569o6333q2494o9259m1964k0674k447L0529P2920Q9799O1762J4829j4898
39395e033k6732l8570m1798j1370M2426P1791N1837J2029q197q871j3351k2861j5063J7156M8553M8123J1727l5626
39377G6170o4453o5498n2377m2113l7309l0580j9313m932J7721N3373Q7322R2122O1764K4061Q298J3191J8708J7009
39359A53164J5442J6266R845j3147n2093r4159j14479r0718l2565J4368J5732o482j044M1690P5273O2085K3264L084
39341B5526N590k796l5701o4007n7637k6150k119K267L978J8664L7902M1038J9434j7084n0814o6163n4820k1235
39323b44127J7389M4402N6845N8390M3705N713l9923n8434l6936n283K952k453J4666N8522Q9394P5737L3027j270
39305A12316j1265o042L744J3076J5036M300j3376k6127k8224k1177r502k111p076j4945k98M3372Q0394O6546L920
39286B02561n7398p3754m7211r694J3058J5992R743J0232K2880L2403J9935p321k0249p886O719M217K607K9009O9421
39267B15264P7260L4399k3089n0669m4604k8989j2862J2188L7608L3005j1796o0973o8907l3111O956J9152P867o217
39249A02482j5728k6950m3065n7218n6866l1536J4482N4099N5250J5232l2951n5990n0737l1968n653L0131O8694
39232f8292R5970J02415Q2867L6703j7850m5421l1545o547Tk2777k0359K690J4254L878l870J42r147l9643n3936
39213A2985k3159K4385M4467M0197M3505N2887L6993n046l2713k1641M391J2086L02j2424j9201k5416l2825l8975
39195F0798m3575m3805l1260l927K4478L6067K6835Q725k527M94J0964J2226m761k6301k7446l314J9798J2059k7020
39176a492p0722r4744r4166p2937l1258K6074P5306Q4393M6449n613k9224j4595J2615K7536K9956L0451L0410K5671
39158b5890J6939M928j4666l9178n1304l6987m528K6119M5306N1950M0218P197l1311n2818n4523m9434l8742j0912
39140b17636K9129N4536N0642L4910K9904L3030K8676J6856J0035Q103l040k6085m1325k8766O242L6051L7199J1494
39122F9955j5783j5787K0966P2696R6325O0794j8523q3444q5070l3395J7262L2411K9059L7727N5845N7725L5887Q808
39104C43458o471q910m290o37j0238l6731o0872n7767k9191j717P077L135k070l767K669J9146L2642K6069M636r560
39084B06611j1627j8124l2980l7799k6028j7243k1914k0794n75J6977R044o870K688L5762N9684N7467L8212P842
39066B40333l6252p9494r1405o3679k5057p756j5031k8454l0947j5700J2086L3580K9410K533k2797l0715k9618l1268
39048a90231k9455j3554P734J4830O426K033J1661J8864M891k0543k8511q969J6567K5745K3846K9438M2690M6079
39030d0459L3122J7718J2169J2023Q031n49j0752k1353k7006j9209j078R162k693l1523n9636o8861m6704K105M7727
39011a87766O0097M7342M5412O1818O1269K4685j1827q092J8378K2084J913k444K0793L7039K0038j4891m0930m8225
38993A06693l3665K197L4774K6035k5427p2729p7785n3983l3031j8039L548K3615K2859L923j3501k1172k0397l359
38975a49444L2537N8544L8708j5938n0344l3969K326J4557M743O093K6832M1624L5510K4515K3669K0956J118k2729
38957E9308k4914o339O660J982k843R471L1036M3325L9626K2428m836l0199l3686j2777N329m569l2195m8414m4444
38938b6051l3256k1413m837J1452J4193L229p611r954m164J0807L0794L8281K5428J5322L0149M8501L3429l626j5472
38919A35201J596l306n0268q7305o7143j8580O27j4471k7409k5669k5539k8764k1798r767r067j1656M042L0230L6046
38900a93000J6636J0K068P820K170j0269k1379k9101k6143l005L4217O9157R5810J12200J02798N8262N998j6027
38882B08222j3660k5337n6549p0964n3407l2419k4770q817K1354K6750j1416m1248p103O1731Q5262M1113j4951l1851
38864E1940j4604J1471L7742N5741M4338K48m3927n6531m4496l3527k6907r032J8007K8288P220k5632l9416k7823
38846f6900j0807m884m507M027K1050L4647L6496K5332r12m1736q2618j01802r2429o5171k7137K3311P4396R6569
38828a83075P8141M8413M2884N5901N1497J5318k9235n5742o0436m8254j7989K4627N6394N7425L6047J9162K0111
38811A11189K6742K0960P50k0362k9795k6483j7093q464o557j6570l5843m9120m1051j4532J3022L2357M8222N8982
38793D6354M8219R669l2557m5846k5071O798K7180K8623J2661j2318k9352k6459j2522n951q985p803M222J9720L2168
38774B8750L9893L6064J4573j2145k1255r250N786J4298K4376L4867K6279p297m0538m8555l6450j9902K267L3148
38756F4909N4531M7428K4027J1060J0360N087k350P682L2409M3057K7497N585p529k2281m3781n0664k9087m718j1907
38737A61315m5138o9135o8180n6726m5214k5501M217K5205K0892j721k3411l4193l5752l2513k7979k3051j3543L850
38719b86578K2156L0557L0587L2810L6997L4010L0668M7142P6276P2622R264p3307j09006q6886n3118l6049j4213
38702b36068K7962N6334L1817k7123o2991m8883q735K4686M1205M3835L7473L3546M3152N8149N7764L9485K3244
38685A34852J7391K694l5369p6635q7855o3828k8674k668J4573K9611M0025L7965K0303p453l3590m7409m7123l7816
38667a71006k0789O999L9761O1293O4833O1867N8883L9710p926n8239o8704l6897p609j3526l4766l4140r846J2131
38649a17971K2970L6898N5126N5239K6169r789k4989k0677j6773j8874j4748N71J5595K1684K6498L9897N4909N1614
38631A83349J8575l2612p2648p5957m3323l831J3207R368J0521K6567L2455J978m9822p6974n5349q653K3478K9896
38613f9775L0603M3668O2681O7282M6790R004k9533n5240n9579l8214K587M0174M8323K2909j1515k7466k1113p121
38595E4465L919J0416Q670n816k4753k9706j3098J3761L6054M7701M6265K9889N832j0006j0298m220k691o446j4769
38576A35169l2007n3972o0324l6923L2J7590K446k7275m4669l7653j1401K0601M3894M7788K8388r806n1323p1650
38558a41095n4140j0167K8170M2626M5873N6339O9346O7157M7559K5012Q389o047k1246l2573l3506j7937J8242O5573
38540A57575R6608Q8579M8553M206k4953l4527k4363k711N714j7040n0924n6471k7635J870J0334J3249K2365J4858
38522B25287k5985o3979m5627K2233O7843L7634m1478r6762q9252m2463k817P723k239j6787k7424k9228j8253R65
38504a40609J5370J9290K2533L2909L8881K4276m578k3241j9768m453J0647K2651K4893N198l1141n4215m2061j0995
38486a14413J813j7710m4950m3698l138N0548P7749O3340K8609R75j7676l6960m4134j5014L9888P3905O2383L3112
38468I4629K0553J7939Q96k4757l2084j7254l167m336j4272k3086k3710o634K6345M8745L7701J2578J4509M5648
38450A70243O1479L3417j1107k8154j2970N298Q167K850j002p327k1997l8368m3028l2923j9972j5439j4070k577
38432C2520J6164K0314k902l8914o5645p8885q3569p2986l8450O754L5954M1613M0807M8825O4669Q0975Q9586P8678
38414A75508M4816P451r740j2067k4838m9978n8995l6413l313J4349J6234J1905j898k8336n2081n4406l5968r382
38396a07152J9326M7230O4724O5178N4792L9519J3821k2350m7955m2350j5676R75p654k9886m8622n5996m6571j4318
38378a32965L4519P4287P6315L6286j5678l8110j7988J5794K6424J0158j0554k6462m8187p3091p6819n0305j7497R01
38360b32972J5174L7155N0041L7454K0373K8366M7908L8963k495l7864m3176l4563k8133j1620K5544O2348P0358
38343D2861N1763L3241L1292L7901L3635N340m1483q1249q8769o6622m0539k2776K525M5691Q0508O9052J2772m1426
38325F3717n0553j9034J2338J2921r701k5928k0750p806p885k2706l7317m2102l9971l2344j2205K1750N2851N8919
38307a05806L7102J0889Q833L5078O3229O4664M2205K5522K9632L2439N837m3410q2594r5186r1746q1897o1404l2186
38289b38799j0252j733Q773L1371M9465M2539J7421j622m766j97O753J7247K4006J4020r076k2113r933J5406L0617
38270d0873K7597J5991O282l27p502j6847k5476k6566j4209P836K4906K6425K1179K7168M3146M3319J1586k9542
38252I4093m2813k5624j2970k6137m1901k7262J4111N0692O4692O1323M5781J8681p106j2516n10M545p932k1873
38234A27274k3942k2440k5923k6066j6829q424l301J9584O9497J09664R2099K2546m0332n3586l1593j3376j3649
38217A61203j9207j6021m514M020k173k1165l0920j0546K6894M0286J1841k2762j4979L3955P2574O1091J3388k8870
38199B54095m5991m9762n3219m9578k5014J7758N5799O4323L7349p157m1131m8578l7102k7075k9387l6318l4200
38182e5188j9197K524K3788L8140L7412J9106l129p816J0572L5019M8856N5189O2642O0288K5848l7724r0615r4181
38164A11534n3965j2257K13p894j1207k960M881P894J6167L1931L7540J8075j3974l1468k6456j6990k0023l1341
38146c00l6623l0261j5836K959K1988L1577K1234r061m4699o3250m7771j471M8214O8582N1512J9911L60l945p717
38127E403j9711l4641m3704m1985k7239j747K4541M0992M6427M5838M0195K9493K2933L1354M6718M3479Q039m3074
38109A73311q1368r2913p9853m8813j2636N648q623l8167m6053j7432K3798M6136M5594M0239M0519L8894K4955j164
38091A2072k9121m2758k7106J6235N9130O4832K3427l5297o8417n6589j5429K1547K9001P230j9944k6531n832K9587
38073f3963O3066Q0903P1237L3372j0671l1954k8051k4530l6675m9226m5125l2586k4652j1583K0212N5099O4024
38056B8897M6823K8879J8252k370l7099o0824n1950j7081K5678O3612Q0926O1747J7912j1066n406Q691o3k2885l1504
38037A41169k4150k0277k2509j7220p150j0036k3713k3674k470J5506R662q066j2913Q06J9531K8879K2128K430j4445
38018E3488j2532ko388m2457p7738p6896m7254k5490k1742o886L6668Q0447Q8095O8518O0117O9387O1574K0625j7477
37999B04057j6845o94j9678p1629r6291n7300R568M8913N3216M8905M0508R351l9243o7183n1462j3484J2461K0042
37981A3212K5534L6406M3750M0852L2517K2536L393l1718o9064p8783m8125m423R507j5510m4800m4255j9180K472
37963a25679J0396J5916K3358J9271p106m6564p5823p2954l1133L0505P2863O9037L2439K002m84J2072J5096j97
37945e6985k2597l2453j6943J6086M0628L8275J7605k135j7571l4461m3505k8246L945K4164J9069K896j0697k2960
37927a25885l0132j8201Q672K0771K265k3794k9090j8109j1019p665N724K7862M6238N8717O6551N6902K0678j9721
37909C0764l0615j2397M016M139J721J966j1333m0915o1525n8072m9403n1818m5687q454L8505N1521K5077l286p919
37890b23715l081r714k2920k5817j4737L291K1835L1566K2193K096q69K2989M1225J7039l7303p0951n6990j9604M131
37871c19336N520p08n28J2982M0254O7506P1140M4320J0459j559J2624L6325N3572N6057M1424J9842J1510K1055
37853A82459K4809L151k3623j7127K2487M7440J9013m3679q3210o4871j1219K2111L856l9957n7057l2471m102p048
37835e9038k6164k6342r490o210j9476j5888K1765O5935P9224N3426O083l7754n2744k7154J9585N3062O3360O6445
37817A48625O5312M2524j73l0390k9921j8502j4641p176J0728J5120q645l0489j8131J0494J8169R725J6739L6308
37799B15676L4496M700k5306m4188o7033q8591p4833j9283L2139L6439N215k1005k6127k3107k2249j7682o0K8830
37781g1969N0649M0908k417m4713n0244k9607k4252m2242m4356o002M2169N7828M2040K2608M991k6595o9659r6156
37763b47019q4855m1616J0594M7549N5498M1700K7890K2123Q485k1169m0798j9176L3804P5213P9760N8415K9647Q61
37745C6906j6639l441M0285Q0526Q0968M1232p739l8319m4875l4947j6619L761K0259K7803K2228J065l1366n9334
37727A01754o2149l2510R918K9752Q445l5781o7829p3287o4161m7974j2880M3035Q7005Q2908M1564J2275K0597L9644
37709H0326L3051K829k3213l3351l7032l6802k0634J5603N6387Q1376P9015M5752r699n7136o1538k3130J4960J6437
37691A23201l123k264K4145L7487J3620j9825k1032R450L0905J3425l1964p1251p9063n2019n870L5267N5542N7047
37673A13678M8363K7492j1123n3480o8116m0916L922K8943K1941p4j6541j9254q499R675K1689J7353O240Q804K5373
37654A15470K9672M971k7861l7400k7803l2908o3602q7752p4416l5424k566J9814N0874Q7453R4151N0243j5083n0791
37636b958l7060K071L0525L1857J3811n840j5911j9614k7010m0050m9445m6602l0755k848L6510P6157R1702O6053
37618G0593J1040l8349n1860k6329J3423L4400K3556j137j3365r275l936k151M973J2618N3l1617m7358k5330P719
37599g2332J5294N611J4370M6296O9905O5678M5162K2275j397j9754k2801k0272l3602n5317m7796K797N8948P6402
37581A49467N4071K1992J175l914Q270L1266M1301J7793k6524n2229l3791J3139M5929L5252o147l7067l5027k1420
37563B03536k7093m4568l9983q295J4920K711l0973n7279o2902m4290j733M5046O3630M9212L1839K8175J9434j626
37545A39761k241L5340O6196L9516k0362m4190j7912L080j9346n7480o7851m6254j5913M018J640k5111n2197m3301
37527a22607K774M2629M2001J5828j611l116m632j3238k0473j6410M555L9720O8500O3782K7394l174p10J6465J5422
37508A53099k508r908K558K0415L7238N9279P6448O1655J1801l6211m8030l2500k2093k8057l6615m0403m8477o4049
37490E3642p3376o3830l8589p475K3156M5197M9253M0993M1974N8616O3354K7540l4392p6138p2574m0776j0621J125
37472a2921j2863n0639q8066r2140o0860k7658j4182m609J6774L2185K1957N667J7369N3720Q0499Q2327P3539O4189
37454H4288M7359K1255l566k1657l5431m1628l6661l1455l7346m2610k9239o306M196Q091K7698N2024M2713k276
37436e51l5231k5619l9O587J732Q834K2629K4500J8571J8931J8114m99l0961n2925o0412n7738l9594k764L1400L5071
37416a19964J1965o122R5J8578K5355P311k9107n6957m4421J1164P0624Q9683O2104J4021l0774o0134o1905l1137
37398a29621J3476M3507N1087M7315L4754L892m1548p6267p6911m3626J983L1348K6175o263l7408m4609k7465N932
37380b24249M9089Q1084O7044K488o1581p1402l6550j0166j3923k1494j1478O176K0864L7739N2510M5790J6757q310
37362g9612j4093j3772j7259j3794m35M943l227m440P887O602k2046m3552k2196K2438M4096L6010K8224L1492K6481
37343b6253O554p887m240L609l98j3731k3989j9872O548M7794P2349N1971j92m1051m8712l8243k5217l956K7242
37324c7674M7891M1617K1222P970J86j7715m3826n5302l5577M927L4732K7015j1774l8327j3331M8383Q6626O5242
37306A32285J3992j3948p243L605l130j8662k7588k5824j3718M204R752j3811m9848n5656j4319M0148O3234M7857
37288G1330J6861j2722l4648l6794r751K9239M7821L9607L1780M3403N6803M4934J1476j5610k2596k1983k5813k5181
37270A88156n174K9538N5198N3791L0170K298k0479m3422p0658r0908q6761n7499k4956j2766k3548l8997l8677j6923
37252a71617J3101K8633J7321n483n831L1696P8589Q6806M1777j9145m6361k7490R163L0725K6718N636j7288k3989
37234E2961q15M4221P7385O6943J7252l3199n0220l4897j5980j8565m1606n9517m4544M818N6215P2795N1519K1419
37216A66185L339r925k6861l4398k0985l209k786j0703n999j087k8407p9495j00074o2187m570K2289J9234J7336
37198a62303K2433J9335J3084K2986M1556L9915J6391K618J2875K1106L555k3143k5870J094L3677M7052L3692L814
37180A23867k0154j9646j161P370j0422l9243n1844l7629n182K9646M8351L7009L085k5417l1841l3414n7693j03242
37162a87560j37746j31058q0017q176M7354N8360L1806Q200J7807M4673N2766M0598M2062P0414R1539O9061J4695
37145D4778k7668l5951k6795k4628l4727m7051m8547k7580J8004O9340R4942Q0795M5085J5332j103j4037k6836l2085
37127B1268k9081k8402l3666l2257j2842J6590L6062L2502O606k8559m8340k9682K0794O0724N2997R808k2158j8685
37109b6321O52J0166J2577K2972L7741L9497K4820R200O265J4708K4247K3764N120k9484o2723p4736o3602m5868
37091g1005l3950k1183M825M0192O5450O7580N2585L3073J1516j6516m7633o9537p2843n3718q108N8773J14804
37074E4305J16186N5641k0847o2428o3549m7756k2148J9182N8323O1432K7196q049k1376k6242l5374l7750k9599
37057A7147l1994n1920n7996k6901J2531J8663J104N363M3362P7487P1982K9128k3792n5676m3874M473M4967L8083
37039G2137l408l5952m5417m9424m6801j4743L5047M8672L448n1851o0693k9849l990J517K810L058r358k3947j0582
37020b19326L4362P3978P3396L7215l030k3821k5329k2252k4587k4783p633K3691M3025L3219J0781L042J1330J6131
37002I409J0350M717M429M072M850J3346K2192J6381J771R17J4086J3431j0655k7286j2149Q684n396m5188o0422
36983c2461l0336J0188K2901J3642J0721J9550K2451J1666o74k879L897J3736K1441J8290k797l2462m7882l8755
36965a9763k0651j2959j1924J473L1281N9434O9853O5155N3778L4403N462j9033k0688m159K235j9210n1207o1820
36947H1660m3648k0909j7667k9985l4427j6771J4563L9814M5537L1948R004j2360k7062l4725l2680j5322J5383M3789
36929c858N3568M5273L2316J9913p08l3500o4120p3707n9385l2816l969K3928M5764N1166L3481l49k9785l2800n080
36910c4668L0884M4512K9720R964N385P438k897k4380m0403m6350n1384n5854m8012k5164P36K1976M1373N5440N1146
36891c0538K8699R942J1581K3041K2904P227q681p944J5354M9763O6247M0412j3682m7518l0851J2327L5488K3557
36873B07328k827k3608l6078m2767m6781n6723p4121p7286m0865K5753Q0607R5221Q0987O4951N7288M9829L1869M5
36855B92822l6102n5808m7895l0198k9608m1419l3219L787L5795L4951J9524J9890K6914R947k4564l2632L779M6763
36837A62727N1389K0724p518j3713j3425k6812n0724o6223o2493m5361k5633o775J2800K9553L4932K7552J7787J4585
36819E3372J3720O020q848k5499m1952n2110l6481J7502Q4410J14021Q6243L3898j750j7870l3817m8889m7265l4596
36801F0109l3479m1215k7879J2822M4268L7808J3452L614J517j9113n0061n6170l2759j3835j6542j5992R217L9748
36783h4490M5623K7972P893n315j1613n654R698J2651p001k2773q301J5475Q588k0676k1964K0061N9155N2343J2191
36764H3863k4915m5905n0635k8443J8840N3739M2091K740j6974o900j6j6597l8515m2991l0022q611J6484L4914L2727
36745b5126J4641J722k560j8978n2500p1674m8271K572M3204N7298N1032K8686l643k1927n611K6172L0805j216l3737
36726b9111l6268j9721p089N114L2194O4332P1781M3897K277k6007l2660k4690j2182m631p825j7046j9409q024J0041
36707a5027K1459J7263m184l6042o1916o5731n0252l8420m6624o1574n5220k1032J7128L4865L3906L2539L9987N1200
36689b07675O0984O9879P6149P3515O0094M1181K0326l389k4848k9947j2656J1339J9224P109q286j2655q031k651
36671A29662J302L686q27j6287l4777m0533k5814J549K6653L9988M0827L2349J7991L587j651O500J7151J1933j0183
36652B03106k3789o145K8212L9326J1956k3235k8531m796J6126J3344p674l5610o6075q9493q6396m9077P89K8998
36634g8964K2106k810j9665j7859n090P068J4074J5822J1036J173m157L116J3736Q476j3019k5595j3183L124r680
36615i0291n0666q4863q5886n8029j7248K5821N9156O9125N7251L9705K2707j715k8092l2136r392O708r221l0903
36597b17969j3992L9331Q3044Q9658P6180O5329N3173K7012q424l6636m6306l4580q567J0722L194k3910m0683l2569
36579a5993j5702o229L852K5476M6256M5167K0730j3426m8439p5866p6241l8589J2867L7402K5346N357J627O429K420
36560e7556j0051k1141k9238l3617k3294N848L0393K0011j8602l9837j2230M1598P2572O2774L6747J9025M465j9355
36542B8512m0824l7913j5521m226j7547l2065k2075L196J5200Q261L148R803J0399j0118l4484l2132o51L0117L6250
36523a02670K5733J9769K2370K2492J8661K3226M0203N4378M9756K8136K373j7832k4957j1937J4120K7872J4595m925
36505B01363j047J8837J9986l481j6368J550K1485J1377j3954k2632k3719n1193r6771j05752n1410K3853O0780M9009
36487B1913J9901k652j7559k7027k8952k4937j6733J116K8070M3223K5035j6271m6689n0016m1200l5215k5703m873
36469a98569J6549K5766K8429L4165L5136K1718R908K4421N5138O0396K3202k1998l5201k2001j6835l0318l9998
36452c0092k8336m732J2446J6400J0743L604O086K2595M0328M2072L0439K3643K6614K5167J2236j117p851j6499
36434A83746l0012l4172k1063m760J966P452K0217K8028J9216N767L53j0565l9438o0066l6842J5482M2595K3369p044
36415A04229j4131o528q224k2696m2617o5371p8624n8066l920M2988M7499K5004J5298K7052L4798K0111j0535m2053
36397c5786o0778n2692j4468L4272O6638P4044O3073L6668j625l2543l4960j4328L085L815l862j1506j7740j3369
36379a2062J4332N4744P4195N5223J7692j1414l2338o0115q9984r5995o4241j3858K0265K1389M824j483J1686K7019
36361h0121K5973J4190J3492L2702N6042N9152K9972k1429o5067o9490l0905J9586M9048N6380N9750O1207M7253
36344B57735J9655k110j1796k3231m0452m8225m2310m1758n4927n8275l0178J3275L7799L0756J945l7742p3775p9505
36326a83119m0892J5619M6608M1622K7901K8542L8976M3417L1754r0m3644o9961n1539K057M9664O4144N4527M1209
36308I6795L2105K8587L0696K6771R80l6724n1388k9761m180r581l6048m8457l7530k2123j0066J0942M2229O2682
36290D5929N7601L8783K5882K3039K3365K4022K5937K5836J7122m474l8136p4629r5107q3443m4265j133K6663L7854
36272C0846L8460K9630J3394M10J151J3212K4308K4845J3867j892j1038p426j922j4639m7745p5771p3376m4077r986
36253i7749J6257L2982L2870R072k3592l7988k9414j8644j4945k741K1924K9808j148m3640n1144k1248L334m254
36235b00260k4812k9955j9463p204O261K6097M2311L7511J1519j5275k1173M12L6639O1901N9342M2944M4742P0184
36217A21721Q2847N0618p804m5663m7248l7005l4537l2084k1940j5710k0926k1431q06K9185M2534L2372J3857L14
36199H8294q003j5383k4294l5225m2477l4537r821J3294J6192O758J0526L3865N1656L8272K98k9800k7847n68K3935
36180E5135K6481J7749K4355N1376O9972N4978K3923J4575K5994J3412m4869j04004j03084m3027J6128K9001N645
36163A33740k0917l4744l3973j7310O427J5762N402J455K4205M9899L9849P38j9251J094K5769J5764j5057k3875j147
36144A53830J9912J1238j6444k9897p503M3262Q8956R1927M4128j8576m8444l4340p566L1j0794j8188q712J2529
36126B65349L0534L0850Q089k8857o2579p9269p2091l9106R011M2609L4307q070m6629n7568n2246m6285l1145L599
36108i9497L7713L7927L273l0656l3160n841L0400N5960N7682L3908L703l477K1482N4681O4678M3993R545k0556
36090B61758m1930n8825p1499p1006m7280m650L3092M0256J4718j8075k9095j2349J1838J7677r45k4075k6528n819
36072c2737J6672K4253K3272K4871K1462p28l2116m4700k9309r573j2084l6884o4236p7208o9620m4123j2754R636
36054c45906K1722L7107O1388P8060O8794L9187J0343r130k6427m1398l8958j2631J7201K2699L796q560J0230M5177
36036f7306N6067K4698k2896m6421l4217o884J3511K2249K2247J3747N66o100N74J4438K5851L3266L9751M4840M6337
36017A74318M4555L8403K1869r016m7363p7162q3111o1110k4586K318P665O552K1060M6727N5793L6679J0326j330
35999A62587l137r571j8971k4490l4916n9458q0708p0095l0178K055j137k9331n2822n3880l3726l691K2255L5935
35981b83279M1366M5727M4488K8555O864L827K6408M9539M6895K4099O216R74p128k7605m7606n1331m2098l3475
35963a67564k6426j0386J3294K4947J2412q024j0434O486K0098J7904J2522J7329K5452K5503K3749L3477N0221N4630
35945A15190L7057N524k7592n2708n9282m0895p100K0663K7661J4036j1775l7030m6137l2935j1674k443n847o508
35927a21795j183m011j8104k1687L137L9903N2333K5422j9869n1569n6251m2212k1668K479L0657N3426N4751L2623
35909f3618P556J110J1897K4236L5288N6477Q5437R3440N3246k4771r2930j05635o0493j694K1125L18k7589k7794
35891a4394l459K0003L0184L0743K1597j044k8969m6556m9217m0382j7092J8054L7042J0680m3170o6519k8623L7709
35873a33413P8391P3397L8474k458k7843k2349P767L4520L8695K8928K0290J1877k10o789j610K102r327k7490l6709
35854F6243l7626l6788k7536m567J4533Q827j1475j6200J185J4966M314k0604l3717k0069J4566M9908O6043N9747
35836I1750M3644K5014l312m1146o4495m9615n614L4465M9628M2554K2939j835k2526l0952k7244j5306K704J9100
35818F9753J9963L330j5473k8952m8736p4579p5714l1560K7589N3797M1198J8093n805l9884o6865m7082K0799Q4416
35800i5712R9330P4998M6259K9010J8978R139o000k3513k3353Q980M7514M5607m14m1359m2472k6265k9168m8779
35782D2780n9698n4383m0381j8471R105K5578J9191K121r125j5680k1106j5414M012J6338P119m955K360J6949J4047
35763g9613n4K1J2799J1007j3219l4984l1959r508J2941K2717J9581J4714K2057L9437M5278K6023m000k3337k9060
35744H41k5515o812K5691M6549L6323J3902P748R473p070l2437l1279k368J6147N979r949j4274j9697l0737k3314
35725d0799J2217M2163L3078q81k1488j6230N59J5798K0066O04l8535o3874n0915k5060l2289p3998j03343q8088
35707d31015m6057r683J7224N0634R1787J20408J16928Q1191L3385K061L405K3894K9242j06m5083o7742n2400j7603
35689i9530J1711L0295M4617N1719M1007J2911j9582m8100p2101q2283o0278p088M3576N8047M0886K3871K3254K6178
35671A9110J6737l771k5261m0966m5626l3651o044K6885N2167O0939N3943M5972N3992O8432N0444j9622j00684
35654A72996j28313r2659m7527l6293m2075k6071J4950N1808O1397L9111q352n8317p5202m4948J854K3727J6445N126
35636a72343p09j3184k9668k4345J2522N2447O3040M8544L8321M3571M3920J8151k4596n2535m7105k3599j1778k0732
35618a00078l2552l0873k2110j9846j9519m898K2769L8517K3443q343k2030p56L4978N1154M0172K7254L4037M9116
35600F0435M7815L0191J6594R269j2793n3413q2212p4514m4837j9808J221L2116O2891O8060M5001J5264q463k9392
35582F3425m3589l9747k4067j6718j8672j0576P732P489k3479n2297m0879L482L9761M4099K8442J4940J0533O890
35564d3231m500j7505j1157K5710O8818P5802L7633o247j7333k893O598M568N139O337r461l9135n3788l7127n096
35545a6868K0714L7480M8398M5339K0506j5227l9678m0853k4867q508p724k5118m4891m8545l6876k5417j8552o290
35527a86977R900J1498m397r894J5513M9921N8033M2037L3500M1657M3286K5511M822o184j9608m2401n3021l2216
35509a9020K084J7658J3244J2965K2487K0610l049k8841l4868k3961j1828m333M37L25n298n333J1528L6252M4184
35490D5243K4660l125j0336R578L5927M6292L8370K1929k554m2747r0065j11511p9584p120N7545P1409L0929k7841
35472F999n6770l2042K4430O2324N0850N702l8321o9071r3894j05827q3147k7459K4256M0424L1588L2497N7795Q6631
35454h3035Q4775L7243l2481p4798o0143j4298J0192r35j2767n95J4742J0597P342L4320P4009Q1695N0620J7215L978
35435A47676l747j9288k9982k3683j0626m154k795m622j7482m0698n6236n3526m5739m5744m1544j4006L1651O9475
35417a65070Q2360P5421O4707O1880O5122N9613L4081j81j8772j6454j4355k8137m7125n5878n7143n6798m4182r964
35399g0875K8850M6252M2344L7144L4680J9876p274k1317n646K1915L1261J5647p478k3755l6542n3732o9201o5152
35381h3003l5162O30J3540J268o968J2581M7091O4401N1956K4206j665j9695k7345k2076q667L465J2770K3915L3787
35362H5029L3083K3205J6333J5502J0186k871j1369j0036j6459m8635r4550j19939j05764o7077l3107j5685j322
35345c43476K6510O0589P2796M9619J6865J3452M1369O0846M2342N086j0456N423K6175K7663J1551q628k4364k9399
35327D3963j6336J2959M2099N4633M9407L5618J8359k419k1535k7197j3597R405K3045J6307m115k0176k0029j0274
35309A70117q641k2675l9498m1827l0872k3850k8249l0778j8614J18R917J2838K1240K9613J7608j3309l0598j3503
35291d0963J3760J2640j8789m8601n5598m4976k3897P730L7133L9524J4001n196P471L1880L1302M972j3969p492O704
35272e2364O823l043m898O219K0083K8336L1581L0770K1434O08k3538l4058k0528Q046K9076K8084J3998J0650L1732
35253A29011O3096P0607L0912m0648r6904j01727o4841k6406j0806r064n272J34J847N294J4922K0347J2412K939P717
35234C570J6570N025k4641m0173k4860k360j248j3943j2030R560K8530L2694L5895M8787N4868L2947q350l8575m4773
35215E7493m3108m8358n1965m1089k2433r816l42J6081L1550K9927J8977K3581M1776L9104J570l5428l5785j6119
35197d4384j8161m3406n3215l0504m103l949k2790l5821l4381k3978p042J4567L0705L2288K4250J9436K4816L9979
35179a35693O1326P9531P9535N2764Q727k9672m2597k8304o674l180k0351l0821j1543K1143K9943P455j5293j5283
35161A013p632j8356m8156p6985q6789o6599j3918N2119R5676J00474Q6845P5974N6204R520m4701o5620m5843j9841
35143a6615j5893k6828l3347l0855k2912q696R599K0579J7124Q009P652J9767L5015L8738K0519j4720m4491m8206
35125h5561l0193j2424m291N371K3023L5378L0499J9719K2379L5373L4119M982l4564n2569l4599L220K9833K6331L07
35106A6333k3491k6313j0768N397R880P576Q521P208j3469n0806o8735l5384L0115P1399N9562K2437J579L357P779
35087B2177M257l441j3158k2212j9670k386J0227p56k4349l5313l0807k6927k5971j4762P347K5542L3641L6233K8871
35068e1457K639l2899n8337p3286q7082q5388m4187K1861O6730P5625P6879Q1122N9158L742l6629k2625J7129L3171
35050e3834K6587K7688L3101J7962o772m964K1368K9926K443l2651m8008m7813m1400k3599M009K2137J9383P277J13
35031d7047L36R187K7845M1416K7902o777k7315j5198O166O922q769j4506J401K7094M4984M5245K9192Q440m969
35012A51549j0729j4151j0146J0346L7606M7188L1419O924j4438l9337o9356q7814q3554o6184m4057j1117K6768
34995a39083L8759R539k7533l0063n665L480j2093j5770J7082O2890Q5730Q1551O7515M8141J7044j6440k6619k026
34977A56439L6377N3649L2778j3693n8068p8488o7920l1059J8969O0632P1103M4236J395k3993j7113N475J5369J278
34959B07366k3574l9093l7424k4564r686R89K270r264k8336m0227l3509j2850M889O840n662k0506k5068j5044L264
34940i9189J9841L0062L3946K8866J2454p064j7021k0901l5440n7557n4964j0084M3740N7585K8592l493j4064j2442
34922g7133m216K2083N7366O1720J8722k9544l2395N388L9031M4938L3050J1715k0525m9933n1661k8004j3323k7979
34904d0700m9867m6423j6607J5887L8469N8769Q1181R1398P1020K1765l0735n8364n4277l3504j1669R876L4271N2483
34886A32973M7193J3346l2887o8230q1466p7345o5386m9249k8810q995K378R167K7964O1988Q3309O2237J1848k1973
34868A8062j9222p222j2488k1164r570J1956J7723J2230K1499M6818O1912N4267L5495R206l5469q8655j12321q6919
34850a03862m0244r730L459K1147M5338N3975L3850j819k8177k9119n346K8007N2409N8905M8258K1892j4684m0896
34832I3363l4773n155J1463j238j6898j0626k424k6337p0720q5948n0364L710L4714L3998J6543k076o791J3428M5877
34813f0254N7589L5813P257m24K944o664k3293k1350j248R188k37p642K452J5014J2246Q53n350r677j9213k3244p471
34792d2711J9873L6908L6222K5599Q488j4761l1337k5404l675R898P123K980P597J2890J2597J2584J1602m558l3863
34773D8052m4428j3473L3136M5885J2177l0774m5515l7069l7797o1922q6935p8835l0060L0461O4686N9603L1092J44
34755a41572k3205l3534k4899j678J6408J2813n599j5541l180K1330L3581J8738j0308k1570L85L1000L2320J221
34737a13290k7385k6628m591J9344L8476M7459L4989P941j260K3489N2085M7407J7671n7M797J0375L099r145k0585
34718A04191l1368k8740K120M4075N5539K0329l3981p1733p8382n2850k239M7726O7272N9738N7102O7970O1034J7137
34700C04940l3306m9551l2857j3066l633Q64j358j5028k5826j4736P065P568j7728l4418j7518J1503J4393j1107
34682G6201l0793k4116j1793k1918m4477m2480o063L0133L4377K0129K0352L6046L8461J5554j2897k7226k8721k5198
34664d429k0124k0247k9632l1553l257M3779O6761M6283R842j2895k7517m6544n3890k8422J6478M7381N1898L9413
34646D3325J5340j6261l5813k5768k53J1440P647J1762K7652K8890R28l1798l5433p666K3499L2733J9768M374N182
34627G9548K2057L8874M4156M2887M3616M2407K8777J694k9321n3788o3383n2768k6831j615R716P006l394j4162
34609A15476j3909L063J7249j900m7872o8455k8766L8559P4771O8266N2939M7254L5565P453k3445m6331o6235q1398
34591H2284p6912n2493l1334k7855k7484j2025J2504K7926L0934L3261M0342M0589J8336k2003m7990k9242J9218
34574b1944M3938J8846j7955j7621J2116K8926K5204K6815L2285J1075l1209m4094r461K4999J8956j563L333J7884
34556A20530K967l0456l4461N85L2642K9540M101j6705k4684k4721k0879j6148j0172M122K6902L8742K0340j7624
34538H4621m3172m0085j9440J932J5338J5467J868j5019k6184l9044o1150p4591n1675L593N4438P4571O9075N0126
34520F69K0839p797j3502N260J6145o763m5067n8541l3769Q377M2821N7623M9642K5393M457L043J3233J2930n173
34501H9820l0166n5231q2084r9912q3213k4542M5179Q4295Q0579N2799K1986l194j7855j6392r76J6598K6929L1351
34483C5971L6465M5321N4214N3887L6605Q724q435k092R797m324m6693p9909o8785k1480K1080K8351L323k9575m7711
34464B4734m4332k8644j3068l05J1876J6724N202j1258o978J6841J9587k7837r5139j22792r2391m0618p302L068P082
34445c85550J6593L4418N5504O5162N2351K8372J5957J8277J7580N680o766j4444k5436l7124k9835K008L3871M0911
34427a12471K5607L420j8921l6194l6378j8302r53L208Q774L2401O1971P1419N5305K9646Q410l944p851j3159l4900
34408A7088o6770p5257m3218m119l998l9266o2285m3571P84M0857O1928O0842M2712K7507L5185N7285O4000M3867
34390A13571J5473l052j2172j4908j0176j0673l8049q4079j03542o9074j3264J0800j881p841K0794O0308P0509M5129
34372c2127J3847M875J9887M2958N9177N7630K8034k7819q1928r7967p3167m4767l9472l4892L137N8593P7399M1806
34354b4796m934k0045j2893j3752k0650r985J6273K8728J3272j1752k3305j6990K94K1087L4852L1777J7832J3633
34336A8646K9656N2002N9907M7767K1263j7302o3725r6248q5990l3006K1158L3096O258j6038p653R598L694j6154
34318c3071r612L7133Q8217J00010O8426K4226m098r319J556J5741J8469K008k6318n0855o1037n4302l2783o270P421
34299G5542j820k2022l2736l2093l5928m8315n0702k9604J13J5577J9947L5996O7054Q5493O9200L4424J7699L0972
34281A98797M8151L6505p315n3762o8379m4633j2353q612l5056n2580k8637J9499M6118L4910J1557n50o671j2781
34263F4208l623K6585M5910K0838l2162o5347o3654n3468m7951k5650K1553N7663M9045J6159M771J9935K5463O431
34245F6706n634J6900N0771M9021J746n3836q0371p5613n7625l6619j5958n740j2361j8706N04L7614M9986J4757
34227g4458l2454l6192J0693O0631O9394L8014k915k6910k3726j35J9914J2060j9447m1612l1028M7K4643L2952L0293
34208I764J8090m175k5673l1524k1165n878Q468K2451L0292K1978j589k9190n5341q0389r2173o6440J131P3699
34190b27664J01187P0737J8797j0687j1433r714j9276j8111J9180P5861J00435O4458k478m6824m9299l4495k9052
34173h378l0033j9775L329K1695K1898J0191K373M043O097o99j1780j3357L31J9036K7226K0038P350L434J2596K3685
34153I9300K1338N372o427k281K647j6311n5862q2937p7184n7324n1312n5296m3411j1161J5302J6090L459K182J8423
34134b75393L8358M7264L9755J9384k49J16K6595N8896O8142N0321L1368L4446N1457N4740L0673p550l7061m5518
34116A85744l5237j7625o211p014j2329j0257j886L74n283k574J8772M1628L8293M570l5300n5165m7678k2611J686
34097C1897O639j2049l5996m1468k5444l273J6056L3945M1769K1236k4360o1121o4257n0278m8420n2351k8069L0651
34079b64893Q1051P7204K1669m0993p2665o9662m7165j4088K7286O6149Q3195O8915L3180o916m0127n7847n0148
34062b05855j7083K2666M6633M8049L2122L003l0951m9211l7770j0770P651J7360L2794M5387L0290o316k4563p829
34044a04393J4037J6330J6877L4934M8124K8627l142m159K6350M8736M1714K1121N172j928N004K5618L3189L2n2404
34025A99839o9655l9706j1260k0400m0085k9285K250J4204j102j2944q30K2228L3825K6741R118l658O66J5480J5105
34006A10531j4390m9261n1224j5711K0811K5925Q814M442K8846N9879O1947K5099k3422m7233l8357k2952l0587o3128
33988i971r3981r1746m5144K5035P5728P5015L4099k137m562Q692Q66l1219n1244l1250J0950L3096J9660j694L681
33969g6126L5681O2278N9234L5253J5817J2970J8459J9222J0080n337j8283k2164k2096l1707n2214o1398l5466K1251
33951c4546P8670J08722J00522N7161l454m7871m9526j7503J1978J5623R01j4682k1423j1756J9224N6685O9234M3124
33933C61083j001l6759o1581q4223r8049q5385m1562J8768P3228J00593Q8393M4459n192l8669n2046m8291k8366k167
33915A03233R544n63j3771j1240J954J3865K8608M9639N5672K2958l3554o8397n5510j0311L4205N2188L1295j7721
33897A92094n6075m8496p173J7253l785m4386n9292l2990J3295M5347L8823l271m5726m9951j7220J2401J2211O3M562
33878c2316K1550K6410J5927J1796K5596M2044M0318J7781j0682k7499k5300j2460n619j1650k0391k0906j8620k6772
33860a0793m5413n9240n3989k6991J3584N0269O3545N1629L8431M5288N7524M0373q802m7839m1357m600K2906L1168
33842A15693M1189N9810O3808L6705k625k3730k2492j8971k6075l7243m2187l9548l2518k3610j6482j3840j1207j103
33824E574J4550K4520K3504J8685J7450J7128J1893K015r768k3732l7862m3530l4684j7341k878M419P111O960M164
33805a1822p82j0768k9948m8677m0686P367O7153Q9213N6917N177k0126p983J8257L1960K2176o274l5466m2365k0183
33786B3140P561P614k4120n3469m3511O324O1261Q6287P4250M2996J4573P68J503P689N225j5341m7368p0332o9543
33767A5507n1771l5609k8173j9681j888J8093K8650L0728L2991L2315J2864k7913o1409n0815N178O2807P7164N0809
33749H9847K6705L3244N1086M3251O392k4750k2308J897J5179L996j5671k2198j0939O591J6120J0136q141k4956
33731A75481k5688j1208j636j5998m8063o9272n7171j5701L2250O3401O4074L5579j007j6641m701P946m521k8950
33713G8174l1366r796o68k4444n3036n0087k0892M088J9394M4121P5507P9391L8805j5232m1100l7154l3050m0006
33695a7351l4746K627N2863P2846M2455j2753m7088l8558n359J7639J3398p241k3999k8485k6010k2178j5701p112
33677h4753p406k6379n0696m7833l814N2146P7392O5558M6584L9175L0329J0044l879K451O437k0295o1547p1809
33659d8295l9815l589L659q456j7031k5573n0008q0184q1997l8321K8315P7981R0019P4876N5163M1247K8415J4431
33641B0837Q329J5562K4828K2236J1380M423j32j1518k3111j9501q823j9621n3958p0046l2547L6556Q0035O9139
33623E4068K6154r254j6717j526J6830J9763M956j2065j8911k4328m4018p2491q3859o2386k0269J8324M1287N2463
33605a31979N9128O1831N4910L5083R943m922j791P684L312j9256l9406l1418N955M2992M6747J6230j6026k1608q208
33586F9201m533j9549l2601k4555k163J4832J7024P342q337k1939k3145r743O304J0265k105k5534n0136o1146m6627
33567b07145j4191J1689J9332K4793M4708O6979O6780M3671K2009J6523J6767Q541o070j6444j8757j4971l358K0648
33549H1504N3195P6147O8587K8681j9339m7905n3464n0642m3220k0197J6261M1787M0104K2312K541k3782n7787p4762
33531D0021n2340p448K4188L6240M9456O7485O7852L8108p808n1735q2906q6942n4876r430R916j82Q18L5991P0686
33512H7094N7326m85n4640p0729n5570l3460j6764j695J9404M4963O2116O2119N5060N6294N9332M2436O386j8625
33494C00562j6485j2519l7272p9561r8044p0124j0505N0304Q7402Q8921O1797K8293L223k1406n7576r4770j07023
33477A5217q2063l1793J9949M9375M3247J3078r431o396N135J030j3058j3587K603J6958J9592J4681Q17k2976l2690
33458a0312K296O5664R3988N1779j9051m9754k5969P966J1939j2181m0141n3057m1542o834L1538M6263L1845J2000
33440I6437P182O570j2956m8118o8400n4139j8197J5346L7571M9400M5589K2760m384j5807j3369j5118k1935j3410
33422d978J6431M4036N0882N0321N8987O1380L1882j8519m8746l9781j3194L984N944n560l3237o8112q2913o0521
33404e1714j7247J6415K7701K2625Q230r301j7083m585K1078M1757M8483M3707K7288l220l6223m7217k7366r76q5
33385D2267k3694l6627j3916K5775M2946K6433K548n984j0273l2621o8658r1045q4555n8834k8414Q54K3211K9337
33367b61250J9213N982J28K50L875J4252K9413L7803L5438L6337N2928P3250P1548L9307m881l6319m6552m3352l5312
33348g942k2140j553J7963K0289K320j8050k5342k9111m6123o6420o1729k9168j59L472k406N954K5602M1048N1937
33329a41558O2669O0942L4342j746k0025j8688j6833j8090q147J2023K1229J3635J2303L4715O4866P2615M6549q80
33311B09921m5821o2877l9817N541L6274L4804J9163J3287J6254J2329l046k1910l7092m2906l3606j6455j5131m0251
33293a1339o4041m8100L409M1677L2716J86o737K2223M6037K6944j9037m0697j5693K3239L3902J8909J4077L1678
33275H9353M3551K5054j1048l8057m9921n3433m5106k1264J030O07j5176j9999p862L660R158K3881M8638N5703K6631
33256F5400j8119m6379n3862n6646n8698m9993k8759m496J6195K8415K0843q274l1187j4383L3173O1605M1557K442
33238a01166o867K1429N2160N4520L0770K934r369J971K9715N3204N5998M2929K9005J4176j3219m5845n2255j5998
33220A44092L5389N8140M1736J4654N053J2001J5811K604k4740m9681n3745l4646j4220j7933m4094o4184n6500k7385
33202e7648N067L2603N1572N0882K4426r580k1269m748J2657L397k6535m4818l1379l860m21l5261p6045p5970k9379
33183b36309J9258K9779J3392Q522K4547L7319L5315L6532N0805N5453K7322k1621o0382p3998o3479k8756K1579
33166a24722N5291M2209n713m4603m9023l0350p475J3851K9931L5369L7825N0580O2546M4375k862l5873k6457k449
33148D2450m664k7701l6568k3708j2560j5312k3336l2479m1132k8932K0543P4907P6094J9443l2904l4385q461J961
33130h6744k761j318l67j6229l0938j4387K0846L2369J2639j272J4871M4048O3949P5104Q0940P1465M2901R424j7746
33111B96794m0423n2505l6185M473L1526J6460k3304n1828o0408o3060o2882n1611l4494k7005k6687j2298K3856
33094a69581O0647P1987N4504K6448P647N520J5743L1503M9384O4195O4082M3013J7042J0555K0914J5939k2075o7913
33076B99554q3943o2525k2223J8266M0108K0148l8287q3099o3044J297L6356J1643k3807j7001J6509K5436o28k5648
33058D9112k5807j6339j7393k2586j4713L329R418p399k7052j6185L3213R0008J15499J02299P1156L7471J417l0825
33040C34623m2464l1357j7315j2803q138M50o696l8818o4488m6401M819M2548M3685K4823J808l0231o7177q0303
33022F565n2753j0690O783q17L820M4167R5903J10694O6968p650o2750p1223m8069k5853j9131j8140j1155k317n723
33003a371k6886n0750m8838o633N2444Q2574O4822K8696J1886J3705R722j821p29J2222R364j9437m8673n5712m7654
32984b3069l4805q808K9317M7918K3760j6595k8270q817O361J562k903P224J7045J1627j0m005l788q908j7387k2143
32964c4694k3114k2399j7515q114K14N874J4837K7341L2405K4786J7511K6357M7428N9336M4545L333m8234q8606
32946F1291j03283r2328o4733k7703J1566L7504L5130J1815l971O262L1539M9693N3057M6228K9941K777k5247l4930
32928B4608j6947J5930L6403K3090k0599o6000q3516o8575l7759l502L3162O6379Q2402P8884O8690N6500L1072q527
32910B11695m0176m7367m0543l2178j2132K7933O4623O7536M2042J8179P292N68J42J3691K1609q529o7266j00595
32892A26524p6236k1919J6355K4653J3871p614l0654l7780k4616j4502k9881n9381p0346m4769Q863O5739R5100P8273
32874A1680L2436Q31L491J4065J982k2557k8575j1351Q792K2638L7099M9676M6403K5357l10k1968l7891l9650k0217
32855G1931M226N003k0529m0556k6561J3825M6860M5453J0466l1096m9543m1241k8338k3392r705K6544O1317N7885
32837G2549J8730j7549k8005k3289j3620Q818M3306O5369N4253J7316k3175n0554n5219l6211q996P477J6139L1892
32819G9231M4173K1576l4848p6875o8907l3567j2113n762J1554M1523N8825N1468L1498R335j3909l0066k7973j6548
32801B8615j8950l7880m8144l1579j256J9379K7495L8423N8723P2716N7449Q987m7267p5482o1081k1410J4538K9924
32783A3200K3260Q37k5582m2300m4663l9848l4055k4620r110Q544K5712M1490M4966K2878j0666j5850K0947N7357
32765A2497M4920n123l6870k2887J0302K8138K5871J4209k318j8793k4749k0918k4341m2433n5731m1243l597L0730
32747a32336M4676M4286M3071M2877L4808J7549Q408K5591N6981O1805J7584m5115p4309n7745l0920k5273l3074
32730a136l0875j5722l643n670j9156l5093m3010l3402m401L4059O4588P0090M2884m614m2199m7850l1307k0164
32712a26621k3826k5466r849J6790L7998M4474L7154K5757K5578M1567N5016M2479Q654j8100k3836k0045j4093K787
32694G6418K7035L1607L913k7813l0107q887O384Q259J1961J8637R592j9621m5319m5967l0036k3287l7433n9692
32676a34356o9020n6907l1844n609J9645M5009O0972N4605L1795J5332J4497J4289N133L829K6814N7689O4065L8874
32658A54812M163k0533l2599l2722j9105J685J5003J3360R25j5142k5612j6743J5024M7353M9988K0682j3619l2460
32640A14460l9059l8161k0658J5072M3063L1273k0097p4138r0788n9759m918L6730M2852J9934p498k0707j8200p311
32622i7910O575J9631K5533J8669J899j0909l406K6644N8202O3061L7564J0605J0865L3282M9787M6138L1255J3412
32604C40897j1965m5563p2981q0678p2249n9554m6241k9258j1083j375p337k5889m3537m3839k0455J4936M1325M5879
32586a28967L0906P680j0539j4578q001n414j1352p234K3866O3529P1108L3414k0014n6500p1604p0473m4236J1709
32568b06700P1608R7479P8927L7378k664k7961k8781j206L8666O0400M6772P865l2682n5816n3365k9761r28J6885
32550A6116J8574O003j9853n0308o1026l4253J1595L7473L3238K7868M0252M5872J4488l7598o2596m2534p301J0486
32532e3504J2058J3573J3475p31k3555l0645q530K8040N2459N1341K9988J880j9758k4406q262K0900M6728N5313
32514A56364M3786J9802m003j6295j4727j0453j8875m0031n3631m2159j5385L9m508r072M773K6398L0541J1253j1917
32495E1900j8679p479P934J0987o916l7081n6201m9419k8541j4801p910P773K7450K4224o655l0137j9032M164K480
32476a45939j5196n931M0212Q3553R1287P4531N4289K4339k4630o6923o2702j2180L8086M6273J5566j8155k4271k44
32458I1965L2001M8415M5896M0542L8817K2115k4524p6889q9462n2892j1449j0732m3764o5640n2321k5532j8955
32441a52409l5580m6592k5952K0919O1545O6251L4389o662k7253j9450L724K6954M3998N2317M7416K9289P968o716
32423G4156j7543l1669m2081l1955j536K4060K3437L693j4644k5936l7429m8165m8935l8700k2403L655M2522P4485
32405a14988P0713L4635M453M309J6827J7485J1282J4782K2275J5526n452k5368l7615m2757l3351n966J8901J7338O0
32386a6911R13K5325M0277K4612R51K5J4757J2283j9590n9029p9609p5835n8278l6640j3481J1385L6175N6720O8302
32367f7648O6812M9598J8577j6588m1571m6054k9131J108K9139L8195K5267P402K84o022l0308o0249n8523j8747
32349a38459J6552J4849L50J1001L5541L6033J6710J9750N2663O8585L2885k8709o6721o3929l8182j3600m966j1664
32331f1311j5372p96J7268J1348j1779j4484J2272L0403J4057r588o098J2974J6961Q814J0411J4480m392l8532m9632
32312f2996k4680O065J3723M095j678N423K3432M6520O0156M6209M643m0731o5969o8282n9900n0326l9000j8362
32294b21658J7270N8260P6836N1029m343m2319k9138J8727N0412L4248r186l1649j2309K1840L4702K5296J6375J1614
32276F6007m744k5552j5656L3510P6117O6776K1049r819q172R22J52N83Q868Q569j2444l9028m7054l0696l276J6699
32256A02811J4893j0309m1446n3259l5370J187L7568N8122N2726K3378j1295l1003l3817l0773k4606r436J0443K0028
32238C9842J4804O674M840N217L068J854L012j440j8270m1479n5962m9340k1937Q746J7598l934l5152m6140k7067
32219a95066R826M8203P4230P4563M7412J2962m201j629N556R386J2074J1530M560q77K349L098r700k0685j1210q98
32199G1483k5035o9538p5340k2381L4918M1309J1796l275P076J4080M547l482O398L2341O6717R8089J04524P2184
32181C66411K1218j0898j5132j9465m7028q3869r6464o9414j8953K2913L2780J1100k0472l7577l1894j4567l480m530
32163a9321k780K0497N4366N4926l636q2151j10411p0511j4829P833Q666K1304M2221M3277K2444M242j264o472j7013
32144d8612k3837k3903k3242j9112k014K3651M1160M3465L5255J6707j3204l9570m1443k0206K508J5155K3455K9043
32126b4744K5408J5699R230j091k9180n9587n3940o696L5837L1413p374l7763l9910k3760l786P499k452k7115l2607
32107b24919J518M1814L4376k1868o7896n7910j1241K1643J9587j239k0010k7666k0777k956R697M618n055O690M0752
32088b80842O8288P2352P2254Q8769J03965Q3856L2477r812k4121l4331n7133o5666l2459J5987K6958n531l5586
32071A9425l4537k5519l5652m9352l5509J401K6997K3833O804n254j1745k1581l6977m9955m7966k4724Q602K9498
32053b62211K9749K5649L0210K7169n163n0081o0768j8182M3949Q3032R3975R5178Q9223O4726K8772Q466J5284K7939
32035B66916J8603j6849o0443r1382r7420p9381n3444l9708l9771l4251j1511J1110Q149j8763m2576m5058l2779
32018c58558j7623P76K4800M4857M9008M0753L5166L8108L8365K2738o519l2894m2535l7099k8145k0866q838J3176
32000b45330L8350N6513O8189P9701Q7236P7912M7649P142l1076o0707p6745p6926p0839p1141o9952m2801J2476
31983b70349N9588O4987M1395K8444L9559N2737M9792L7321K4301M412k5708m7692l8532j197L3101L3524j408l9352
31965D4923m0157L805N1911N1569m455o6639q0339l9502J7530N4153O4243O0210M9069K7615m463l5305m9482m5074
31947E9612l5833l2046k5947o201J7723K1399j192k4875k2063O147L6076M8786M0980J7701j1446l1716l1732j4498
31929A0875O350J9833K2165J4014L058M375K4572M5533L7910m110n1257o8434m9718j9750m986p510n847J8116N1987
31910D7176O0261K7747j3559k0187L838J0894k0454n0234l3814J1545L1311J1485q699j668J2478Q538k350N35O912
31891H1755o125l1278l9974k6913j4607j4772j5052q099n401j2287j3448K464K2780L0218K6593K2397J7829J1597
31873B7677J4624L2257M1677J4335l8405o8572n0372j3582j894j5553j9764j098J6285J6755K3268N7084Q9468P1126
31855A95316O479m0595k7475J4267K8834J0523l570M683J8548K4299K6025K1368r13l0744l7206j2317J3848J6008
31837B27378M507l110j4005l9973o6203o6200l6199M938L8234M9888K9408j5943n5715o5710n4630m5111m0144k7344
31819a75934n278J5617L0622M0532M1233L0208J5245L086q371j4075J022K9866L3828m792m3651l2349J3732L5429
31801E970J4979r178r963k906k406L465J6968J3676j4214l3800j8250J0926J5401q867l7143n2494n2228l4555l914
31782a98533K1087K5454J6364J0741J5196K8669M9261O5538N7869K4493p573j2475O077K7425L8385L2737N722l3795
31764A72642o1917o6453n9075m7528j8997K9014O5859O4485M2031L2377L3671J8606j2833l0101k1939j3832k7516
31747I8494n1618o2875n4096l1136j519K3410L0723K0791R484R405J9059L3866N4508P6977Q4377N8323k027p2651
31729B43495j14636r8901l2247M2399Q1019P3975M3273J3477l896o321J253N377l294j6251j8654j2895j6048l3958
31711A47167n2808n8594n1299l6837j7892K780K0098L1221L4337K3410m102l3525m1356k2795P48Q457M929R778K8940
31692g343M5883M0502J0641k6556n1090n4127l6892m233L2458N2600M2656J6155J034K936k97k0591l9240l8929l1552
31673f5985l0315j6735L0024Q4557R6542N9497K0079J2647K0851J7214O974J0277K4479K8487J1633j9113m9113o0263
31655A81737l9850m12K2094N185l5422o9021q2768p8323n5614k2125k000p928j4284J1016N3434O5075L3521J309L744
31636c0632K1542J9227K858N162K7905L6172R087l5491p0828q6455p6461l4850J9906M4064J8625j9583k4605k356
31618a76713P430l381n422J0873J6721l691k1721n245L7255P3904Q5658O6977J8497l6619n6135k8574K723l390k7624
31599d8477k5703m89Q567m487o291J0503R659k6174o2244o4463m7086l9280l4734q300L5991O6881O9814O3636P2914
31580b9763R8335J15567R7605M2170k1118n8490o5945o3227n8316m0550j0706R970J1736J1851K3116L0450J7833k713
31562A07805j1410j2413k0498k9775k2784l901J959j6648m4795o2639o4028n3401l6915j7456Q554M4803P9689Q8158
31544f5695O0109J6192j7112l5813m5983l8136j19N0124P2378M9801P899j6737j1392J1407L1054L1894J2597j1114
31526A01354k2127k2436k7332l8438l7604j3414K0045M0357M1991L2970J5324j4430m5736n2585k2767J9982L7837
31509A2991K2375J135m199q365l4632o8951o9071k1490L4881N2679K6434j1947l1890k3583Q340N0719Q3309Q7470
31491A06205N7197K061n4586q2974o9583l7998k9345n2204o9579m8406l143K8055L3314K9781K8827K5141J5907P183
31473a14147J939J06P599K7122M4014M0917K3306R716l42k4301o0175p7590n5263j0012K2923K7235J5252Q619J5754
31454i7328K4761J8038m420k3837l0129l6344n2288n9897l7815J593K7623L5233M1659M4865K5366n647l187M7057
31436h4697R6167R0486L6938j7026m6758o2092p0026o0867l1630L013K8976M5675N6968O1453N6051M2382K6994J6491
31418A88498R499n638l5971o6037o9012m1133r986Rn034o404j536J011J488M732N521l156j4220j6698j5453k2245
31398a01765l1926k6861l165K5513M9738P2477R4412J06705J01403P8227M2106M703j7151j9850k4401n0370q2558
31381B17237q6487n6444k2930r042o803n459j4742m2368p1144p9163o5892l9658J537N2563Q2595O6753K8238J5067
31363c6142L5113M7965K8427N017J7235N9451R0297Q2734M3049q744n4254p7285p1337m9011k8986j3055R616L6073
31345A16163M5947K9512K842j4004j9576k0920j4942K853J9957J8111K167k492J3609K8720K1461J712o843m142j1970
31326B08165l7173n9287o0888n0182m1550l1151j0163R794P858j3157k7699k2535r054L573K3152N1187O7915N8971
31308F7776L8898K7022J6128q371l1046k2243J1655K9334J2896p881l430J4239J9587J6277K1847K7171O776l5028
31290B01607o1965n5556l9130l9578m7540l5415k547K0118J0823j5238k6854j4632M311J5639K6258M7196O9924P3448
31272A30869N1093J7335j1111k8551l4751l0615k3264k2072k4120j5746N725K4369K7193K1176K0633K8654L9290
31255A76107M6778M4631K7798M305q614r576j9666n2641r2838j14377j06811p1118j2519M4878O1320K7901q376J975
31237f0843M5997P0387N6984L7212L5193L7809K7212O581j7361m6805p6216q9856q6260q0583p4920n3848j8624M233
31219b83708L224L105K7548O3387Q0591O9103M0199R118j0252j1934j1027k9782n9929o3688k5963K1141M2474M0194
31201i6199K9972Q136k8059n3400m2791r742J3998K1874K5944K3470L855k2286l3309k7788j8209n222J3266K1791
31183a74699Q816n600J130J2571J204j8063j2155L768j5735o2033p1901k6509J4066M554j7466J82L9405M9462L2059
31164b36944K8157M1064L4241P31k1234r756R323O361j3069k9751m1935n4791n9134m1239m565L2086N3070N5881
31146b51504M8544M1022L4091J7527j2760l9175l7518p857K3748L6849L6151L5485L6606L1999J8397j097k1951l8869
31128e0312m6341m2078k6351L14L0526M5388L2297P614J702J5623J4867k0238n8907n6216j0381M1017P1348Q2935
31110C2807Q0023N7915K6312J2695K6096M0296L1339J2504J0106J9371J0588k6929p1693j00298j09267j04069q7018
31093a39222o3972m7119l9579k6240R398O1300R8738Q8933K6052n6155j04552q9724l0361K9446O1110O2343L9754
31076a19850K175l1833m3354l5183k6287k1102n996J7587K2286o794m3156m8734j9650J5844L3602K9913J3162K11
31058b67159J3395N8493J07335J21421R3729N2011K1867L383j3723k8679l2105k1954r861j1353k8751m4358l7500
31041b3809r383J9842M0275N9982P5373N8282m507p5595r9966o7629j7938J3964K7718L5468L7522K9234J2550p344
31023A04039k3929k6982j4038l406j6810m8031o7966o1658m0386j6825Q073L0294L9637L7948L8108L9423K8320Q697
31005A4508K643J1598Q507j5632l0046j2022J3883J5131M321J5365M2603M5327R878l0343m2723l3466k7327l1616
30987c9411l3195j9616M767J8649K015l6531n7825l3564J5248M0772K7254N159L589J3410J0046p245j9105j9413
30969a24996k3248l9543n1968l7353L027M2168N8900N9844O1545O0531L9734M087j3054Q842M6473N9507L7028N4
30951A91578l1921n4411o2142m4822n181L5556N7360N5645L4020j757l6886n0234l5783j2584l291r249j6202j8614
30933h918k5287m0159m9082l4323K64K7783K7609J1211Q565K8792M7025L6850L437k7753m4880n4076n4182k9765
30915a76889K3043P9438J06497R4060N8162K1052m642j8030k5404l1905l2756j6589J6863M7092N0382K6831P90r073
30897B08922j2396l2605p3515j09965j14288q5628m8447k5750j8560r800J5209N0152O8234M7682Q14l1557k3523P311
30879a87710K6902K9454L4232M4895M1411J7205m002j569J5080K8121L7897M8324M5557J6453k3737m5628m0034j9315
30861F3536L896J8711J0756j7848l3533p204M0473O1534M5742K8602L2335L6565J9092r574l1830n3471q3580j05097
30843A9105r2280m6691M913M0132N2160M1559J5481r176j6024j866K5440N3142O3565M3281K688k7441l0525k1419
30825A16044j7648j2023P015K4311J3759k2287n4393o3997n7131m2241j9865J105J131k3006m4299l2623J1365N8360
30807a56423Q0771P3435M8742K0641l731k0102k1671m855J9957L3036K5628P435j1243l3178n9603p4135n9458k5129p
30788a59890K983k419k376k157j0405j7765m605L2488P0055P7277M8267J3666J0975L9262N6925L5953K295o12K3735
30769B13652L0779M146k0069j2027N817j268k2374j9631J0761L5053L4550K3739J2541j1555m9312p1238n8095l6397
30751F9072m3681p1743p6466m1252K4J0724l340j1188j069J2285J6424J6795K2075K8786K6942J2942q284k7841l4739
30732a03534k0383R358K9753J7636j8682l9707j5903L4773O2568M1045m855l1427k4853n215Q758J8773K9255L0614
30714A7974J2453j7405m0004m5897l8321k1790l14J6170J8469J3039J6779L1498L5305R082l4992o2030n0878j5619
30696a56481R544K816k6555m6957l1762J5819O1957P0685L8745M19q098J1979K6664J4288p711j1179N08l94j9869
30677e5582k8042L81N1173Q8351R1215O1407J0717l9602o1556m5900j8422j1174k3950l2957k7877j6410p74K0946
30659c8056L4524K3057P73q13J5914J4898j2646k8383p364K1107K1994R555J7294L9564M4395K7017R128l828k3077
30640A65053m0556l5173j5537j4688l4887l7698m351K9414K2007j6015l8487k4469K39j565l5089o5736n2842M221
30622a96159N8767O7845M3383L1370M5068M9094J4981l9152p8159r0631q0532m4092J6868P3904R3207P3871M4876
30605H4509K8339K3440K2269K2620K2963J7303o85l0916o1848p4135o0730m1660l8899l5292R814Q9589J30966Q0946
30587A88593j4503o1694l5063O348J3499L269O011R456j1667m5234n9729n1986m0060k2303J7398O6478Q3346M9449
30569A01608n781m3144n4294n1828m1150k2348n771k847o509j12J6321K7141K7887L1068M0921M3579L3065K7258
30551A15064L9548M9748K8001j8637m9159l9718r102J1446J1728k440k5112m5827m7242k6700r154j9691m9928o7738
30533a54913n4426j7547K5265N7229O3533M2710J6199Q271J6366J8417P450k667o387j5523l1512l4530j6023o24
30515g8712j3484l9917m2627j3749J4255J2781o886j0584J6258N2626O5357M3098O387j4520r664N495J2490Q985L292
30496A0881j22j319J891J0165J4260J775k5057m5983m1930j5007J3323K3336J5129N305N762R229O17j9692l3381
30477g0818k7392r912L205R103J5042K0746J6981K378r553n864Q667J5257K025k1020l0577j6004O081J0245n398
30458h6808j6789q613J896j1365m4309o3956m7577o070L3022N2309N0214L2392P043j5386k4315j2948J5786M3244
30440a02230M3490J1210k2056j7052K4705N8750N1545J9632J793O248N720j9222n1689n8735k9561J2392L1785J4547
30422a8728j8282l0270n186L9332P3497Q2468O8087L6333l667l4800m2500l0904j6955q641n80R673J5777J6084J7780
30403A48518K0458R455k2270n4841n8639k9494M052J0968j0020l0691k4753J515J3453j2060n4878p1364m6214r231
30385b16036N514K8j624P582J4681J5731K2635L8862N0879N0926M8138M5920K8120j3435n1637m9095p510L0589L3036
30366E3304J1228n921j2591k3928m3574n3800l9822j0010J3760J8121O640o894r607O28J2950J5762J2152J4258J9771
30347b7573Q936k3254m5395k2098L5098P2394N4974M897k9959k6424N421M4443O9115N9636J4747l6178n8372m8827
30329E1581l1157j6572O581M1125O4452N7168L0202P467n210j6667k5554j9510J020J4789K260l0704n6685n3397
30311B1189k6378m086p084k4369k8714j4058l184j3495l1985l6226k6041j6765j0785L063K4947L9662L9034L1114
30293h4161K3052J1454l344q736L916K4840L8030L9971L6218K5937K594l0233n3913n0320j9826J8366M3581N0818
30275F8244M9675M7385L8961J8626n470j8171j6910j3233j4460j5936j4526j6579k4442k6073j0051J4638K5640J2925
30257A00243j1643l0484l7932l9146l7438k8885j0449J0224J9224J3300O943J5835L6868N3013N4456M3579K2193q398
30239A71503l2187k5155R945L2463O719n2672r5739r1926n4018j2920J2628K1817K4455L1031L9337L3345P819j3104
30221A3341k751K6701L6995K0560J2603L3375N0656K6227k4136n0871l7703j3535k805o63j509j5924m3899o0164
30203c3502m7683k5427k0548k8206k3130j584J3180N191j5492k9865k9565j7971n416l857j3932j8784l590K2322
30185b77859L8171M0278L6237J7515k8079p2999o1333J3477P8554O6273M623k1298J4431N0673L2068j7813l7631q236
30167a32948L6543N8121M5084R271k4953l2041n946K9583M2404K2396j4474m3731m6498j8556K0826L8655K2260l754
30149B242r547n38o265l4139n7915n4535l0515m191J9158M2382O0645O5211N6120L9851J9881j01r412p41J3483J0068
30129A21142j3031k5781n60M7182O9989M4761J623j6805j1335j8104m8850o8907m5843M379L9767M4427L4982K4918
30111A83954R041j6305m0287n1765n2084m8313m3962l9101l0876j3930J0582K9188L0937K4487K5860L2783K9414
30094C9623J5258Q120J5471K5051L0118M0218N4710M8574N254n1073p8282o5426m1782m0049o4157r0939r1951n5891
30076b97153K52M2706N0161L0501P055l833K226K2335M4228M7123J7916l3419p9622r4548o7017r422M2564N4664
30058b23283K9519N312Q581K3567K2458Q422N559J7799K5111J7182N490L93j470l102k53N828O225J124L263J7296
30038b4979K8944K2591J44k3161l3699k7207j0361L272P090J0695K5635M4985N1320M3003L4304K7647P189l0841
30020A56571o0161n2694j5724J2776L462l5991o8735o2892k2813J4264J9149L198j688J2025K3604K2568K3877L7445
30002H241M8283M0957K2693O673q629k6606l7230l4126l0923l9127m3513k3580J0111K5545J0459j6929l3538k8685
29984a49924l012K7669L4038M387k9142k2803J9545M7885L2308m77q492J2850L5849L8829K1040o215k5433k0369N192
29965A3725K3114J1132j7449k9119j2702Q091P008j1252j7013P469M2520M7842P477m7887p2113n3076j8505M647
29947a06091J7636L2123M6017N1744N3843O0253O4504N4543L4944K3072K3676K2648Q824j0297j9559j5407r756j7155
29929C15562l8315n6113n3475l6511k8383l4391k9369N093M5706N2821K1539j9167n1975q1650r8327p1575n52O4227
29911i4855P8462N8464M6346M3283J9391k1318l4475o62M4096N8667M3368J7194j8578o4595r4665p8987k8635J2900
29893a4599K1962J5049J6247K5450K4328L78l8885o8195o4429l3212q006j0470k2946j7850j122Q71j1368j1577L832
29874a94542O949j1594k0807K783L7315N0204M3095L3921J8562j4719m9204n4956l2174o317J3119L4616M9949L6283
29856e7517k307l1085l2417k5555k6837k2122L082L3641M7294M5463L9483K5841M73j8011q607J6113K2273K335j3658
29837b118J233L8234O7877P3104N8459L5223Q076k2779n0826o0885m3819j1893J0550J4113J1772J6244K3604K6641
29819A92810K9737L7833M2419L3371J6054K564n412j0339n760J1232K1879L137l7971o8151o7255m5732k2883r259
29801A18274j3373m1239p7580q7215n1482P356N0487O2225N4821M3498L0393J0311j7101m0394l9768m668M7896Q0919
29783A33360P0194K5078k5025n5716n7192l3528k016J7086K0402K3360L5398M4999L9466K5973J7139P387j5213m0053
29765B31099m1635j7856K048m127k3717l1413k5009k3717l8029n6173o0137m4849j9801J942J4131K0356K8269L9465
29747d9153M5421L5446Q656k3479m6523n3638m6721l0097p545J3573K1957J4316O090J9451N5767Q8297Q9593O0568
29729B01979K5006J166j0753j7325k1900k7567l8368n2527o1770o1414n4994m6004l1913j0373J4522L6895N4939
29712a00401O7006O5506M1569k414m6528o3131l9721L465K5377M201l7025n6251m2251k3559k5139l4401k1773J8082
29694b67388O0761Q1433P6168N6804L5726J6401n621l0118m1199k1229J9442M3624L0979M638l578J956l472j7380
29676C7947j4140O032J1216j0017k7496j8386l454q248j6924M68L4018M6492L1047J7554K1450K3877J1137m82M042
29657A46133R631m908l2386m7960m1855k2152M555L4012N1189L8443L72l4497m2609k7259q748n96P91P870K6728
29638E6754M8615N7053M5199K3114M469r208k4301l9087m2372k9364r821M322J3310K5371M1222M9983M2151K1482n78
29619B78314j9750m0694o1990o8448m8333j4617L842m494k0168j8575j045Q754n257l4042n4065m8363j8078K0289
29601a46720M7227N3184M1836K3178P038J391Q845K2373L1750L6639M4821N5021N3517L4126R350p412j8257k8666
29583B69241l3563l1184l6111n6001o7143m1806N547L1210K2101Q717J1269J0457r117k1774M99L5908L7350j925
29565A33675m3070n7826n4258m3484j7159K6361O1413O3066M0642K3819K4895L1708L0660J9618J299k0063l4601
29548A86695l2855j9599j1959j9815l5639m6959n0369m7389l5130j2482P744P194j2798k5547q744K6480M8694M5827
29530c6651L7098M2143N3635N1883L5847K3164K1733J7250n922m1577o6289o2865l5044j685K0411K8483K8581J9327
29512A29522j0997o2668j06328j03870n2654M584K3688M593j6458j2286J0367K7121K3190L528j2290l000L4587P3861
29494d5510P8163M1240j266j1811N405J6209P228K721K3356M8317L7864j4294p1326r6514q8805o9879n1841l1340
29476b22083p853P915O592p137j8393j5638J310K3836M1970M8957M1354J9866p052k4951k5697j7225j4609k1348
29458a90186k5749j5249J2439M9814Q0143Q0165M0582j1460l0031k833L0444K7245n633k7982k0518J067J6698J8350
29440B7306L93l5533o3548n2229q614K4709K6619K1221K9643L2230O755k4540k4998l675k427k7799l9249j2438K4940
29421a01234L7561L0405K8524L2813K5597Q379M501K3652M5210M2996J4048k1538m0733l4111r483J5628K6023J5030
29403A43268j7068o1569r5663r1024m1598K2117O0507O5147N7960N0889K6773k8085q7688j04458o3893n125K0463
29386a49047K329k5771l0506j5873j1125k8887m6728l5102L987L8111M4438L5390L6607N1004O0209N6372N2190N4797
29368I2395M8476J6565l0396o3133o5717m8032l0520k6837l6738m4581k9838P774L8762L5998J2730P663L1587N2864
29350c0978M3370J4771n140j1086j5683k2271k4795k4300k3624j4025J0063K9215J8004j4611k9366o032L3646N8837
29332a4005O4164O1349N5615M4389K6759K432k8355n4939n8242l3287J15J8335J5862j33k2154l8303l1841k211K4467
29313C0017K4133O037k435N147J0389J237j3804k2506k1163q884J1841K6759K1435O129R043L5678N4310L6780j080
29294B09063j8611k167K1138K0666k709k3502k3611j0415n563j9295l7479l6742j3106J0055P710j6953l6070l0500
29276h091j1337k882r634j0346J2702M7949O6906N6916K9327k375l4325n7546n3707k2611L292l314k2624j3204K3807
29257a1097M0473J0814k9143l0128O196L6858L4734J0199j4359k5803j9705q63J4965J5805Q426N553N049j183n858
29238E0933K863J3337l99l9469p4930q5997p8868o1708k8694J8046N6352P2373Q0077R2786R5060O7406K3862l113
29220A99917p088j0055k4638m0655m9586n5958n8738m5116j3326J7329L1612L8253N0512N8338L7218j7373p7183
29203C3463j05423q8523m3351K140L2144M7297N1198M2221K2480M738q58j206q549j8022j2252J1926L7378M9997
29185E6798N1729M5426K4704r865l8726m2452k5364q133k933o090r222p334q93J650j0151l1580m0278k2732M837
29166g0609J6187R235M230J2019K2292K3367J6103N237p469j7249j7876j3287j2894j1324Q826M4687O2867L8890o467
29147A06765l1615k7359k1989l3224m0711j8859K0900M1167K7019M085L188K0559K5062k39l6693n2421l6157l258
29129e3780K4245L4532K7675J1719j930q216j5765l6905o7555q4636o8822k5628J9301M1618L3926Q100j3042j2719
29111a87882M950K0583K2706J8227J6077J1343l713k0865k2391l975K1123L9264M5866L9818K4083J3264K2638M2169
29093A03285L8612k560m9841n8375k3775J5236K6839J9521J9607L2044L6645J6714k0136m8781m8378j9501J5175
29076E2331K8807J3544j4157l1726l0523j7605n361l594j3577k2773j3105J5578L7499K9337Q32j9486k5459l8014
29058e7452o4843p9752n6849p166L8299O9692R9445J27267J28771Q6363J7201l8261n0133k0707J9825L7869K3323
29041B72892o783l3659n7674q4015r7376p2417j1718M5610O2516M0588J1873L476J5199K4116P726k9938n6120m5035
29023a0739j4300p147l4870n8609l9343J3665O0305P8796P7342O8391N4590L7388K0831O187m509k291J7644M0635
29005C03966M2169J3662l0969p1965r6555r9339q3966o4457n2894m4809k5869P465M2261O1985N7606L1288p52j4998
28987b6171l099J6077J8257K205j5430k4857k6217j6846L034J7773J3637N676K0921N4912P3632O2440M2896L2739
28969B51579K1299k92j5331j0010J34k948q732j378N555j0042l6274l9970j6568N543J0223J1415K0165K2925N488
28950B12781k2332l9558l7549k0656L494K3753K5916N094k6359m9592n4922m5501l1547k2800k1057j9275j2264m563
28932a36937m06P749K7469M7796M9776L4113J7881J247l7405j00303j45995j28943n3955K8871P8730R5256R8043
28915a17013R6771Q9530P6101N9860M0805J6068j2042l4362m4066m4926m5835m6372l4092k840L0234L8004J6436p190
28897G5071o648J2392K4648K0258J1720Q470L159j0729k2921j9987o134K297j258q740j2144j0888m259J0978L1133
28878I6418M3824M1707L0671J9431R071j202p421r577j8921m3646p1073p6799n1005o420L6653O2365O1345L6871R178
28859A61470j775L97l444j7115k5110k1236j7570j6873k204K8737M2504R862m7230p7024o0508k6304n533Q16M575
28840g3565M958o399k8528n0345n9462m6224p240M7913R7020J16781R6564M6904k421k2598j3678m901j7248l5569
28822D1962l2054o797J4953J9078J3561O906j97j766R525K1737J2603j3574k3167M92L0125K9002m699m1645n3846
28803B2199l1160J7045O0815O5037K3696l0209o0907o4144n5057l9731j6932O141K0908L1363M2723M5062K6548n406
28785E7991l4328n6606p3252p0513l5926J0655L1631K1549J6403M3199Q1284Q7575M6400j8500p2115r5757r0709
28768a51019o5299k3932K8478P2892Q0121M1871q498k4563J180K8432J7267k7198o5074o6352l5946J46K2802L1493
28750a43199L3965L2783K7694K5771L5679M9087M2872R675k5897l4140j3984J1765K3401J2587k1809o4468q1459
28733g9677n3860p964J4621J1970J5693L3139L6389J7885J3000M1382O2532K9056l7386o6621l0924K3471M0799J8906
28715H2411m768m909J3281L2721M0399K8097n119m4797o4806m9809j5024M144j1519m2555n2179k8012O495K1396Q816
28696h5737j9558m7595n8133l6056J4147N9333O4507L2204K873J0127M3036N9826L6333o142k4571k934L0591L9388
28678A11639K3098J3848L0571N4251N4544K5728j4581m9722p1707p3202n0864j7393M113K439j2070k0756j3164P602
28660D374K7078K8275Q761j0611n434K0694L5803J7853j5911k8852j0012J3136R361j9052m1500l6416j2910N531P951
28641a881o9j0434j8495j8759q243M595O778J26J528J8346L5736L6982K5541J6043J2043N224r199k7625m2994m3914
28621a8671j7613L0482O7184O2551K9290R513J9443L1117J8249m817r619L86j654k0247l1101k2262j2115j5066j6138
28602I8912k30J5139O541q711Q800N3249O6148J6194m8083n9640k3992n852l3537o5371o0734l8300l5605m4476k6171
28583a85719K3313O0695M9173o91m6895n4999k2023K0810L0319n399m6710m4459j252L2233K4843K044M199L2961
28565a27557N9533O8181O6093N8373L9728J2962n190n118J672j977j7767l3940m2036m2913l8659k7532r237J0296
28547c5088K2945K4729J6580L592l267P823L2540M3193J5172l5909o1251l5057J0080K0993j2423n1524o1378m4264
28529a42514j8842P597L2855M6104L9822K4677J4737N227j6351m0299l7112L545N1098O2992L0248j4555l2904j6914
28511e89J0463K4836K2909J6280J1877P210K043L173J2864K0517J3496p010k6613l1619j8053Q328L3452L9050J5377
28492A57991k6941o2872p3037n5361j9381K1943N2590N6932L4059N799p94J8092L8509L5091N534l3189o3261p3496
28474A8208n8285k3754Q242J8112J2305J3768K4819J8450k1074o5878p3166l7408P393L2885L9375L2695P137l3030
28456g9206n6305l3610K0541N7993N0785J9798M371J5819L1350K7748Q256o437m502P620J8392K4274K8019L1142
28438A66048L2047K7094J1562j4388l9225m8693m4455m2632m8029m4957k5128p694j1638k2463j3845N993L254k4521
28420a41670l5725j954N0697P5315N6466J1362l8418p3625p4395l7944R765M1479N8385P2580P3767M2780p223l4592
28402D7050k0050R433J5353j0657m5792o2299m9339j9859R93J996k803J646N925o058k3051j8704L311Q817j3286
28383a77374k7999k965M4016O8937N6355K7533O050q78O848K6202M3455L9598J0080k7083m4815k8326J0080L5170
28365F4884J9983k0382m0767k2323Q18r987l9551l8863K868M0481L4739K449j2320L807K6607L4501L2029L1379K8061
28346A38413O403l4203o7768o3850k2589J9392K5598j185k5265k0820L678K3710K6500J4589m611k0960k1684l423
28328b8075J6707J3459j8412n2494n1903n560N5114Q0210M9191o142l3793j4978K3807M8583N0118L5586R700k1406
28310A49712m2823m5757m1307m3480m6410l4997j0562J2715L0474M6590N4426M4521K9038L0254M0422K3585k9895
28293A66506p8441p8832l9612k847J0389J1717J4728J8745J8942J1392q265l2521l5165o01M2809M5597j222n0344
28275A2975n3157j1459L5984O0411O1072M8521K9316P558j0338j7951j4576o974k826j485L283Q135k176l1663n7038
28256E7612n1355j9416P885J2380L348n462j1163r986O864L5008N2745M6867K7963J0126p833k7990l6260j8415J4801
28237H7719L4285K1461j7447n9319p9323o7301l7233j3117j530J0150K5508K8153Q731j5468k1583o643K0157N2829
28219b9971Q1366Q7962O9083M4902K8795P256k7977n0566l4103J019J1661p168k2334j7603r800r956p310R63n17
28200A15702j4538k0773q801N089O215J167l342j6521m2560o3349n7185k1472K9343P1760P8199M0108q436j9215Q759
28181H0150K6797O775k1255k0592r62Q951J1218K4458M0947L5699P354k2103l9609m4672l1106M307M1131N2332L8686
28162A98506K1424O968j3931l7398m6668m0530l4712l4922l3797l2944l9884m3224k2361J3126K5282n95l5145m8989
28144a99794m9243n2936m9690j9118K8506N8005N4346L9595M0024N1948N0146K4093n473j0392J0482L1007L1678
28127C3184J9775R269k856k4323m3979m1958j8348Q082K5941L6161L5754K0971N840J1308L2243M0506K6214R469K910
28108A86163q153l3037n0631l9711j3789j034m021m035N133J2918J6340K4305L6361L6590J4487j9318m2352m0040
28090G6176j7244N289R412j697q978l786K408n95n324j781N039O059L902K837m408k1558l1530j5757J6113L6846
28070E1423L6471K5308Q209j8165m3671m8459l3771k3406k6170k1655M441L4262M4151L7862L3893L4879L1091K3602
28052A50295K1237K0077Q103j1067j9454j2049n034j1866k6246l5528l8792m3579n2558n9474n2862k3014K5109O4779
28034a01923O7142L3988k037j6786j8927k4588k7062j3465K880k264j9612j1145L1930O7568N8592K4638J1013K2635
28016H2577K2586p951m2358m9689l5822k6950l0495l3504l1438l6289n2537o1660m2932m375K0627J2306r472r074
27998c36450J9859M8618N3763M4713M1618M2836L1651M413k6429m9921n8890m2055M150N8914R4085J06272J10536
27981A47683J05361P2181J2456m3820p4089q0610o5895k4739K5704M4932K2890K502J8305M2184K7507j8146m9457
27964A64949n5059o1645p3171o0557j9777J0429Q251L791K8319O2054O2944K4432k3705n5352o3008m7103j7009M876
27946a06341K555j4277k6194l1175l8943m7260m4069k9051j5048r698q976n184R805M0782P5292Q4993N8849K3263
27928h0677P368J465j9745m3014k7250K8430P0544O2043K9536J5221J5144p15l1571m9053m4281l2676j7791J0519
27910a06503M0717M1619J0584j4269o126J5028J8094O522M156J5023K4284K6734K7220J9566p524m3152n6736l4634
27892a9397J444J9087P753j6869l1907k7350j3024o730j2843j7564r525M630J4006K1242L2083L7289K3853j445j8887
27873a4154k2347j9964j2973L266J8664J4310p218k1084j6053q429j1856j5186k558K2089M2600M9166M0920K3009
27855F2202O024n394k3527n7458q4075o8536j7898J9519J8938P236J0036J0908p950k0978M172M9267O6245M1239J654
27836A1624k7397l7756k1855J8585N2984M8041J2131j7405k6210k9517l3041k5407r696n117j2260j0330M858J1947
27818i5821L88j3350j3278j487J6274L6229M5031L0751Q157M150J6518J8197L465n294M76M940M050J0959J7630l336
27798H4649m4376n7447k4601J0600Q475j3015k0874k1612l4385m4856k9242J062J9290K6212L5673L8355J8800q934
27780e6226j9930j6573j3027o83L1406N8647M7335Q632j5623j3115o148m019N642J9337J4776r494k8387k9083k2012
27761d8545j0454J5274M7696O0623M6383K4443O288j7322m5734n6145l4691M510M0248O1007N6620K2029k2209m1849
27743A08172l2825k6710m1249n3959m1285j7542j2561k8280l9121k5489Q551M2901N6202M1163J2480p814j4555j8006
27725h9927k0002r584J5072L9005N0065N0240M3452K8211O188j6720l8922n7655n8461l0631R898L6380M6197N2362
27707E5168M5441K707o0492r1005o5613k1284K211J3368L5321N4739M2754P941j0310M172K6796K8978J0805n842m065
27688G1790J0094J2499j1981m7362o2301m6599j5752J8283N5862Q6673Q8645O1709L5038K5796J6756q952l7942n1553
27670B00703n5417o0764n8447l7065r929K54q858k2332k5848p013L9345R0107J02309O3757J2826j2341j7903k4354
27652A69030k3444R10L2900M3776L4704K6900K2944R164j6335m5373p3523q8492o9085k4217k568k6016m5533j0081
27634h4339N0765O9398L9579Q430j1479m6591q3978o8739N769P4926R1614P6200N6267K0367l5945p5934p4602o0671
27616d8963o6291p3692n0805o576K6342L5525K3459j1104n3200o3011k3093L0495N6148N8889O2056N7358K4704k0769
27598d2528m4296l9285k3092j348K6822M4192L4775J4659O850Jk7455n5640m1918J3712O5504Q3188P5614N5065K3021
27579A67841l556L008L5932N1582K8610l236r956J662M880p666k6482m5872o1320o2191m6067k9528l0418m7676o6347
27560a46800p1014n0075m482M0222M9692J9684j7914l7339m6405n8062n8180k6949K1537M8700L8093J2109K028J6964
27542b68191M3062O0617O0021M7937L6351K2151j1795o5051j01647q3855k0163M0112O0749M9640L4547K8302K6127
27525d1086K0078M412k0289l7534k4461J3807L4516N221m7517o5416l2931N933J1441l955q480p32K519M631J7239
27506a62604K3373m510n0466o2567k5487J3673J1141j6674k7391j3648K662J5136L4728N7773O6869O0638N3887N0060
27488B6593M0003K6438K2933K7799K4560J0483j57l114q406j4468p449O223k154l7486o1606m2656k069J3701n881
27469A3287k8800k7310p758M787o697l9191o9658o8198k5947K8640N2986L2402q293l4264l2913j6537k401M395J0550
27450b20920K0933K9602K8698K2626K3047K9128K5565N478j7036k4616j4766Q071M2423P5727P5041J8338o6249
27433F1090j16626j00012m4882l724J516j2107k1042j9819j4879p246R920L7014N7921N2855K3165n075r085N356
27415a05660J4915Q923k476n874K781K1082M1520M9801L5849Q564j3256k4735l3093l2209m367M2190O3708L1742
27397I9405k3757m8386k9566j791P013K881l68j117N180K9692O1862O5325K6356j5221j2697K4180M3858K3681o785
27378B49745j3057N548L1410N3298O2447M9102K0343J711L360K076k3668n8064p2040o9899q1461j11112j25380r8176
27360a73817m4952j621J3371P061j849N776L8059P9507R9298Q2765M6194J2129j7384m8488o8286n3480p540L2097
27342a160L5303J5867J3105M1668P4055P5887M6017J1423j0451k7769n0543o7802o1127l1429K448K6078L5122K4335
27324A51027p050l7709l6964o556J1549j2894n4198o0494j9262K9455M3396K1502n673j2698j547K553k3408o9665
27306h8636r3402o4699q628K0753R004l549J4969L9090K4018k7438o6044n6774j1946L2941N0954L1459j5998n6979
27288b70905n4270q520L8175M9578L1303J0036l779j4731j9043o434J9145M0681M9300M8818M1287K4918O614o6O958
27269a0935J5550J6819J2396L226j3069k9476l0304j2107Q848J6800J2107J137j4521l0587l6931l3033l3171m4526
27251b01777n3186m4238k1672N468L9701P7974R4286O7374J7289j4301j5905r578o011Q103L2149L8631J6526l164
27233B7669R674L8232M3135J6710j4881l1514l1580j3508K0539M2556J7403m3495p9204n2392j456R046k6223n2710
27215a21999l5658j03K0766L8659P9001J19546J05023K5102o0222q8728o2021k4608j796J3450K7110L1222K3244
27198H7988J1362k293k1485l7176l3295j6714j6399m1372o1742m7183p059K3493K3249l313l7970n5668l5067J6375
27180b54269N8641O1425M0753L2085L8323L3268J0764m986l623r290l9985p1796o6361j8912M1689Q9031J13330
27163E0087J07062O2709q367p0945r0706o1362o847L7526M7434K3339j2815l8103m6598m4154l0929k529K9766L6777
27145a8655L651m3492o0577l6552p115j1466m6590p3621o1458j3213M4816Q6072R5974P6560M7017L1559L7806M9041
27127I9757M2135J1433k6767m9051m1636q492K9811M7070K9780r571l8790l2436J313K2318k689n9067r2712o7594
27109a45188m563M7919O7780O4592M5038P287l0732l6135q653R806n381k2977n500K9981L9137J9789R155J9472K3747
27090A24574R808K757J8155L2219K0999k384j4253j7760k7056l5621k8348r009R876K8060M1416K3816l7563r9703
27072C9983r9533l4773K9839M5407L0493K4580K7539J5087j0899k3482j2417O104J9103K9549L7584L3755J9120J1704
27054A88743J9709K2010q442o6663j14739j19493q2652l2791M060K1395K6611K8100K9719L1629L1119K4160J0120
27037A2595n973j8961k8826l5013k8679r54L9460O7884O9142N3087L7741K5950R095j3833l5144n2143o5687o5828
27019c6087l7840J0927M6929M5862K1260L946R29p732l1755m8836l0640J7926N8776O2056L8251K1061K2543J9347
27001A76923j0545n0814o3558l8466n390N901p43m435q8K337O69K977R777J0270j615j8018k5227j4482J1688L6089
26981B3250L6203Q967j9045k0376j682O345q308k5200k2351k082J9706L2501L0889J1146j9637m1823m2586l0387
26963f4470k1545j9073j2970L759K6212M1103L6379J3033j1706k1244j9493k2113k8079j7579J6131N1282O4845N9781
26945G4253N2515M8040M2346L6874L3625K5667R503j719M903J8579J6435n947l3320n6049p6621r0780q2471m5426
26927b9593K302L3080L4567J8852J0419K1447L4919K0891k2868n8955n3666k1157m406j9727m3842n2778m6674l2311
26909b09500q049K1337L5675K1702q237l2662m4587m5767k9376J1907O2891Q9358P2512L1789M657N281J1173n258
26891a5154l9076n7467m0272j754L1893N0971N8597N4057L5829J0716j6144n0239q9301j08343q7426m6277k2705
26874c32095j9818n615L2474O5980O9504N6719N4422O3528O6065N4804L7067K0611J1406J5339K8341L3881K1638k73
26856B73978k0154l7436n2884n8258m8519l2775k1067j1241L61P932P074L004k961j8260l7352l5821o148K0236J2617
26837e7674j3667k1809j0272q458k1898k3159l126R291l673j3649J2628N9497P9620N3756O494l1657n1252n2592
26819i1600l4351m899J4308J3151R740K5485M9819N1276K5979J1643L7893P8533P7093J7005n5766q4942o1301k0209
26801E8857K292j977j8398k7165j6356J1979M4168O4326O3577M5339K5500K0017K3088O854m0350q3142p2675j2694
26783I3240L6431K9836j1577l7582l0108p665R841J4587L646j5626k2014n343J2994N667k2703m4458m6313l5019
26765g2166j6054N351R093k1603o5662p7640m1825J1255M6764N8904N6048L9037Q785k2261m0042m0519k6162l064
26747a91761J5808J9049J1270N237P07j0565k0596j0559J6398L3663K9517K1168K1380J9265R297J1462L9776P1904
26729I2420P5080M7538J1854j8917m4419n8024n1551l4558k5904k7011k2251m872J3998K1012J1004j4456m3285n1971
26711a24313k7541R865K4675Q291j3073j5582m225N332J3477L0188N1297N7819L9579R219j1009j1745k728J060m219
26692C6367r279l952J0481K0732J3633q390k5009j8764o72l205l7957p2240o5750k3258J2109J6103P219Q480J3911
26673a29441P771o338j4671j3298m71L1463P3154Q5481M1441k7086n5527k0195L8742O7660M9290K439m1699n6366
26655C2349l4246M758L3463M5736M9848M0040K522m9251p7751o9970n2938m7073l5988m632K2972J6928q159j2317
26637a43709J0988L0019K3903L389j6469l1454l2727r172K5802M0167K8577K2480L8846M9164K4530j4268k4846m339
26619B0881J3555J2924Q031K859j9860n7300p1928m1413M289K2371J2778N337Q219N249k031J0357M3051N7573K6101
26600F1043k6991n6743n4530m7450m9826m4837j8032J6261L5516L9789M4822N2443M6401J9104j2323k4339j3138N577
26582b7253J7337J9844J5573N058q822j8017j6368m896J3396L6942N7910N8589K7041k4334o5016p2833m9742j4030
26564d9621J4722K4128J4013k417r422n032j029l838l081J3579L8153M4192J5048l2285n7244l5068J4006M2201K4862
26545D5867j3565l0944j5945P415J6685J3475R001P506J1570K6357M6508N2214L2661M099r719p766p315j5002k0394
26526A52708j8139j7876k5254k8007j3301R140J6064K814p091P658L4707M0587J4030j8951l0728k7790l4279n0170
26508F122n0635k7744o224n704q539J4891O0952R3670Q6543M6705k76l3436m3321l0647n165J9346L1694K4538m218
26489A68552m4036p1779o9878m2534p031K4716M5911M5303J7027k0534l4958j5475J4405K5902J4605n166k2561l4512
26471a2043l5649j9217R871L2616L3404J7997Q121J4948K3019J0504j5310j9313J3794M8204L5624j9485n9067m2188
26453B5830O185L1220J5053j2554k0036o818R631J8126J6644N326j1044k0309j4004Q87R778Q497M437J88j1503l0751
26433B4783m0644k7260l082N762m820j1016L847K4927K8145J4281M912J0898K1154K1579J0647n695k2069l1895k6583
26414b129l238K8910N1628M7738J4179k9388n1470l8330r145P639O992K562m007k5684n7949o8472l5221J9575N2186
26395i3624M7214K7427J7267J5181O737j0235k4695k9012k4515j2578P308K6469K5625l627m1003n5605m2597k7362
26377a91625k8720l4345k3867j456J2546J3693J7052L1411M8003N4802M6284K0649j4452l4097j6169K5764N0544
26360b3983L8303J1745L45N820J6961L5337O2636P8158N6711L998m8457q0753r6386r9041q1589m3719j805K7468
26342a38251M0749L9662K2825m784k6133k7921j6464p228j851J2805M0780O2420N2868J2926k8167m4762m1552m0176
26324i2254m6013m2929k0427J0285L2415M1277L8962K6807J3497J4978L1744M0652K6634P992P559J3212j365k4937
26306G8089j7857K1927M3084J1184l8483m7455j0541K7264L7005L3906M0802N4621N7947M3349J6602j1439l0219
26289C09786l6635l9108m4648m3985k5048q88l319m1098q2985r4209p3834m1743n255L8089P3210P2252L3440n997
26271a1975r734J5968L3687K1668m388j5899n313J0696J4770O187n178j3720k1162k8625l2487k7989j1418K0249
26253f4663O3293R8525R9011N5525r441n9399p2187m7551K277N6498Q7219P6283L4528q626l7718n9808p7430p2906
26235F3430l4767J3544L3267J7011l205M68J5763R848k3619n3047m7828j6571N587L880J166K0285M4326L4440j6435
26216F7543o9376q3686n6487j1005L3245O3396O6012M1194J3326L304k898l1273o9742p4445l2645J3959K6468K0632
26198h2478L4633O6245P7211N2790K1058P739L132j1522k9655l3522k7536l1953m7561n0777k8491J193J2804M339
26180f2351p672j4075j9209k4942k3566r434J1592K7630L0969K3704J9058L3021O4384Q6799P5906M3859K7804L9189
26162C22666M5680J5987l6365p2415p6190o1897m3404k2344l452L626J808N667J7623K2071Q702j2982k7248k7238
26144F0295j4626K49l533l9181q5361r7237n5334J1398N9859P3728O1888L7151J2909L598Q648P583j0809k5749j0730
26125e254K6415N0405L9811L434l7573o3384n7927k2218J5489K5852J5910J7601L7276M4056J7740j8487l1418k3828
26107C3900k4215m1892n6386m9983l1393k1489k6375l0480j3245K7971O9758Q0806N2659R911j3654n864J9096L9094
26089A8219L9996J9717j1222l2441k6849K942L3658L9649J3082l0756o4228o5092l0528K0813N9732O3493L0180j7512
26071F2853m6624m2303k2977j8081l0359l4535j8201m298j6417l8061l3060L32K6636K7234K4353L6254L9186K874
26053h5194n4090p8666m9938k016K3095K0231J0048M634r07j3248k9138l4927j5251K9078P0617P5842M1492j038
26035h9376k1925k0350j0021O011L2434O3001P8811O4249K1071k8277n2616l9736j2603k481p297q97J5156N448l7823
26016c7221o6245m0658N745J2854j8796l5193j3862J1482J5513J8830M2066O4195N4298J7953j3733k3203j4062N668
25998a4369K9679N2464P3736R3907J00163P3721J9077l0536m6613l1941r837k553k1131n4869o8131l3466K5788N2549
25980B07638K3899k5118n2945n4676m2910k2777o037j5105m7142o3962m3180j0326N017J1769K6186L3613J9387N541
25962e1128J3329J9284k170k0228R386O2099P0023K3643j6047j0890J0107J1869J597m278j2637k8831l8261l3824
25944C043k7654k0094N769M2736N3559K7614M493J5694L8947L8149J4990q884k9228m6332m4459k0392p672l3464
25926F815o9832o7366k4706J3534K0856J4483J8093L0494L5573K1850r181l8789m1041j3929R259m54k7672l5597
25908a57610j8164p63L804P340J3890P684j7619m3538n2301m8053m1680l1494j1160J5296L6990M6406M0392K1272
25890b29308K770K989K2316L7590K8956O448j822J4077L3050K9504L959k0235k6143j9102j2761j0341o302K314J5310
25871a26731L2240M4522L3537o034m6053m9163j3881K4224L7833L2802K5043J8252J4354K1184L4887L5830J7747R90
25853A31583L35P81j4214l0371k3188M217K8281L7291L3729J8626j326n502J3478K7978J2690r167M055M3518N6001
25834C28795K2143j6722k3336j4108k1480m2563n5220n8665o4529o4652m2381r075K653j5526l3473k1089J5875M6091
25816f7262M7667K6633Q114J3794M2315O7769O1855K1675k6564n3944n6253n1101m9434l8530m88N6148R5456R0415
25798A88265N2336J5408l637j9573n1044q8457r8297o0959J153M1810M0190K2298K3296L9053L6148O395j8529j6414
25780A09442q269k0790m0023l4049n980J2327J3066K0216M0955M7655K3140q443j8572j7553l2642n7714n6013j2621
25762d5868M0284N8325L1134j3353m1317m1727k6995j3134k444J4702M2345O5706N9563J3915m9248r1418r5018p9784
25744a74332p3032p0394m4391P622M8767M9547K8948K6467M6293N6251L7724R143l964J907J7511L7989N5986N2574
25726A10616J4786m0398p4479o5212l0124o855j1880k6242k5343j1576l105J434K1414N4541O8533M7538J9867J6565
25708F0080K6475K2153R757J4813L0208K0758k0574n9161o6405m8227k1765L460J5653O389n494J0240M5397N5357
25690I9114K4757o668m233J2837J0671m051l470J0888J4870N227J761J1915K1133J5648n061l2963n3078n0594l1505
25671C7198k2397l4277m4326l1375p415R625K9489O3059Q4288O0849J0538j6979j0148l383j3948j6327Q886M0196
25653A43553M7308K7821m331l9688o6300o7635m5711k5907k3326k4491j5592m993l81J1740L9988O1507M8907J1138
25635G3607j7850k2282j3313l407L833M022m232r598l831k246k3674n3641n6476k5832P094K1762L1787M6727M4669
25616b881Q785l6347n7941o4020q0746r4633o4971M909N6990N5263L0881K5726K9585J1403j5619q942L3425O4629
25598a04504N3833K0362m912j6885k1923j8344r767j2872l2246m7541m3097l0454k3445j2511J2289L1740K0730r857
25580b49404k4652j2743L525Q327J2141K4179K9997J2744j6493k6245j301L7360N3489L5895J2403J5796L9562M4076
25562a344J0332l2799m7319l2883j6265j0475q625o970o827R10K5685N2640N3991K7681J847k368Q999K1441K7436
25543F5087J9733n305k9789k3799J5924N7096P1338O1463M0330R205k4849l4926n521L5302M1929N470l8124n2001
25525B08563l4610j3875j8039m9819q0545p6211l8111o250r247k4610j0874L0057N1979K7913j3703k8978j3044M384
25507i5020M685j766j901k799j7491l9479m6395k8471j009J5875J9335J7094Q571j1235l2270l3015r224J6149J9855
25488b18511K360k2981m8651o6638n8630j5552L8745O6565O0275M7220M8377N4136M9352L9744L5636K6216n005m5303
25470a2645n9644l7138q480n027j7531j3865J1725K9712J7558q575j4775R568M3643O1856N6752L7978K0222J4262
25452A25596K1112K9764K4429j595l8880o8805p7671o5463m1916j4047J8603N1962O7233M7864P677j6414q932M922
25434F5439j103j4086n188K0802L0890J5220K84O437K2644L2605L6347L2379Q150l1172n0829k9938L601J0127o691
25415A45918j3511l034J048q889j0303R906L3470L9565K9567J1745j3401l8168m2367k3058j0070k7768n4209m4459
25397a8018R856O8198Q9958P5926N4379M1070K5424p242m9492p4306o6236m4050l9519n2556m6176Q29N2978N4219o93
25378G4549n7365o7747l9795j1232J463O936Q708m6j3364r759J8022M6101M4313J1363k3541l1653j2472P984M556
25359d2979k0479l9411l0280j813J9857K4987K7668L8663M5788L0240o844m3352n6805m0495o251K2277K6696J1859
25341d0674P60N763J4424J1021j038j0896k0189l1771k9768K718M8810O8116M5930Q163j7714l0351l3701j8476J4655
25322a4218L7085K5587p92o035R119R307k0749n3677n8597l7222r216J6377L7829M4948K8408o13j8543j7229r846
25303c8077q228q401m060j576r677k0293j4353J0884L2407K7778L691j2247m963J4714K9884L6561L6744K5970J336
25284I8094k4264l1190j7826m894j0727l0027m2207l5110j4304Q367K8281M7510O3881O5393L9483j0453n9869p8869
25266h731n7627j7722M305j0226m3386n7888l6157P83J7298K555j9866j8948J4215O1240R1746Q4853M6234N877j0006
25247D8549o101p437k1956k8613q613K5517M2381K4801j6672n4902o5605m6874k4662k5315l8067k5226K0380N4639
25229a53776M0707L933m621J7865K9590J4680L983J8145L3617K5202O817L266Q328J138j4584j8824j1856j2824k6197
25210c5411l5537k9898j3767R175L9525O6144O8901M6216K2084J4327J0337j0713m0865m7881j8977J5306J3231k6423
25192D5774n8526m2800R996N4405O4301N1744L4056Q446k7859n3913m5119q562K2573K6738R389j5053l7189m8609
25174a0208m2914k5608r983p09O393R106o65j9756l3928l8201m0010l9189k5317j613J0926N048R15J1749J7673k120
25154b28411k8152k2470J5829M8106M9652L6192L0602L1124K7016K3504L0802M1403L8802K2917Q500o2j4769m0835
25136F9750o2533o2488m6014l2035k1740O658O2470J15295J22560Q0820K7904r464m3700q7118j12144q4282k2442
25119i8503J3161k746l1443k9629n762M582o036j5541j1843m221n86Q11k110j3765k3665j2283J9523M4879M3865
25100a31312K8847K7281M8742P7777R2726Q3849N7692L0322J4036O940k211j7978l2151l5925l2190l0345l2142k9257
25082A24701j6215j173J751q282j4305l745R789J023k9304m8699l4314m095R612M437L542J3787J5460k601k2249
25063h80k2374r037n150j9645l9001m4684l1255j0448m88o666j2644Q01K9808N2226N7337N3187M1938J1271l6835
25044G461o9733n8538j7050J5919K6007L0869M0055L5241K592l4856l8344k311L5626L8378J0987j1295r254J624N55
25025C933q261q289j393n191k2426l3936k6284q312O600J8515L2143M4077M8617M4659K9482L67k8805l0812o95K7188
25005H1177J7582k0424m6850m2404k5310j9110k3963k3637p715J6393K6948P445k9338m5779k1097K0388L9572L2557
24987f3565K7667L6832L8088J3887j6979k2294K69J8150J178m3092p3996o0125j6014J3775J0498L151K0590M2815
24969f9165K9647j3702l7955j8783J2894K1565J3606J2715J8232J6101J0926J5958K2995J3240o585r563P715J5335
24951E5176n729l3040l3207p427J3876J4850J0795J8102K7641K1977P626R991L5891N9767N5909L0167O724n740j7171
24932B66178l0851l5237k4313j0008o556j2573j5871j0162j815k832j7342l1954k4552Q702M0713M1673J7338K267
24914A52805J3597L0541K7206Q605P83J5570L8569M7526L3171N070j6468j7150k751N630o997l4696n6836n5443k8804
24895A59928N728K4531K0211Q155L947K244r341k4269k4613j0099K495P520J3799J8761P001j8571l2636k6713k4810
24876A03268m2699n7700m2403p470J5781K0067K2148K8750L0503K5898K6402L6543M7189M9371M0343J7349k0390
24859B92950o2830r1715r1334n4489J0652P2693R2582O2202J5116j4433k7323l8838m4075l1263j3089j1235j8319
24842D7252r223J3978K3521J2427K421q03k1523o6566r8100q0462l1848j079m903j4445NL2622N4102M7241K4711
24823g0672J3834K4152L2729R409m3102q5594q4061m5639n722J2754J6885K4071L6502M1737L4658K7822L2523L7262
24805I548K1266j0868k7947j2846J5816L3689L8574L0296r048q0787j36232j23057n9741j8706l1140n2811l6669L988
24787d46675K8032K6399J9451J8728K0518K2379K2786J6346N755L733J0310R490K981J8522O0716Q3367M6785j8668
24769d9045m7046k1711J5667L2551L6093L4960J7710j5120l4916k2867K599J5904J8910K5360L0935K2058J410j6476
24751D6976k6095k9350k2368l631J0838J672k4254l6582j7599J8477M6488N7079N5102M3102K0024p005k3092k2948
24733H6834k0445l2524n5400o5339m6328j0651J3675J1316j1019l8779o1815p2670o5537m3237j6729Q508L6872O5391
24715c17877P3333M6538P837K93L2253N9073L6915j8349m9394l1001M77j209l3283n3282l3843J0838M7515N6026
24697a67140M0522K2461K2566L9649M9745L5907J2283L839Q958L871j7425l3007k7969j4215m350R420L2552M5853
24679F3520L0585K091p715N418J6132Q856m977j1084j1806j5495k3903l6994n5450p1150o8232m2062p233K0066L7670
24660a71763M8751M8734L2387P764q330p611M237J7652K7403L0805K5090J1145k251k983J1975K9733L2219J5920m147
24641A46730j4010j8054k9037m6119n4981m9401l9454l3769k5604n916J7700K7955K2965K2595M3223P1245P0651
24624A06719K0346n9218j20450j28349q3638j2928N2023Q5117P4288L3708j099p007K59j1440m3670o2201m3408n960
24606b06908J6787K0485K6585M2931M9743K9139p246k9623k2010M272K4888K4563P516q868j0907k000J061j3599
24588e3191l9330n6638n0395k0376K0937N6446P2899O8493N3750M0673L0848J9594J1023J7904M0783N7713M6528
24571C17661J1809k3038m6538o5552q0595p4873l9179N342K4629Q033k2723l7899k5319M624L0712L8104K8635J3593
24553F7426k176k0060l1293j7613K1123N4867N5240K8801Q95k2175n0542p8003q3398o7497n7327o2931n8966k7237
24535c50866Q774J7542Q066J4016L9819N4915M0666J3916p09L168K1504M8284O5417M9085M323k6359j1689K4578
24517B4450L3278M817k3158k2300q901j2883l4620m9926m4748k7862j4852j2524j6139j3348M971L1172M5375M1254
24499i5944L6970M7768N8557M3529P871j3703k742K0846L0268K4613J6647O154j3348l0220k0588J8243N6581O2908
24481B54410L7759R834J666O540J754k0646m5017n4807n1966m4721k8242L202L1132K7195j836j1197K2634O2220
24463A99914N3818j558m9889n2703k5978o263l277j203P780J1013l241k4438k9013j0403R616Q093o948p423J2490
24444H0387K6200J4922l790l948J0978J9323J5309P516m526k4055l5738k2228R81O84k1781k8572m995J4756J252
24425D2675k1339q999L8259P6660P5536M8291K7102K6763L8157M5062M0794L0625J9421Q45l3381p5228j03998j10076
24407A57169j01455q4083n3324j2187K0269L1425L0986L1075K5089L107k3423l1571j5907P952K3840K6046J6229L449
24389E4686K417J8630L9484N0372N1820M8838L4082q26m4594p5450q5580p8197m8257P662O3194P3740K8497k9347
24371A11171m8622k3113J2561K6565J5045o839k1798j8756L036L2492N2519N1188L0851R162P088K6900M1538J7089
24353C18077m7012j06961j13459o1204O356M1577L5695J5711O476O611K479p299j3127j3761j7394k1447q670K6006
24335D8654N7077N1961Q658m1705o7180o0162l4220q211N644P180M398P24r843k8709m0451k7046P424L8393M7546
24316c9868L6977J6486r140l4252m5820l4514r130Q798O051j0191k2011k0392j3448j4685k4636k7564p462L4670
24298b10131P9410J02157R0266N4078K0676Q261N203j6154o2667j08175j22248r9439n5050o387L1365M4492L1694
24281b12649R370m908p006L027K9248O3171P3659L8193k0185m9686k5155K8559O7429O7882L8507Q370L451K2158
24263A33435L6584K7609R008K775M976r69j0292p100q78j6467m7129n5279k8674l01K159o145k82J2388Q135j4968
24243D8585l8142m6722l5517n009K9157L8655J5145j2201j1539J0703K2871J0698j3961l7484n4871n9736m4239j0003
24225a93610L2584P2564R7008R1241N4787J0076j8327k6676k3903j2689N444J7269J0038q690k0078j7957r726j485
24207E7870K013p584k7767l4472q742L0666M4912K4437j450n756O568J4700R570j865q663p610q049k0966l7777l3798
24187a3763o153J0538q349l0849n936N9706J04801R6999O9604O0528N7178K9911j2656l7225l5105k4101j2991L654
24169C05791J9931J7202r064m1999o5068p4428o9542m8918j8214J1143L3638M8531M8398K4471j4200m2751m8207
24152G6714m2305l9619l6319k2591n476j252o986J655L6089P1150O9903K8360j7795l2967j7525j15l862k6778m8277
24133a7996m7649k1529J0344K2251J0292n434j1372j7362k9598k5040J9743Q2296J09210Q1318L5646J4134J7512
24116B26766K2829J9727R002j2965m3426o2156n6591m7048o0521q6201q5340m5373K125K3146J8506J0476J0894J5392
24098a40758J7842J7855J8030K0034K0896J2937o081k3788k3875o197J4263K7922L6048L4877J3866k0795l9354k2344
24080d8622J0095K2084R731M711K8834O2832O7953K8391l3494p6431p1463k4298K6375L9895R769l4362o1613o6648
24062a06261n8645m0637j4449O016P898J848R955L1337M2568L6722L5900N1660N7727K5307l0881o8600p0609n4491
24044a37635l5881j1967J6296L4562L6854L3584K8658J1803j4846k7180j4110p42j4156m2294n1214l1067l18K5047
24026a94606L8917K9920p806m7906m8998p791L3098M2439L7943M8946O7406O3341L3231L497q403r707r959p400j755
24007E4407P18K142J4396L6070M4514K3712j2740m0452n4936o6491p2374n5965j5054K8504N5012O7935P8478Q1488
23989A69364O2174K2407j4868l0151k6212j8164j2857n795M656R232j821k4522m3610m8672m0861k2528Q172M2832
23971B8776N4242K3215k6506m3560j0195L0216K3742k8743p5934p7657m0595M110L5583M9658M8769L6884J8025m785
23953D5245k5241l2090k1568p548o293j4678j8784j9172k6493l4339k3255M040J9786J3367P831J9462L0862K7015
23935f1853K9005N8164Q7913P2582J5921k9982l5291k4361k8715m2824m4265l2465k5476l1102l7610k6616J1609
23918a45366O5184R9036Q2701K8549j3862j3790M190o126n3669j00890j06468o2595M933N8046O8932L6674j1660
23901f6181m1163l4522l40L6983N3062L8557P330j4482j4176l149K730M618J2806K5176K8718K0184R538M08j7186
23882D8911m5846o4640m8602j939M0626M8873K5141o864l2375n2497o3011m4093J3926Q0597J00864N0290l4048q8003
23864g2690q1804l9029M91K1630L3807M3970M4612K7843j62k4336l5080l2897k2548q402N682J7227K6445L3214L3238
23845b8789K1475l83k3514l8464l8727k1705N603K4201J9208J237j413K1008M3422L6814N692j9401k1074j1442j0243
23826c6495k0571k9523k2905M117M3047P4369P9197N4054J5042j3279j6049o66R667K335o653N626K9801K9151o763
23807A93502l9051l2081p833j5438n7897q5630o3208r194L6272N3683M5017K0753p50m396j625k0080n7388p0426
23789a15770l0091L3621O3604L9019j2613n3914o8305o1117m8082l8719k2772J5908O5263Q4894N4993O233j8114
23772a05962j2046K094J3063K3342K6952J6107K556K998Q874o98k0809k5854j0255O672J5423K2485K0065j1820o0825
23753h7638p6287l0603L9072P4129O1081L2904J9426K0268J9631P177j4694l1590k6945Q81L4103N2102M6904K2017
23735A61938j1887l7271m0532k8342j9280j5568k363J8413J9154j1702m1720l2544R423M5154N3375M1899J9006j3683
23717A13470m0653l7938q883J1197q08k6201l2085j2283J3417K6941K2348j779m1128p7804q8410o4940k2075J7114
23699b50500L8952M4964M6123N1314N7746N3539L2882O665n874N167L3228O1517P1633N1367M282m8141q2198r1579
23681H1087q4539o3376k1821L0475N7891L3709j9380m4911j4738L9517O4976M4350L271k7368l8755l7090k7773j4445
23663c8920l992j988l357N866L2466O2163O8734M3356R468l259L178Q24j8176k5161K90L0807K3261k0868n7134n7211
23643E0347l5902j5794K866K2965K9201R443j9479l1330k6753k8277m3855n6204m9529l0428j7663k0962l2431l2203
23625c25988m305M3692P7995O7262J7484l0354m1759k1609j754k403j3464j2320Q198L4047M7997M5984L4577J9956
23607e6764N768k700p49R881K3328L5936M4111M0080K0117n398k2474l3155n0044o9387o6804k8547K5839O2145O3718
23588e099L8092K890k4913l4938l0151k2919j8306r094O904J6371P234j3608k9528l2724k4831r275O882J4174J4157
23569a48682J9844L2161L1765R619j1438p239J0485J3984M501N393J6379J1509j3238k6458r365J2700P274j8255
23551e9061k8992q710K6473N3100O2153N9098N4489N3700N0296L3115K609k6592m1437m0376k7379r215l04j2792
23533A40175l5161l9153j8445j217p629j3434J8097P7038J09292Q1802K1287k2614l4620l7909n0921o1415m8936
23516G6237j8622K376n02j3564j8136j3570n271J3999M8140P2566N5943R066j9564q234Q199p656m0079m8075k8828
23497F4425j7278l0487m7763m7113l0057m656K6740N2144M9081J6195j4066j3432M943O038j9317m5413m6549k3246
23479a19811P829L5184N6571O9902O9544N2729K5747k17j9789l5592m7253m5414k5821m239k196j6015j5814J6368
23461A713N9734P7215N6046J3921k7594o0065q1094q7011p7687n8256l1773J031L0934M0277K3722K662O563L8709
23443g0953O9235O6744L2256l638j6200j3224k2515n4957q6753q3167l7939J6951M2601L0426N976R7K1804N7757
23425d5499Q9892J07447J04897P8168L0362k0671n0034m7533k7964j2645l430J4080M0632N1848K7777j6038m2824
23408B78465l6070j1516R600J9306J2374j8609o3032q6447o6891k6502m856q014r115L290P394j2983l8280l8910
23390i0796j3305J6481L2031K3524j6746p9421j24000j10040m7866O026J4456M37Q518M3129O8122O0610M0148L8047
23372a30645N5852O7847N5935K7588J403j0982n402J8081M7397N6198K6739k3650n4517m8022l0156l4575n5058n2288
23354h8255p433M9356P3046N4322K3258Q533Q870Q080L623O335J5976J3386j5362n6164p9562p3504n3046l7614l0392
23335a76547k4493j8223j3963q140N555K3204L1229K3262R143J930R21m787j6413j8112L679L7277N2662L4537j17
23316e7396k3278k5577j5097L125K7569M3484K9694r557l8814l0293N387L9461N9739O7668N6206J7949k9579n4557
23298F6134n1419m7782o2237p5399n7236r546L4941M9790L7537J6946m83j6258l0981l1976l654M6202Q0786O8952
23280A4317K2610j5764k3714j9844k8802m3332l5767K326M6895O5623M6947P892k1142k3256j0702q022j8596k0790
23262f3121k745J6454J4357j450q078m436p801j7684j2608J1731K8735J8920n01k479J0117J2896k373k0562k8562
23243e9190k6551j5213P024L0576L7942K7606J8373K1364K3687J1737l553j320J8082L3136K8078O009j9960l4408
23225A03419k3981P734L1955K1098j5198l9626l5293k2502k1420k2429p514J9752M2872N3334M5503J0832l8667n9644
23207E0225k3004L9064O4992L8500k484k8755m9741p1549o9474k9189J6644K6186M190j0977k951J0660J4570J3317
23189i776J2025O264k999m564N505J6285J8125J4558J2793J1962O143o508j9701k1274l918K0307K4587j256l1359
23170D7199l2754r405L289j1816l2414l2620j8155j0679j2468n961J7449M4430N5581M4623K1702L317k712n431j8740
23151D4435l8227m0436j4661J4987J5679j0364k7925j7373o33o343k5403k2578J2513M8151M9537J8411j5680l0497
23133d6407k5626j2696o447j8854m4929n7196l1925J8317N5096N8851M5667L6891L3320K7344J8663N677j7641m0729
23115b624l4680O676M4410M0517R491o981j540R04l384P478K9324K4184j8816n6667n1589k2665r563j3860j0771J958
23095f8198M607n505r765q1J2438J8788J8692Q648j4351l9493n3050n8442o4306n9803k9422J1072K5855J0099k309
23076b94526Q210J8370M607j4383n095K8571N0222M1284K0020J0559J6060K8846M7969P2525Q6144O5142Q397m8791
23058A44131o2876k8156J4016K1034j892j1244J8181O1822P5031M1121j7729o6858q6074p6238n0034j8250J6420
23041b7595N1519P5262P3653M6976J0225k2634m5107n1679m1011k6741k6416l4913k9208p209K599j4560l1329j8706
23023a16874O528Q417q086l712L0416N6035M5627J9927Q557M977j2119l5284l8710k1109p033p376n680J1800L4595
23004b9104M4772L8556K1767l378l5159o2149o6421l8290J2109N5278N8967J6492l9166o1467l7036J687J5326j222
22986a08438k2983k7579j0765K0405N1540O1793M0304M566j3480l062J9186M1124P0569J06359J16769P3449k057
22969D17700n3235n1767k4108j0995k1952l9820n1739n8990o5495p1607p5614p1010m6540P58N4297Q7855Q6404N4676
22951E8818J1989j5505q257K6646N3273M0635l41k7532j8317M616N353j9942m2425l7976j0007K4413N4804P4651
22933A74896P0234L0526k9206o8899o0870k0060J2782J3452j0978m2867o9075p3938m2151J5472N5777M4354l235
22916c786l8679l5131p846J4351J7745L554j9149l2723j9938J5855N0057O3062N5989L5308p57m6324p2453n0820P630
22897f4055N5973N9878L1806R869J2015K2746K2163J2941R840J2418M857j7093l6938m2984m5748n4290n0526j2896
22879g0024L9906N8856K5537k1100l1506o16L7178N1117L5540K487k6403k7892K404L7727M3601J4999k0398l4949
22861A16464k5595n808J3515K8451L4752K6141L516j7676j8193J355J6237R261o67J7699N7743P6297N3387K1307
22843D08186J4942J9609j942m7873p7033o4305k5364J1931L1391K2213k0495p7933j11944r9752n3559l379K5710
22826d9597K1633p938l4173l2118j0172L613K314J939M118p925k8263k1562K2327O0655N2342J3395j2635j6301j8569
22807e6917k3142j4082M456O421j2839k4212n857K8486N2536N7958N1544L9794K8295K3802K5871K3374N427k8343
22789A82572o7157r1017p9248l2556J5992K9713Q590j5801k3238k0064j1647R072L4078L2630n392m2339l8412q196
22771a22420J947j5979k1903Q786M9217O4133N8311N6773N8019L9386J623k3942j8202Q88P591K726K621P679K812
22752A60066j4544k5724j4391J2471L1778K6336j718l3181m6659l6524j6138o14P668J0684L513j3747k3184j1155
22734A4937K230j4772n1357n5878o087N2966O3892K5012k2138n0177n8422m5659r785L0341M7985M4843M5445N5842
22716F9218N7009L9589J4787j0532l7596n2311l4254L663K2233J4139J5146L9930N0373J7336k5642l0057k754J5623
22698A65900J7394K2377K2142j2593o9053r2006o0484j9419j4135l1356l1758j1206K237m350j4453j0138O844K1452
22680a12605K0428K573j8333k3656o974K2898N4216P6617P5217M0322j0337l8734k9299r952j6112m6135o8387o2809
22662a51062l8157j3611M94O185J5321M0871P8718J01831Q6143M0387l012k5679l7261n0516n8973m7994j7182J9010
22644e4487M7573O3540O2955M1961R108j0350L943M0166O1743M9370K3361J0885L957k5044p0729r0889o5854l0699
22626G0510k6051m2011m1522k1505j1400j6224l541M0984P9902O8925J5127l2841m1967k2284k408M206N589J3434
22608C6923K4661K3388L542j7244j8360o919r192k9952m3091l1856j4738j3689j7378k380K1858K0298j6471n5844
22590a46444o4574m5789k5991k1244k6142k5152o165K9573O5032Q0937P4655N8541L9300J0964k6973n5812n2052
22573a37336j3149L4801N4554K7959k2613m7641j9166L4402N6466K5226k7780o1804o6458n1346k3351P635K1200R132
22555a99269n865L424L1315M8971M4703L2683K5559K1006J5669J1839Q294K303J784J6505L5419L3138M193k8607
22537A03064m6320n4308o0766n5206k5736J4347L6108K8735J2007J3838L9388O3174N5424J9968m337P319K7829J3931
22519A88459k8824n2271l8097k1975l0965m0404k2239K476M40j4208o108J5412J2477o882R049O8497J07006P1430
22501B13273q704o4625p1809n8114n1538n3189n0359k9717J5153O9307R8194Q1807L8286p96k5258m0084m2210k8811
22483i194j6372k2782l5830k6648P211L7585M4533L4676J9288m52k1136l4501m4297o1778p5111n0263J9160Q5185
22465a50726R3862M8268p88j8520j4644j0563p353K575J3557J5000J0894J2215J3946o22k8643l9828j3684K7226
22447d7828M0708J8128o240k356J9874L2576K9070K3424K3401K4411K3535J8684k779n1940j12157j45030j29320
22430b43839p9632k3199K4957N8824P2696O7026N0026K4948j0789m6262n4542k3696K2540M9070M4012J8314j3380
22413f2926l4897k7184J0837M7804N0255K4339M870M891J300k4740n6620o2872l3843J1960M7091N4415L8737K5235
22395A8652L5492O0835P1834N7419L7275K7510J4116k1990o7506q7132o7781l2977j1608q035p707K66J4155K6252
22377E9070L0606K6001J6516J0281J4800K9383L9906K5226k2837q3857j20446j10848o6346j4061K9858O3795Q5774
22360A2821Q8641P1045M2896J4621j3175m3178o7582p0020m6347j7541j0469k3950k6628K183M0551M8293J6737k5066
22342f168n0867o0246n7863l7590k140K4746K7280K2195L1557M5216L7209J0024p696n079k74m409l524J3315L2027
22323G713L3123J5540r433l0801l5246j2326K3906L7026R210l3775n3878m2691j6345J4637M7658P1518P2670N4707
22305A53213L2995J4569l4m374K600J310k5449n8285n9952l0058j0141k5568n0864m6854q532L8966P0299O9887L4435
22286I8163j3313l1720n405L0105L2625J0099N609L2659N5879L9400j0296n6833p0860m8802j1059J2294P343p678
22268F8210m274J7480K7960Q590k4857m6190m7797l5144r129K9306O5632P8087N6485R221m2284p1945o3032k3399
22250g080K0130M8621O3622O9420N9180L0415r29j8562k7274l9039m8046m0633k3624j9311l2374m2826l4402j1380
22232e4092J5629M1050N5731M5946J2011k4981m4341m4079l2551j4723N072J8009J8572J0738J068o117m438R242
22214G746J9531J68m9593r0647q3585l4477J4950L5518L1487J8994O263n51Q455L3519N4196M4517L0n5946r4137
22195a33562j03057q8484n5940p190M2671O2316L6846n038j8947J428K1548J8201O791Q245J7911K4419L3214M8734
22177h9894N5111L9983J8351O516p439l5294n0665k1524K9413M2849L522l8864l7013K154M1438N3464K6856l0718
22159H246q0257p6254k2283K7521L7776K9579L1716L3194J3438j4464k7063l1265m4669n6307m5199k1393r891o684
22141b54259R438L0820K8740N285k337K5922O8999R7279R9625P5352L0396j2242k6234j3939j976j934r1J2073K5036
22122A95953L2752L8954L6999J2378k7743n5940o2738o4765o8039n5772k3655N661J7095K0142J7855m234l8973m6800
22104g0870j2602K2215J8332l241n86K0727K5243J2209J1269K4362K3387M587l517P025P151j9724m9832n7270m8357
22085h9492l9452k6801J675M2107P7569R1837P2975K1630l5839o1709m4524o592L0213O2975Q4875P3565K2624l6412
22067B41224o5758o0859m0011j1232K6406N9100O2664L1185j5181n0561o0072m1619n924K6379L8453K7216l868m9912
22049A07630r2177r6333m6062K7054O9777O4532M2019L5196M1167L6402J2179j8895m2102n2577n0748l6959j4245
22032a4142P514J4830J261k4442m3914m5067l0303r259R905K0346J8031J0181J2208K6323L2982J7268n133o779J2081
22013C891K5147K1178J8981L3500M9516M3724J6306j5109l8846m9236l6510M41L7564M5417K5589P601R398K2302
21995B20854L6509N4171O6832M8735l851m7894l9787L392K2006p493m5388m8037k1969r93K732j742j3075l3296m4044
21976A47662k1522K3689N1642M3884K2123P604q776l7883n9713m7863j3191O397l193j7528j2868L072J0124Q841
21958A02501J8556M7128P5716P7305M5281j047l7882n6828n9848m4635j0817K1850K3348r160m1538m4035k6861j7498
21940F1536j8164j0403P726J7840J3002N699J294r350k3838k2010J423K1517J6382m414k1461l4758m9328m9989j9958
21921a17254K4451M7672M1471K9774K5077J0285k3654m8868l3600Q587K8998M543l2417l4977N13L3600L3241J2809
21903A0251K123O68j8392n9925q8776p2912k6572Q566J5563J5014K7946M5434M1786P915l4318m8621j7290L7663
21885a53877P1427O1093K6781J024j0106j8715k0227M830N3058Q9376Q6612N4599J9637o194k2631k6722j9654j6456
21867A73855k9575m8515n2250l8151k4030k3787l3960m3077m2538k9084o120J8203M0994O7069R2652R6171O2207R855
21849A89919k2379k0131l142Q912J7698K6421K3564L900j2786p037O925j705l3615n5205m4632j8405k179L750J2689
21830G2562K0372Q541k3898n3285n8202m0632j7047N5Q417J4476K8589N1165O2162L9936m173k9388j6524K940j0220
21811E5846m5602n7450l0216L341J4179J3839K2585K9135J0268k4700l9772k0408R314K1721J7287J3076J5067J5076
21793B2586Q225J167K183J0131J6609J5887Q106o688k9350n0962n0635j8688K1208L2381J1788l951J0539L3172K7829
21774F1537l244k7257l2041l8127n7164o7530m4910K190M2750N6741M4998J6112j9396m4236l9443k642M2547O2501
21756d6614M3631N675j9602k2402j9283k3458k6801k0072j2257j0400L190M3384Q0637O6277O191k9421Q494Q1513
21738A08682J10902P1776R659k5801l0809l0214l8341m8100m4662k1239J1973L2340K5716L570q171K477K2633L0900
21720A83291J8415l928j2629R729N3392Q1784O4342J0254l8971n1507l2682j1001o308j5467k3127k1007j6331k1724
21702A66525l7813n0352m7192l3402k5010l0867m4647n2245m4389k4688n508Q505K8964O4002R2917Q1951L2614q822
21684G0543p397J4199R760k3293m1555j8290K0555L0776l1m5865p1222n8570j7748K4446M8108N3801M9596L5115
21666G2928J0605j0014j5943k1105m3568o8465o2563k7398k967p348p387K8165P4917Q3283M6864Q894M809K4408
21648H8115L3994J7929q894k2087j6339j0924k2755m0092l8151j7589l210j094J1965M2102N4689K4650j6443k0198
21630E5668R116K4779P896j4315j9613j8354k2189k3255j8827k3121l6110l0847M512L7100L0076m262k1785p281
21612g0812J1591R105o922j4656q445J852R481J6239K3220K5302J6766r95j9603l0906l1715k1364l43K4154L7312
21593c0739L0947J6381J2684K2393K9439K1634L676j3639k4754k7209k1048j4413j7056k4858k5099j9781k3806l3010
21575a38258j9042K6988O8503O6136L0002N01j1206k9393o2914q3839o6174j8140L6012Q1793J07619R5687M2698
21558A26973k2357o1776o5687n2110l9033l1616l0034l1994k8749j3687M219Q496j832r260l61J9994M0738N8833
21540a29243P3186P3917N0933J1488k2438l7332l9710l9488l1630p459K0026K1393j0419m2412l9170q957Q764j011
21522a49562j0564N650L1182L0715j091l4565m2886k5444N573M3171Q3285J15818J26674J06981N9965K161m4156
21505C02907o5859o6591n7517m5153l2138k1240r495J3094M5614O4254M6554N397k1034j5606O83L200n549j1440
21487A30081j6595l2564n4638o1986m3153r430J7631K4883J5263L564L460J4282K2202J6108j876k1988l5023l4244
21469f4023k0475q173j2056k1738o757M1017Q6115Q7974M8742M096k3176l8623n2280o3396o7871o0601l2386J4790
21451a88821N2395N1057K3168J2648L6416O3389O1273L5964J0026r184j8931o150K7331M5672K0171k3361l5244j3239
21433A44580k836k3924m0047j8177J7257J9563j3466m0482l4403r292R426J4872J1893J150j6757l2368l5748l0613
21415g9372l0943m3221n7223n5806l1831M791L4774M2899K6124n487l1313k9110N937M8084N9812L3411L353M007
21397a01114K5825L4604K6903L3777O3060P4090L4687k4723m9852l8214l2712m5087l6467J1206N1155L2143k7560
21380C1721o4532n1276j6189P532J5252J3397L148j0075j6398j8934l0276m5820m3166j6212J1552J7663M799j5229
21362b23043l9279o0131n6913j9338L1377O5209P7557Q3782Q9161Q3924O3463L5359P642j5198k5413j5458R355L1322
21344A23378L5793K1792k70j6150j7198q597n290j5561l2836m5016m3577k3380J1495L7770K9020p044k7613q383
21326H333K1356K0573l501q389J9605M8844N0882L3352J5578j492k5619n1080o1127m5408r540K5507L5922K0730
21308I4526J1322L5409P2913P3371K2212l7034n7513m0152j4469N684K2290K7475Q287k7483n4137n6734m0761j6985
21290B8221N611J5045N423o956L562L5340N1872K2827l7583q6023r7789q4970o7923m5811p061L9890O5126N1773
21272a09426J9049N25P022K2124K8130K1653N304j9709m7249o3327n6178k5907J4430M1849L5771K876j5797J4268
21254a24592P0384Q7610L5443m1784p6395n0962k061L2710M6116M7411M3844L9618L5587K4436k660m0850p0885p5483
21236b2513n2283j3746J9462L0076J8579L795K343J1843K1005K7990L7001M3161L5404J2303j7475m7781p4387q4229
21218d9452o2550j5040L0464N0702M6965L5381K6984K2106J6280O253n201q985q23O941m581l4289n5086m3945j1824
21199d9700P995K08j5607j3125N949J7378J0992M399J2687K0873N461k5176l7120j9035K478N810O507K6061M9249
21180A6284M2070L252l1845l8878k9453k2758j6163L092L2641N5884O0737M7329K2042p485l2743m5730m2568k6621
21162a0913p036R506K4566L8487L7851R301l0003l8813m709L0893K5650l631p523K0572L7215J8586n883n078N411
21143A44449q273m6371p7800p8644m8310k575L0546K4310j5309m4066k6898J8858M7149L8617J0867j4467k7251j8181
21125i3349J5879N2542N6937K3245j6782l4269l2544k6239j2285J8387N1311N4188J5792l5205n9164m6930k3223
21108i1709j1302p869j40O404k423j7132q577K7576N5857M7813K2485J6159K8965L2928K3232K3865L9578L9286L112
21089B28108m2266n6654l5801o617J2539K3388K7566J9584J633j2953j6327j3436p899O863L2354M8785K9210k6147
21071B11930p9797r1805o2611l0987k7810m3608m7953k8651J017K4862L6720L5249K4056J6893K4847L6061K6657l333
21053B1737k3911j3705J3255L0416L0873K1890L893k4741n2021o1741n2838l3113l008L3528N1158K6150k1026l6173
21035h9377L235N6348O8846L6749J402n817Q874K3802K7852J9749m53k7179m4637l8154j1095J4961J9324P26k3176
21016D1980l2964k3130l263J1025P007j8162n1683o9147n4056j5662J8833L1666K8833K6910L3850M5269N1172M1899
20998G0377J5504j4830k8520k0126p391q346j6795j1289J5003M3963N0722K4400k5378p2188q6270n8055j0223K3422
20980a16020L1194K6051J8782O675q216r884J0344L6936M8125M0930K5818O541j8781m3148n4906n4773n2999m9344
20962a56675l0932P206N1681Q3122Q8335O1019P287m4830n9061k6486K2216M9980M9806L9512L2003K5460J5515J23
20944B15281k5802o5023j05014j22578j05370o1655r255L5160N6687M7499J8994j803K179J9974K5621N664k8967
20927i8408n2472m2776L94M9177O6521M0451l449k8652k1526N479L3625M9567M5753K5419N297j130k576j7769m4418
20908H507n8104m7145l0588l0344l9656l4359o954K5682M4238M2983K6181K197j6649j8983n016J1002J2338m363
20890a19033k2156j5823J9850N4276M8434L513l4713l1197l408J0047N021Q721L1023N0629M9253L0310J256l3077
20872E2926n3872l6966R307M3679M4096L1880K7331J5083j7959m1079j7363L4612O0009M2127J6519J0556R631o320
20854B24197k7935l5528k7871j4445J800J7223J7990n382m1186o5078o1157l2407K57Q907j6838n2552o0140k9822
20836a99967J2155L7805M1471K9132Q014n797N911L5999N3036M4808L8887O0007Q6433P4718J6942n1157r2979r9673
20818I5745p9716m2997k37L6077N6890N9326M6330K6680R672l319j4434j7767q360l168k7000o7412p3237j9722M9835
20799B3186P4619M7307N059k8928n6294p0745n8874l0752j0130M910L2890O2361N9779K8717J2440K3643K1579j6769
20781A23998n1332m1302j1773j2131l7484m2591j6855O414J0178J3647K6777K8221L039l0359m6429m0984k1483O547
20763a33902K9801K7714J431j5805K348L7891M9409K2818j6755l9284l8382k5252j0486J071O056J861j0153k3484
20745a33103k9066j9833M698L5599N6059N0477J9129j5886k8544j7569q066j6398k4787p009K8422M4196K4959j909
20727c8631n711Q971J8569J7082J5276J6050J4438J5433K7058L7659K5338o852k9531k7487j7762j6926j5211n86
20709C7177J3740R750m051q501q436k1086l7366k9368K267K2662J3018m802o759J036O516J7965L9914M8300K3449
20690A15425q995o987K5907M3637K2223j2955k9579k6980k2046k2908k9182l7134l3139k221M4558O9882N0694L446
20672A43646m1236p0520q4614q2553p1438p0763q4066q0700l1765M3816R4174R2467N8705K6817J2388J3540K1527
20655a10575K3758J2386l840q137Q22O895J563k774Q216K8725L8478K5863j24j9144j9477j0510j2380k8936l6803
20636a05994j1038M1054Q2423Q3259M7545L811k1719k2324j0009p98J696O253J6979K5681K7485L1726M4482N1374
20618B91886L5720O273j3510j9097k5487l6033l5281j6909M071J4214J6844J6896R795n802k1668l4436m8938o0413
20600G8125n3337k6487J599K0350L5801M2238J7970l0668n5004k5838J7970K1289r908k9011k9335m6477q1256q2665
20582b34644k8368L0444L8678J1754q5Q058n15l3831n4110l5380J499K5275L5842M9697O4136N9671L1524m84j5050
20563d5889j0653n53N051N826L646l925j8358l1552k9629q525J8254L2053K8267J9412J9503K9135L7478L6046K6549
20544A12136J4676J098j5227k6918k2551o944n285l2035o1134m8215J2155O9867P2846K4522k7066m7215m1694l0440
20526e7424j9006n299L390k931j8829k5457j0834J9026M7310N7168L8059o145n1417o6801m3067l503K2337L1167
20508i2256M1518O0638P2799O4102M1062J3656k2398o6987r2760o9958j2666K8960K9725J5110J3416J2132j2091
20491B4002m3177m2434p365K4139L1508L7192O0755P9378O0547J4823j4745j0483%j4079m6466o7122o2126m5209
20473b0862l3213k4126n176K4941N1842O3227O0917N0494K8958n193l5050l5970p232K1107K1715O55j4675j0211L478
20454A35626J0284O741q0m478p456j1842j4620q113O782J2723p360m4734o9319o4966m6555l3773k3915o066J1502
20435a59619J1108k471l654J8011M3161M9276L5836J7184N266O403K1050L7286L5779J1379j7531k8617j7563M579
20417F6863K6183L9203L7146J9092p176l0697m2020l2947l591K6906L1374N307k5852l9362m1218m7518n5867n4813
20399a28987m9912n5417o4271n1768j2677K6755M1364L5243K9199L3644M3264M9053M6678L7648K7020J7348O802o15
20381C0371J0097M4558P6942P0145K3778j7920j7199J4316L6344K8765L879j9045l2986m0566m6549n2766n3830m2777
20363A5557k5371j7461k0205j3420J3120L9123M5416M8948P4584J01705P9894L659o7622q2909o0547n0533o2031
20346B1907o3276l9936j4893p947q167J650J6273K0556J6782K0787L4371L7448J3771k2355l4672m277M4606O7231
20328I9859M6833R392j3833k3073l6029n0281m3538j0598K2464K9113J2336m078k121J9351M7194N9116L8635m681
20310A96061m0342n2153n5633o7154p0487l7046K6940P9366R1073P3305M9630K3074j2960m7322n7664m1654k3016
20293C4018k1558k9110k3229J488K5395K7870J1610m019j0280j7319k9888k8073J0058O9065R9961P3224J5421j9366
20275A85268o932L0162N6357N7465M1287K0430K999q690j9511l7610o1761p6407o8051m4837k8600k4908j3991J8213
20257B0883N0441M6808P122k4191r868L5321O6761O4554M4831K3581l023l6170n6942m8212k0909j642k25l040M586
20238A60666K1143L3569L1128J4567m150j2868j2105j2413j7603j9179j1207m07N224P609J0268R234J661p489j7615
20219A80033l7420o3388o9421m0503l977J779j6727j6343J7757N0232M8397K3582K601j1530k5176k5409J342L5570
20201E1399M2962K2236N286R467J7732J1344l740j3928j9374k3666j9834n510k06k4645o4085p2852k4420N3169
20183e8665J00795Q3414J7062n3000r1391r0938o4614k9591K083K4821L6385L4900K1194L355q008j3270k4691m5449
20165a55608n6306l8507n335J0395L830J0067N5117J12596J28813Q1911p44p4713j08693r0547l0124L9148Q1403
20148c7297Q9377Q2321P2109M9502Q662l6083p0141r7102j21082j25861r2948l2220K6239O5787Q7948Q8165N5502
20131A2878L524k5806q283K8769L9140J3627j7666l1336l2983l2022k1125N495L2150L8918K9108K1388J9699R793
20113H5268j2876k8636j4513K9269P9067J07118R7740N3801m169m8813o3563n1472k6779j116K0505L4750L6387K0912
20095C12880r469m3393o7002p5032p2150o1978m1781j3054J1017J7957R649n549k5163m4055m5038j9541R702J3142
20077a48858j143K025K8002M1773K5631R999K4114M9253N1607L4290K0726Q229j9855m8780m3813n205K7674L0067
20059H5736J5241J893o111k153K3671N4830N1441N21o1608r1124p8427l9856L459K6077R055l0304m5671j8286J8299
20040h3317K8496K1293K2349K7360J5502j0030k7111k7117j4871R573M2042O2204N8514M9697N1881M2958l280o3632
20022B02511r0497q1421p5643q3150o9185j9669K7603L8209K6331K0157J7830O273o747j1544k3346n5166q0285n8382
20004c16121O103O2326P0358L7242l329k4680j8101Q287L2407L3151J1578r347j1384j453L17j1129j8005l715K1762
19985a33733L1455J6808p79j756M003k047j2842p984P094O258j0539q526L1057P8728R2461O4427J7066k5389m4242
19966A01520k8237Q726K9257J4600j0567j6329j0168j3343j4935J1080N1956O2257K7320j7361m0000n0568o7496
19949C7712p6716n1386K617M6264M9092J6322k1844l5838j5946K0519L9858K0131k5954n9857n3548j6795J4729J8048
19931i2592K837j0046j7723k8116l2309j0386L1103N4910M0975J5445J2449K7377L2703K3226J6007J5754J0969K07
19913I2790n801n844o471k181J5277L1127K1201q743k7992k6626k3850k7006j8057Q314K7214K0149Q85j0589j3086
19894D0711r280O137K7729L6857L3807M1850O1402N4920K482o1750r8563j14132j23941j02592k3927P0818J06461
19877e1011P1288K5653J0933O472r158j0640K6245O8583O0815r47o3234p8304m8415r615P884j83j7252k2763p369
19858d1018K2328M9374N6352L6541J251k7740l7705l2438j9055L33J7852J7619k081j9361j8444j3882k4476l8951
19840g3501l5585k3829l2373o0542p6405o4267m0491j8845N175K8340L4254K6627L3082N8447O8298M1794Q846N205
19822a15770J8129J2317j0509j8225m626J700j3899l0330k7035j3146o099l020Q721K6348L6027L5953L6730L8370
19804b8364K5302n791k7762j3008K2556L0896m945m3796l9994k038K7449L0715J9931j137l5687n8623l3272K7098
19786a10470O2593M8590K6833L1057L3043K092k8467r933L7667N1375J9149j2475j8416k1979l6148l6544j2080O574
19768C2461l713j8222k355L7137O5473O4358M1034J0048j5223k8004l9321o5844r4431q3504j9469N2369Q0020O8736
19750H1550O1538O9802O0350J1257n2758r0504q7697o0632l3127j9070j5964q547J2843L5385L6728J6527p42q55q81
19731A5203k1245m9585n2589k0703J8288L3537K1941l040l6505p8200j10881j05051n3000J4163N3135M7564J6051
19714c10917j1860k0121j1552R37O399L518r32j93P829K2560M2375O3303P9889Q6308P2982K9845l3541p7139o3838
19695a14148q573L0684K3559L449J2316L4789K2483k9586p2733p2228m6398k6078r862J7121M4819M8652K8561J0944
19677a02229J1018J2940n851m2138o8106o2690l4811j1116l163M337K8528O1205P6979O3240L1098J103j0065N857
19659d3864M0720O7327O0871K5261j3723l9209n2028n2859l8164j6429n771q002m890J2392L0365L7643L9189L4681
19641G3510Q528l8515p0569n7306j9451m381k2834l9199k5558K251J2352L5j2376r711k599r449k7728l2324o711
19622b82035L1154M6108K8658O179O335K4103L5381L1103K3371K4080L0318K8705O815l4597p4285q3160n2637l771
19604b08175L7620O3316P1915N3225M245m8126o4987l8877k480J0048l022j9740k3980j7227p613K999J9284M3836
19586a27739P2249R6675J08689R6418N0273j6775o5673p0166n4798o6229j04152j14168o3298J0551M9489M7591L8902
19569a12161L5920K2928K245K298L1113N6302M6981J3252j0500o671J2528K3039J1986j1526k6743k6369k4783l2549
19551G290l4741j3087J9015K7737L796k5616l0512m402M1236Q5319R8921O4538J654m6856o0603n6274n4239n4552
19533c1376n3398n7502o7041o4048l5842K328K3085J7641J848l88K4552O6099R0551P1810K6327k12J1981L4085L0947
19514I1447N848j2600j2211p512j7030m4167p3833p9641m5425J0845M6627L8864P793j1770q398Q010K9675N3570
19496a9908O9497O3920L4698o702m3404n9582n0123l0944k6713l9341m2066j4789K8780O0235O7704N5430K8248p181
19478F7759l8205n8588p3711q1749o7038k7967P963J8669J9725L7172O4144P4049O4823N7147N4425L8423N437k3627
19460A38851l4149l3221k9427k0555o226Q302K4274M4418N4007L1173j8079n7467o0380l3600K170L3293M9869M5317
19442A38570K7874J1855p916m8053r6212j09282o8112o956L1483M5436N5298O0121M4886J6315k205o262j2359k6448
19424D8033l6599l6963l4381k9048j3113O263O798j4602k8132q612K6969L8777J5957r163j554L5238O6695O8954
19406A01517N0783L3136J9712k82k5985l9165k9598j1719n533j0700j1247J209K1048L9093M6202L2627J81k8658
19388A82621l2730k2689k8086n0694n6073k4224J5500K2172j689k0439j9124j3648r487J1066M7422O1366K6764k3808
19370F4220l4964k08L5060L8985K7344K4834K4095K655l9202p7906r2749p6740l2036K8003P7994R7006Q4505N3389
19352B04285J6359j2937k0634j1127j1347l5182n4388l1555K3494N9968M9463J3070j9978m7187p0413o9610k8014
19335d5733L2553O9580O6780M1505J1832j9667m9409o3390n3679l1522j5911j5760k7322m2510n5584o4767o9038
19318c32042o2558l6922N330M3665N5559M0041J8355J0922J9506L1013L1345J5404q432k1881j2532J0894K5883K2370
19300a44080J4336J8994L0828K6801k952l9499n4630l9862r991J7795L9405N8246P3745Q1265P8311O4684M0400J0169
19282B63965j2924j7214p238k225j7172m8066p5265p8235n0262n542K9478L8590K9335J9587J6207J6019K0456L1735
19264A51229L6532J5155k6645n4887m7652k1973p194o318p57J7501L7051M4516L4748Q334k6257n2115n9076n4738
19246a2546m8235l2738j714K7290L0116J3168O034J6132J9455L119j1948m118J8445L6444M4498L9208Q366m0416
19228A10560o3126k8849K6313L5824q625m6719l5305j827Q811K007J1602L4416L1303r816n0836n3059k2419P707
19210e2038J8202J3816N768J096K383O079N172L36J231J0188J4709N973n874q454r082k0964l3509k0906J6331M2197
19190g346L0281J88q682J1052K9214K1002m529k3929l0665l4312l6906k7124j650K0501J6957q489k8010k3224m427
19171a10098Q841J2836J3784R625l608j4467q146N197l42k3775l0940m530K5536K4324L064k530Q331J590l1788n3604
19151a70700l0944J7590N0095N6264N7721O3052N1837R611m1777o2752l7795J0967M7709N1506K4152j7061m8142
19134C1333n0253k5806m29L366n298K694L3381N5786M1873M738k0007j9362q176K598J6063K7283J9232q094k6739
19115G4183j4751J4431L2011K9955K0284R732m037j6217j5872m527L379K160K447J1935K1487J8542N350n085o144
19096A79263k641r12l54M251J4591K4184K3523J2142K964Q030J9864J5989j3150m7838n8836l9680j0605P858J4071
19077A52714J4930P909j4947m8026o9042n9838k5176J3016L6317M1174L4001K2215J0875L142J82L36p45p122j6745
19058I5170k0154j2425q642l5520r4871j42611j25487m4867L4529N4308K8559K0115N5499Q9142O2630j9099q9890
19041a53614r4062l8211K7612O1972N8017L2937Q253j973L615J5983K7347L9056N2289N5179L2254j0203m0856l4787
19023D0808k109K3487K0379m738l1104m2852l4763j2450P243M950k1836m8922m3185L664N9290P4746L1915l2327
19005g804n7038j7724M9024Q6541P7302N1899M4570N5371O0044M3978J5782p540j8968k4440l3265m8162o3341p0284
18987A35945o4105m5735k2527p886j2992l2082m1346k2622J2927L4344K4289o232l6693n8319p1857p5616o5776m3410
18969c99693j3281K0351M9224N6828L1156j4034l9198j1907N6275J11702J06190M4035k4116n3988m4702k2542n911
18952a53611O58n723k0209j9250J5897O2493P1285K8549k1721l3541j4874n715j6910j9855O312M3404N6978L5246
18934I413j971k5203k1567k901J0087R925K874j0308l7516p1296p9704m0534K4229O8015O9823M7033K2205o18k3208
18915e1222l7570l4169j4465J3714M5590P6674R5908Q9556N3960M097l2842l8985k3365j0995j2529j6790j7443k7186
18897F1938n0799o3777m2566k958J9986K1412K4291L3259K8986J1753R715K8785L2305m727n1599o1788l4445m692
18879d4921J0708K4090M1854N1475M3903K3304o893m5188p7298q1913n7176k5600p821m423n908o251k449O742J6083
18860a47682J6450N556j0218k4024l1185k6697j0075R872K5176L9002N3242N2385J9638l1517o3257n6436k9338o523
18842b15631J1811L6600O1312O4533L6440r341m8146o1838m8662k2638r32J0933J7434J8578Q888p143j4364r969
18824a72135j2004l1289m8080l6001j541K2602K3112K2005L8820N6211M0571j0611n8774o3708k4269K2276L5965Q793
18806a88057k9324l7063r82M7480O0641K5580k1177l8382k8960k5674l4777k4962J7711N5731M8116J1249m064J3652
18788a53262K6363J2572J036J9875M6445L7613r400n4489o1927k7893K8023P5320Q5165N4881J6135p72m290k2227
18770F9168n4079p1147o1045m1114k4684n122J7614K4821Q763j0350j3654p093J266K1351N3270O2922K1570m1194
18752d8737o1890k1582L2337M8555K6069m442k3725k7853j1376K4479N4640M8490Q901k5947k6620l961J2117J2609
18734A2064J3204K3432L0871K2702R688J4904M2584P0581P4021M6580j248n1822q4715q5892o2631m0022l3036l0203
18716b8938j4082J2867L5962N1112O1136N6748K5222k1272n0067m8191l7824m0917m7217l3203P54L0202L6937K4415
18698A3644P027l733n560p265j9316l4443k7839R775N0085N8596M1370L4234M4602L4726k1675r0534j11477p1141
18680i8924j6944K956p883r881J9211N9795P4460M6429o181m7429n2121k1894K0305M8357M9184K8609N457l843m59
18661H9204k436k4020n5756p1136n5668k3827k373j045p328p902m308l179r32J1329L1605M6646M8333M0908L0164
18642C8279J5426l261j9732l0624m0637m9283m1818r660K4695K4306j4729n0528m2761L4L5978M3232L7155L5960
18624d7968L3415J6686o294j5698q221K189J0349K6398M9599N3997J7768m0129p1304m9943k064K3432O315k8332
18606b9805m1154j9683J2280K3251Q567o596J412K6351M0589K8392K508j2501o078J1397K1819J6847N047J970J0833
18587I5446J6869O308j4167k6168k3167j3085j460J1281J7038M523j9585l3749l1686k8756l1336k4933n635M537m622
18568a02347m447L1705Q0631R7340P6962N1131L1762N74m5666q1317r1535q9083q1510n7154j7281J2843K2595L3291
18550a31506N6609O7650M5164J0851q78Q988J4760O682o239j7343k0231k906K9182M2772J8712j4880k3994k1859
18532F1534l9103n9753m1033Q913L1754P246j4857O177L9727L4549m186k7623j1426K4984N4978O8464O4494M6198
18514B51037K3434M462j1780k4102k0612J903K0349Q512k5430m3969k4346J6691M3798L7420N801k7163m2654m0561
18496A52790l4662l4589l7060l5453k8507j5236P703L5154N0210M3328K7319K1258K5193K3152O616j8249m4324p0408
18478G4235r2545r9845q4165m9421r634J9647L0250K6363J8833J2073J972r865r971Q681L0296L3153J9795J4433
18460f5715K8434M3727L7436J1288j2941j9992j3247m511j970p639j7513k1681j2074N049J0786m657k6049k9147
18442a00416j1864K545l171j8079k0292n434J4190L0981M7576O3898P2573O7808M9068J8460j4947l2894k5120o557
18424A28325j344j0796j4973o527k649j7820m2846n8209n2830k4193K2261O6099Q1704O5588M0641K6546K0858J4415
18406B34250O570j907j1180j0727J1272L8166L1676j7246p1292r6161r7149q7592n7501o008K8073J1933k7028l7504
18388a59355j8196q122j5057o686K6774N1955M4454J9552o31j2830j4539K488K6361K7152N70k1001j5158L849J8559
18369d9861L3839N0492M7998J9474m859K405K5015K9324J2082m758j0279q820j131J2868K1177J1717r192k6515l5077
18350A15899l4249j7749J3563M0071M1583J8833j3256l9583m4025j7669J7740K0898j3835l9368k0616J1553O730
18333D6520k8415m3777k1826O643J7674J9748K1655J6987Q858J2970K5924K4656Q072N116K7052M4539L1638M143q465
18314B19712o121r459k5367m4260n9426o8784o6811n2158l5390k4449j0726J5890M5857N8481M6530K0558n698k2999
18296b4620k5035j1328J0033K9863M4933N3253M9664L3334J2987k192j0650j2270l342J3916K4784J4442j7238n7380
18278A23154q8045q9334n0772Q694M6442L9239J1273K260J7305L0081K8692K9191L9475L8460P359l7785o4778o5271
18260B5640n6147m7240l0121k120J8523J4180n589j2873M849L0029L5880J4881j6628l7395l9727k9719j3350J2417
18242a34510N0231Q5807R1497N5864M799k0311p041J7279K2590R778j649n966j4361l1376m5771m5980l1330o660
18224g110K0709L5761K3169j1130l7611l4585j4112k934k754J1744N0396Q0687O0360q015p2826q8214n9452k5632
18206h1549j1099j0580j3775k0513k7615k2513l009J0670j566l2303n4359n1241k9926p701M616Q692J3471K1276
18188c09024J9973o7k1548j2470K9780O8718P6859P0496P5852Q3958O9335L5747P535j3176m1068o5412n7271k2730
18170d513n339k2737m1311l2814j7825k4919l7530j6794L9152Q9383R6057N5496o763n3054n5624j9458K2769M6978
18152A1154N5140N0469K2500k3662m9631k5736K5661N8245N9127M8578L7270K0758Q605J8235L7570L1894k582k5988
18134C57607j0737J7894J6420k1894o5982q6808q0219n8693l6614k2459j6844j7045k1960k7442k1552K709L1259
18117f2360M0282K5185M443o202p174j875R241J5469n68l3000m6399j8552K4619L8678J6615q056j1258o248j4693
18098d1853l0838l0551n625K7291M8584N1254L4652L90l6358m7078j9874J7175K3267l675k3533q367K0395K2887o950
18079h807l7887m0592j3889K1424L9757K6688q564m0126n3394n7127n9333m8200j4821K1447L5201L1167L1466L6564
18061a39026K9698J4181J2064K5606L3834L0262K9567L1240J4137k1121m1627l1840j8672k4541k8673m289L3061
18044e6139M7144L1457P036j3589k9137k9423m215L3763O0109O6734N8722L6358M481j4214m549J2516O069j8851
18026A94272l2136k6643k0872j8863n325J7573K5591J2120j13L839J2010J2472J0553R715L957q01J2080L5395L5990
18007B80814K789l3731m7818n1617n9459n3609j9487J3018N557k7599l6814q325K2618K9897K8189L5957L9636J4422
17989A34438l7109q4211r8313p5946l7186n591J3259L0406M7773M6356J3479l0086n1262m6471l9459m0773l5297
17972b95993j2740J4311L0755L7485M2071M8441O0657P6993P6013L4044l2877p1310n2493r019J2136J1322K2473
17955g731N3579P6021O9618M5775K0878n493l4930n4286n0356k8752o826M731O161K099k623o069j1551k1226k6927
17936B2092j7233M097J8124J4124K139l708k675O29R661K7015L9625L0068J812k1540k4635j5178o776p33O245P024
17916I0177q921l6408n5511n4247m1397l2926l2353k9193j2355J8779N2091O8273N5135K2984M70O914L2169N1517
17898I5198N4710M7984L2668J999l7018n8834m8927k4568j2642j7671k6220l2275l8357l6495j0958L4864P0277O5272
17880E9007K1080k9161m5598j2898M1488O3099K0164o0102j17213j19545q6652n1662k4291J188K4130M0805N5003
17863b21158O8301P0170N3988L3003K2287J3093j2597m4886m8194p879M4169O2450L5262j0387m0740m0066j1932
17846c5116K6256M8126L3854p772l9811l2715R90J9781M239j8620j2545J8208L5537K0559k227j491J8597K7770J1368
17827A14988j4304k6449k1538j2899j1456j5284j5496o624J1052L4772N6952O0863L2708j3723l8519j8414K1260
17810A37889L7260K3154P441J757j3930m6934o8624n5510k4695m182P944K6883M4075L9185J6563j309q549j5458
17792A02960k1419j8692j7441l4584n8625n7475k4455J2719L2896M2308M8633M4428K7851J4116J2532J2921O123j923
17774A22873o690j5486l0369l9316l4460k1220k248K5822N1883N2646K7941P256N274j023k9149n3118l9769k900
17756A7947J4311O08j3895o731R834J5421J0429Q767J5631J9779L319l7987p9450q3793m4439r00M905k2808m6492
17737b15544m5046k6983j601L3391P1620R0389P4714L6330K405o071J4489M7416O3664M6022P658k3052l3674l2082
17719A04045k5425j3182k6L695k372q281j0525j2379q044J1493L3337K9413j162k2520j3257l342l1832q3230j00992
17700a54586o2814q757J5421J3376J6601L0117L0649J2767M369K5499N4802N5878K4834q331k0873k0149k3701l3676
17682d8574l8285k7834k533K7957M7745M4411K0744o747k2186k0954j1777j5443n0880j05767j30289q6285m83O0317
17664c66863O9656O3182P1865P4652M2621n000k4999p296K6697O2121Q8887Q0214K0121n3439p8693m6883r073j631
17646F139o426L308J8924K0439J2768J1384J3187N885q155j7670k1359k4726k6812k2752j2194K200J5479J6141l817
17627a8057k9287l0240J155L8107N3397M9072M1216L3531K2027J1374Q060N704o706k6494l9150l5377j8856r80Q001
17608F6497P865Q901J5705J4409q689l9016m6199k6399q091j0070j9494k0346j6080j0649M504K6186K9961P936r779
17589c2848J739K1946J9548N367J1506L2647L2101K577k2130k2037j8602l2556m4773k0740M1646J04440J21859P4842
17571B76532j4339r6348j33832j29825j10239q4376m1370J5817N7676O0714L7192J9531K3181L4077K8055l244m3160
17554a03958o4295n2883j6221L3919R2290J45590J63009J23903N0113j0763l4673l6070l6017l7403l4696k6986j4293
17537A40566J783P585j4362n7708q8203p7544l1560K0261N1191M9992K3340o724k0373k1126k7684m2887m7625k9027
17519a70105M932M3156P9101R2938N7627j6276o9819n9818j4139R950N719J4243M8978P1437N3488K1462J2884K0319
17501B06077J1042j5922k8878j5151K07m741j6783j3269j279p334l3677m9040k9850P235K7772K3631J6811K2723
17483I9574K9863K2045L706r703j5093k0025k3912j7793j715J2607J7946J7077J1042k470j5640j3577L15L60k5159
17464F9448n0075m3607j5504k361j4865k7433k1230p149K360J3773K8432K6021k812k8906j9768J1453K3666O313
17446e2244j2237j1729j946N415J3865K1993J6497j107p742N177J3104n742l7580n6215n9099n7510m8173k1096J5690
17427b80679M4914O5930Q8176J04914R7909O6758L2428J0671j328j2502k6351l9742m2135k3682L486N810k9842o8312
17409c577o6898l4288j7486l4268n3316m5324k0512l689J179P100K2746M4335N5176L4769j0544l1782J2986R0912
17391e2481J17564O1105j8262n3576n1496n2245n0532j0965N7618J00950R2640O1246L7023J4158j8748m6856n1246
17374A35897l9532l1593k9635k1595l830J6124L1536L6495K0813j9121o6108r2156q4719n5319k3316m10R246O173
17356b11050j089J122J6267L0776L2126K8491L6132M9059M1478Q328j6731j685L9630O6401O4455N2919M0274Q191
17338B85094m8698r6305r7345n7904j6578K059M125N429J3913K9557M5091M8315L6159K2439J8980J5570l969k9838
17320A76094l1956j729L1287L5196J5068K573J2428K4191J0645k6312n7851o3213n0011l5268j9989L023K5393K9363
17302G8932J7627J3900K7347L8411L0338J2830n68j6193l9428m9496k4085K1374M8037M2175K2267J986k2626m6389
17284A56439m7619k0762P718J2334O81k682R057K2526K8084K9766L1856K7045M068l3386n9917n0192j1759J5640N471
17265A24368k1380k5189j363J7703J1228o874j6973j7748j1151R915M1463N6787L6247m087l1885l6607l1656k8372
17247F4426k5473j8095k048K5116N3405N8200K5424k5554o0119o6288n9008n0393l5336r887J4208K3445K1422K3822
17229d2733L7484N1220M9467L3664K4884L8284N7596M8820L465m7444p2414p5641p6805p0687l6065J8774N0683L2469
17211B5021j2083l6730k2130J3837M1623M3657K2295l486j4429j1339j1879k1838k2254L594M1855O3137N9329M7515
17193B05695L8976K3593q596m4893o0986m9754k9866k4141l2907l2606m276L8130N7192L4868l977k2383j7191j5778
17175E1100k9646l5465j1860K5887M6127M2494L3331K6495J0300j7377l5907l1929k5374m5541q8065j15084r8692
17158b99206m8213Q905N6293Q8579R6571P2288K7174j1523k8074l1090l4551l8231l5655k9630k4940j2679J8998
17141b24984N8164P2395M6760M495k0088j7916l820R417J9200K1284Q792j3163k4324p597L3217P4467Q8395O2623
17123A87317J2619k7674l6396k3381j2414j0368p014l26k160j5635k4923j6265L975K0829K9354L3322L4920L3911
17105A79691K9295J6188q992l4835l9743j9878M42j422j7315k3196j3754n758j2729l2556n7178p8854q6888p1990
17087b79472l7004L575L3627M0710K0213j5037l7732l2554j3539j951L238J4121K3088J0642j7811l1977j9365j490
17069c38718K887N541K4640N3991P4344P8476O6760L3917j7676o3061p6679o3440m7251l4992j5195J1077K5247K1423
17051b58709J7342K5722L5321L2883K6105K9211L8758M0079K8600R751j3375l5784m2868k7834j2241k5062n9541
17034a91642p4876m7864k06L5982N5926O8727O9556N2090L3681L7704N7170O4104N0939L3062J3079k1751o1081o8439
17016A06161l2840R310K4594K4717L3315M0197K2947p130j8906r203r41k886p596k1889n7914r3816q6609l4256J3805
16997i8940K2932J4556K1863L7791L5459J6772R538K7274N5751P2934O6016L7270O211n429k932j7469o1059j00488
16979A38050r6988n6308j4434J3653M0344O6036O7203L2010j6806m7234n0708l9406k3550m095J6695K7171J2947
16962F4580k5530o1851o0358j4429L7664M8623J2351l3463n2542m2675k2466l539J3917K9437L8806L8891K8636R221
16944E273j0312j3909L333K0301Q875k6409m3287j1840M0303N5570J8119k8694m4492m1298m8555n7061l7375n12P783
16925b04187k2018m3586k3883P708P928j3368j0776K9663P6071R5544Q3355N0823J1435j8615k6272j2274J3398M0856
16907D1802N5406L8580o195m2649m2263k6126l6603p2794q8046n4918J51L7289M9660N3578N4767M4851K0471r346
16889A7615k9839k8960q531R125j167l6158o2184n2054j4691J7868K3745O614j2344j2208J0118L5976M4737L6877
16871e5461K8106K3571J3498n150k0597k4903k3844k1277j0412Q772J8641O163j2100l294M2209R3219J04231O0653
16853B22025l465l8690l2676j8130k3114l2945k0172O883J7698J1197J4704L1204K9720p52k8293k8949k3442l5486
16835D7317m6201k6549P263J1454k1309n1107m3190m648L1462L8176J3119j7640j9583R890L0860J0132l0998m4074
16817a05626j9312O600N299j2553k5115k7893k4294j1677R893L0394M0417L7692K1382m953k5430k7127k4677m5443
16799b02423q4466j00306o8046j2894K5436M0572N1063O1574N8646L7833J1083j2311l3082m8524m7747k6121N380
16782c44333L0612M2939M6873M8599M6643L2207J978k8802l4267o029L1436M2658J8004j7573l1853j5045J7406M3366
16764g5181N0532L9613J9511J309q310j2376j9739l1284l3796j6397R198J8977J0416R164L0920N2423L9560m820
16746G9720m2962m8845l1745j3705n500q713k0240k6538j1406K1296M7539N2677M5084L4559J8175j194l918K0830
16728A05114N4113O8670N7429K6468k0936p2341r7404p9413m2826k0962q733J8603M9519M2370q740n5788n8356k8327
16710g1540K949K6967M3887L8563N133k5070j6697J7812L1916O488l1050m7511l6609r898J7240K4308l938n2823
16692g9873q1446o4875k1598J0862J7188J2120J5900L1092M0028K3158j3738l4134q828L9542N3214J1989l2726j8049
16674a00174N0645J06534J02790N9469K4443J2801K204k4251n1505n2722k6008j233o839l4686m8039k6944O613J8734
16656A1832P833J448J3912K9160K9628K0709J3665J073l0568p0635q7716o6833k9073p598j3188l0613m1670m0952
16638b89586l0192q779K2193N0748N8596L8607L891k3457l0058j6981N860K5584L1256K1235N977j407K688J2332
16620a21493K0615K3505J9991J5435J9804L2843L5986J2184k8810n9946o9972o8678n9381l1846P143K2794n181m6102
16602b81109n1699j7723J4980J8456Q240R930K1689K6327K3961L1969N5712P4366O0829J2906l7536n0194j6324K9258
16584f5962M3323J8438j7563m1582n5989o6140n9316k3456K4776N1017M1849J7811N069N223q25k4546n2055n6257
16566b56185k5866K0458N2194N6655M4067K5676O47l0064n0973m6563k1477O120K5610L5613L1637J1156r913o942
16548a38150K0057M0553L2095J0212N249K0676L2756K6505J2225M236R76n249j0882n312J2185K9348L3963K4005N567
16529A51015j3544k6791k9768k2079r439k702j1064l2070m9557m7764k9834j5868j7130j8369L425M3877O8973N6031
16511b658K6202J9718M0300M4336k092o9500r1278m3349K5833N5655M3137L1113M0618M7323K8427K169J736K7809
16493B25499M8743M0592R486k1245l1165j4016J5855L0858J7825m573j0014q80j815k0725l9982m8027n2958n6455
16475H7003m1983n945K3402K1338K707l226J602m666j6357l548L1950M2447k211o3510p6161k9589K1301K5875q420
16456B009m0837n2089n1378m0759o400M3665O2143J4096o4738r7453n8952n215O183q897L831N1460Q4990O8440J7909
16437g1992k9557n0448l3774J6865O6840P0261K5482j7199k1998j1326j8568l0036j2472K4765M1704L2035K7777
16420H359L8935L5937N388k0306j3672J963j0166l9780m2544m236M0787N5262L7430R675j0080j8045k0657k8924
16402B5326m6658n9857m7708q875L2885N3892N2043L8533K0293J078r298j987J5881K5340J6609k480j9685l0360
16384E4972l3861k8477j6603p542p386j0967j0601p567o953o352j53Q399J1392J0366J2600J3880J791k0431l2207
16365g5700k6514k3246l6972m9421l5880m895J5954K5660M7766Q1761R2350O0829J6073o985j4332l0869n0820m4320
16347e9561o268L3926N2318N1991M1244J8584j0242k4931j6180j394k5p748r980p641j1758k1466k4973j7339k027
16328b3470K0710N1362P9034Q6416O8225L5352K759j7582j7424k70J3701N412k0337m2460n1919n6942o0969n4774
16310A6824l5445j5648n648j04R701K3693M0329O1627Q1607Q3510N9325K0318k0049n7383q0344o6507j6598K6277
16292A25485K3395m128k814L2160M5000J880n3375n6765j2730J3340j5871o5703q2705o0332l0823j1825R061L9264
16274a07486N9860N2681L0540K0030K2067J1913k0177n0456n3655l5667j9228j0345J743J8690K8825K8751K9843
16257G929L8845M7438M6989M0441L3380K5619J8720J9993K9878L5467K6318Q270q243k3889m1261m8461l1006O82
16239B27109J5388L06j9031j0987J8740L1468K232n1696r2870j02192q6629n7887j9605K2835N3925N9918M5131K8531
16221F4686K3910K7522K5994J4334M280J2021L5857N1396L7037K113k1099j4876N239J2267l209l0945n5986o7864
16203A22677o4847n6428n1995m2809j1203L4434N5402L0743r584k2687p800M164K261J849N211n663l1981m8396m1542
16184a38194k9422k9542l3189k5021n302K0418N1076P5826P3306M1589Q022p135j5582l2447m6371m1145k6476k0431
16166a80020j7366j574J9459K4982J6618J5090K3896K3073J017k9141m7809m6443k6644J830K1653K1634J0222L386
16148a66137K361k939j2832j6769j2427j1187k3117m5498o4323o0874k5124K7876O4406O5445M3601J9039l515k1147
16130b43161j9895J809J8113J1813N987K7689N9097O3488M4509L5055L7432K4224m415j7527j1680j7880l7647k8124
16112e1113K4977P0621O1067J4237k6128n1843p2217p2098l6561O756J7928K503k651J2464K7767L5937M5845N1092
16094E8583L7860J9881K2377L1943Q243m7191p8974n1011P035M6572N8026N5991L7866o279n8751q5762q2029p5725
16076a01345q5202r3320p3767k7084K2035N4797P1614P6585O3929L0399n969j5809Q335L9588M4876J8963j5104l1584
16058a8063k1511N173K7574K9330J3478k609j0076j5788k2640k0112o203L0j1631j5401J9675P8088J06955P9777
16040B16046K6171q955j4184r480j2988k3562k7764j4913J1018L2558L7031L1148K8240K5795J0502j6204l4404k9773
16022B26282p223K0720M4254N3696M2900J9708K35q923j0393j793J8836L5273K5217p338l7587o1268r7645j39062
16004A15889j35709o1370L1834O3222J8008m1835n6884k7690R410L1361L8165L4958K4807J3373O685K922o834k6307
15986C4005m3471l7339j189M2895O1823M4599Q240k7826n6218o7692m7571k025L2643L0665J2527J3716K8792J9735
15968D6309k1639n5334m8203j7730k398j0031j7759j0047N818J6331J4497j942k7660m3876l1177N974L8800M5192
15950a14875L2801K4089K6396K8118K0177O409r275l0122n1303n1920k0658J8065K6867N436o508J4975M3613M2342
15932D627J6875L075J1872J7020k348l4448n6572o1587n3549l6866k1591k2242l6508l8276q364L6899O4056O3542
15914a54385N5450N6694O0204N1833L4265K3559K6682L1980K3914K136j8650k6440k3027j5369m840O222N140j7288
15896A18080m4478m4901j2821J8653J7906n740j9477j3064n624j0137j5428r953l505j1248k7863l3338k0832n116
15878a28886j159m157K839K5043M6398M6282K3074l155j1872j848J2780K1517K6228L2226L7810L5693K1165l222
15860A76756k8207m1275l3648q965J4980J7836n097l5200m4294k0319K0886N2465O3760O5238O7589O7428N9486N1041
15842D40460M9901M4077J2604m0147p8488p4763m3059k0235k0507k4795j3779N131J0051p632l6707o0183o6715n2757
15824B2457k4176M599K2230L2324M5264N7239M9076J2212l4729o5706p6024p8893p9391o8491m2333j0270J9997M8978
15806a65637P1225P2057M9361K3350J0702L187j1818k4411j8791n504p542j8357p501K6018M0900J2711k3012j5321
15788A1617L1704O4748N1202J2531j5482k7292l7631m6513l7351p212K0691K4026J0664O682J7029J6919p968l1073
15770E7291j7653K2347M4940L5256K3965K9539K4168j4107m9893l6167P832J6621k6034o3387m9341q806R272M1r129
15751c245j0142j5700k4774k3082j2875j1503k1370k7359k4003k0498j7170k412K0850K8829P817k5890m7005m6868
15733b76400k9501L85L1569M3514K7984N330J619J4187J7456J404j4308q958J2384K9576L3796L2070L1961L3911
15715a2021L7795M6869O1469P3581P0893M6142M686l4805n1920m4235l3236m1013o1144o4241l6157J744J8424Q212
15697h957j0955k4016k7880k1082m036J1101R744l115q532n529j5954m6249o5084l9679J7544O0284O1423L5665J2070
15678g3237M172R476J9285K0708K729k8560m7764l2741J1576N5029O6286L6774j2516m7079m8673l0512j7248j2373
15660a24668J817K9899M6237K5266k1584n6036n7386m1215l2233l3071k7263l595L0347N2719M0870r085o6817q3146
15642c28944l8111L1091O8321O1689M6396M4915L7168N781k1948j0954K2206K8005l020k7570j6625L963k283k9175
15624a29095m2971k8825J580L1713M7220L6700R521L14L0386P3377Q4599N8724L2373L0617L6883K2136j5310m8545
15606B31397n1512k5248J992M419r529p978J6151K9484P238k5491k9315q493J790o522r777j694m050k2853l3658
15587E6351k2257n350K319Q676J7623J3733q338k7486k7349j7445o904J3561M3568N7085L9547J4458O689M872j1003
15568A52350l0060l2444k8861m0086n2966l7089K963K9903K4869L035j7975l1985k9510m738K0734J5315j5449l0804
15550a02798j1861J3590J4851j419j0566o317J402R201K1466L5475L8937K2180j0046l6643l5325r092Q820q330m3314
15531a09789n2077j6809L6120P0229P1469M6053P661k5947l9868l3995j9538l721J1505K0029J6866J0360J3715K7915
15513C0178M7113P0592Q9237P3960R082o9929j06624r0047n8222l9344k8953k4487l4840m6471k8212J4033L4061
15496a58873J6393J398J4152K1663j041j4671K1235P1180P2167K9822M28l270j7790m7209m7529l488M1374N0312
15478D6253L6577K0979l104l5692m7072k2991L147j49r749J5286O3480P9562L8408k4220n8108n0458k4929p503m167
15459A5550n179j977M275J0309J8596K9168L1000J6162j905k525J1653J8608J1028L070J075n774j9415k5689k2556
15440H5474k5671l3200j9121J7701L2874l805n7678p5608n7717l9389k3071J7051O9587Q4936N1205J8706K5598M2649
15422A10521K3143k5152n3688l8765k13L3938N2139N3961M3777K8873J0074j8750n0239n7683k8847Q438J8838O304
15404A16669O49O753J745j8635k8542j5609j138j531k350P460O236k4400n7674n3801k0758k322r473o886K3451M6429
15384c3727K4876k3525n0045l7779j0749R635K5344L8762L8964K3108J0769J9410L6003L1122l44k8841k6998n370
15366D0615K150j4845k8962j5708Q241Q226j4878k3216M52K4045J4773q399k781L0949M8288K8502L930O979K1494
15347A29855J3834j0635j6239P257L1688L5069K8442K7436K2554k850m0298o2970n8581l8210j5617M879J9211J9278
15329I4103M984j0274j3442m325R902K3853L1930K6509P152j4400k6188k7092j9853l567J5970K0039m35k2719j4712
15310G7435K0832M6076L5302J699k7787m1734l9909k3763o019p874k8145l5091j0339J9072J9060j94o448m665k8439
15291d0931p1927p9268k1734N1940P1140K6404k9800m8970k7288Q715L1547L0496J8370J8630L3787L5759M437l3941
15273b2634l1601J8386O8766P4017L9890O407k876J021k793j8754l4904l9470l2866k6698l3237n3863p6650q6995
15255b54854q1322o7892n2941l1351K350L7018N0752L7066J4084J025k747m715J827K7125O0629P9262P8632P4757
15237c1295P4381O7428N2695M3841L9381J4983l5204p4292o6162k6461k247j2186l5860n4297o7299o9148m1575J3677
15219b09640N8285N3980P415l5930m0221j3083R208N324p585J159L1555M9110L0219o931l0281l5347l7506l7055
15201b07324k0504Q435K7625K7160J6970M114j1486j8629k739K2416K3116l268j7504N034L8027M5946L3317K4977
15183d317K2715J5072J1051K5908M3918L3869j100k5213k3300j6857k0150j6487N011K0059K617l1194l9802r858
15165h058K7741L3784j381n2764q0681n8946K451O0920P7754N4171K4716J5426J8357J0751j1058k7570k3794j0602
15147E1217j2881m0183p5325r2335q0583m9181j3198J7476L6923M0032K7326J0671O312J8222L2922L7674M1243O4518
15129B0850J05482J26516R2572J7748m3487n3850k6274M113K0817K5944J7798p177l5841m5501l3106j9315j7627
15112A49662j5713K512K8905L9484K5645L989n462j255K248p369l0502n8729q0811q6070p0673m6084l4691m6732
15094b31646o3411n3987j1520L8952P0648Q0588P8683O6487M1509J3058m679j3129k7071n1212p2883p9704p1386
15077b90703n1411k1222J1197K9769K8041K1298L0629N7586Q2756Q8953P9196O8985O4354N3895K6425p716k3423
15060B48609j1329J0216K0899K3435K9060K9805Q363k7026m3671k8815j1398k4214n8442p3557m6819J792L2454K2540
15042A01902j8487o1392q0993p2002m5475j3803J6169L7259L9258J8319j3926l4494k3671J8940O6451P8470L6999
15025D9524k9177o7464n3250j0385K0958K5159J6447J5787K9547M3286L3174p648n3235o7686m4988j0838J5599L8991
15007e6199O0315O0239K9725m322r952O576J3965K869p489n769m078j3872k8768l8264m1758m2052l7672k8027j7693
14988a62226j2358j5949k9593m6252n1238l7369j4077P511K8736N0324N8623M4722K5961K4166L1218K4280P699N084
14970f0738J1817l707m2918o2932l9445o778o486k6214k4938J490J8693Q806q178q003J1317L8954O3423P1241N3324
14951a1272J8687j2250l0250m0767m5855l7972j3339K1275N5529P7880P5217M7321J9820K1862M6873N5257K3720
14934B71736k5854n6509n8306m6836l3769j7301L330K0021K3883J3413m264j5398q628J0728K1481J0934p858j5197
14916H5606j5118k8502n6120p0229n3254k6272j9903k7649j3049L5786Q2598Q6075N1091K0263K1257L8862L9370R532
14898A60344l3181o1080o1359m3837k7717k2700k5085k9213l3098l0528j0977K2350M4579L3397m516m2895o3355
14881b28871n9945k9288J9556N3416M3733Q002p525Q775J9850r02l1405m0804l4597l2210k6613k50L6993N9595O3395
14862a79095N9427M4125J1136j7134j0069K0376K8227k469l7171m1228j7160J6714M9732O7082M8479J26l7319l3917
14844c0138l944K1760L4231L9232L5471K3208J5824J9014J4349j3065m5309n4371m1255k7353j7910j416K1391L5102
14826B4821L4486K8916K3166J3610J349r737k4270m5318n8198m6367j9454k412k48O75j444k5793p1498j06624j04666
14807c89006o9115j5552M3558Q6561Q6630M8122J4539J7704L9130M4205L3370K9608L1228J3960k3475n0358m6782
14790a05673k7773j5097q456J424R738O393k007K185K0268K9006N875m2545q2628q4537m8590k72L6027N1710M6949
14771b08003K4857m08m157K4024O1736P5658N9832L7083K3143Q063k0199m9963n7078l5107l164J4327R320n777j0220
14752e6033O929L6417N6883N4695L4397J0754n186j3073k2234m2531o9121p8771n3130o011K7068K9910J9824J4263
14734e4950M042k3352n1563n2444k7574n145L903J8474M8520P0389N7995K0659r495j6839j0363o27J1170K3182L0481
14715C6463L4493L8818L3041q43n6293r2690p5634k0322K3084K6950J2024J1116K4858K8652J2363q128j7882j9698
14697i628j6957p95K8865M5035K0894k9296o0922n2710k7042j1125k898R667J8342R016o566k495J9842K9258J0257
14678b9258j2112n596K8174O1815P9320Q5260Q1283N4877j82o4552j06400j10847q8739n8303k7754N98J8283J4256
14660g9877q296k7172k0051J2440M5600N3113L0595k139k1739k3402j9790j8384q997J7921M8106N4699L3437J0259
14642G6323O959J3869Q065j2682k9398k9493j9593j1481p542k749O548J7836K2515J2249j0763l2507m0151l3635
14624f5630k2308j5591j7913k3241j3249K3821O6860P4291L6503l358j194L1839M9950L6024J3783M047J958k259
14606A74333j0944l0236o2671q3334n6508J1739O7979P4729N2510M0700M2760L4778Q272k3305m9932p2181q7122
14589C1567q5236o0835j7392L1907O4938O4917M0154J5773P34j9199n0253p4882p5866n3237j0595M5309Q1924N8587
14571a1685j0953n5233l6240k674r987l0082k221N6743O9110J5180m0195m8766l6244l7582l9925k4746j3222k6350
14553b85072l9179j9070J8212L2698K0626J1038J5074J6244O760J975J5977M2874O3620O0313K9065j2016l6804m0901
14535i8566m3358n1199m3862q044L3887N1703M5755L5859K9920K8420M1965P2021Q6170M9129k3497p5166p5816n0728
14517D593l6478l5918k8602m105L0212O0320P1192N1753P093l8269n8094m5174j2874K0394M6107O7258Q6598R5319
14499B81325P8990L6453j4078n1105o5874o1479m6701l3816k9408k2614K243L5334M3170J2047l0641n3123n5313
14482B5410m9126k8290J2058M6295M6902K9742L0997M6357L7972K345j7162J145K1231N883k7787m0334l0242k7921
14464H5475m5163o2190n8208l1197O273L0526J4469m3912j02847j08896n2473K2149O3517N7671K7094J247m357J0541
14446a90281L8344O8290Q6896Q2201N5082K2874J863j1419k9250m5839m0316r876K0459K9574K1498M251k8674p5537
14428A40j06142r3314n3017k3827j2614Q067M8106P7466O6349K3613j8130l7657l3384j3615O664J1685K282r27J6536
14409a31719M2479N4540M7615L1460J0832j3404k8592j7933J1930K9420J3881j8836l6090k4570K912K7710L9027
14392D0662L2287J0229j1741j4927O28J2244R75k4064l6294k3010K549J8738J6048j25j8029k6961k2863j2167o713
14373f2534r725q545J3517N6038R4267R6718N3883r669n4612o0254l7243q693J2444K3205J9383j048k6486l8390
14355E2256l1537j6938m066O079P952j1000m9282q1250q2191n5413k1615J0146M3730P2145P3348L7255j5337m9867
14337a15585m8998k2502P496K5396L0209L1025L4826L7494K9112R615m953J854K4186L3593Q840l5478o0439m7726
14319f2035k2671k0653l8288l7827j314M1489N0989K6784J760k548M596M954m877j3463p134J7861M6957N4175K8794
14300F7549p326k1365o195J7349L0492L1118K0052m448l1936l9929k0682O540K0165J9615J4914R591P060J7062L6886
14281A66512L9983O543m2329o5080n1118k7498j3934J987L4526O7318O9694L5406j0687m1224n0534n1014n3300n4081
14263c8830m5038l2857m0397p6395j10365r7095l0448M4557Q1597P9969P1104P3542P8683P2410N2236K4904K014l036
14245A06555J2376K9700K3689j0306n2388q0176q3077n6436m50O6346J07566R8597N1948K451k9545m9754o6759p1684
14227a347m9763n731L3381M3828K8374J0704J0058K4568L6057K6696n247l9796m9267k7119O36M604j0701j5484P18
14208A5169J6309J4704O582P23j8234n6717q1585n8631o831K5289K8723L6190N6974N8402K4866r924j3336k39j478
14189C6956j5111j8093m801J2343K1628J0610k9534p5276p6335k2163K6410J2999l1824l3237K0124O7420O8278M5117
14171A5511K6524O495j9810k9999j3682M45j2963l6223l9827k7056j8599j5316o259L633L006j599L113J2722J5394
14152a34490J5577K3489L1605K7105K0255L3598O5177Q6199P6335M2583L743k5310l4556k3416p854p399k1336k9906
14134A41399k0748k103J1781J5907J1669j98j7109l0550l1295k1102j8129m2576q6429j03522n2076M7620J22118
14117g5343J26136R1835P4813P4035M2613l1352r7903j07915o8510k0114J3749L2295L5260K4072J6631L2683O1722
14100B24707O7902L6421j764o464K0091L6534J5805k4307n0601n4986m9571l6627q697K5931M4190L8244K2176M016
14082C03000k4368o0224p7940o0622k4184O420K6465L9646L6503P847l3532o5698q1189q1121o2374l1053j0187q266
14064b00877K046M3281Q7635Q8134M4298j891k7850m6031n9767m9710j3655K0623L5737M2698M6557L1203m368l0118
14046G945k7395j6102j6614j5106N643K8160K5577N347m562R77N352L842O103J1380Q860j118j0728k5256n4146q2470
14026a44311p8365l4885J6994M5473N1115N4030O2430O7423O2524N4607N1489M5204J7874l0958p0921o8084k4805
14009G6834K1306L9959L4294K0959M075j8156l7007m0865l1528j9667j1748j2628l0093o1314q2998p2714l6484j79
13991b57954K3192M1844O1958P2775O1192L1390K673r713p848m215l005N039K2919L1162Q283l3609n4092l2275Q054
13972c2230K9787K1877k717k9417m6299m1854j8013M324R390P282J5736L1776L8657L1615J7955r24k7702n3198o0751
13953a04706m5758j7211J6934N1524P4583P1648M1862J854k5023k0126J9267P0984J00329R2201O2253K9996k389
13936D18222l2990m3174j9725J9285M1789L4681L580m2687q5432r3210n5902r096N474p632j4964r155p840q671P515
13917A00068K9145J8430k5995n6400m4082j9515k0101l3838k7018k016Q584o961k5884k5156o270J5020K7287K8800
13899f5902K3989J8444J5277J4853J4133M579k0102m7063m8236j5119K3332L6213K9964K7984K7282J0354j0668n380
13881C3934K0409K7183O251m368J5678L3086J4021k4796m7075m7940m3601l5654j6120J0693L6786O3227Q4129Q0255
13863B06098M9983K1538J0084r848n8791j05439j03164n5405o686J9073L3710M6360M7334L2230J3912O494J2933
13846A60416K4348K0647j3037n6914o6382l1053L567n23k0559j8805p120j5843k7202l092L7581L9577N895j293L5301
13827F5509N6328K3967j5597q490K3687K6489k300k1871j5175K012J9612L5355L1773m761m7754n3580k0964O758J368
13808A02366j9426k7036k0150j6109k2965l2050k9217q942J5205J6515j5849n5211o0448k3470K0486L4919K1629
13791a19753J0774K1847M5523N9566N1853K7273R85j0564J108K7144M3022L0330m14j8653j0293O426R994O598J4963
13772A97729K9769K3389j5080o2066q5613p5101m2584r454N154k699j5462j2182N660J8311J5960O764j151o126k497
13753b7279J2815K2411M313k9306l9306j4642J1473J4686J3645K7569L3457J361n0162p2154m7272j444L5210M7310
13735e7315K6054j9765m9729k7844K4801M9506K7980M992K1069N7010O6604L8640Q85k1993k9625l1004k8310j8225
13717C3731j300J2164P923j3860k9993j7830J3003K8976J4719j2239l3211n1076o8151o4382k2799L4247O0737M0350
13699f8991N330k687K2118M9193M6814J1484l2179n3907m1309p293K1502K5509P460j0638r936M574J2732R707J2508
13680A991K6644K6051q969m7336l6955K0250O2007M7730R598l138L194j1381m7538o2827l6863K313K3164K5171J8146
13661A1252J741j7823k1713j0501j4591m6415o7245l5968K5737N6244L5216J723j0567j3476k4380k5583N726N1097
13643i9526O8511M6246J0652j2797j8605o128K2758M6250L3061j5853n8570o0452l2571o423R634K5337L5273K2043
13625H840q974k6942j5706M331N300j3280l1170l7397l9381m6811n7649o0474m6592k0970k86O385J2980L9342P6331
13606b52123Q5840M6765j4040n1902n2925l4215q291K5590N8199O8456N1754K6017J433l0521o5578p2426l3922J8541
13588b33348M1405L6265L9225O0738P1262M8670O580l2912o4077q1773o9762k5960K1659M6096N2778O0191O4833
13571D1870M8639J0579l1540o2279p1842n0006k452L5657L2034J632r209J6634M9982O1213N2415L5232P699k8627
13553A37631n1873m2911j3118P645K599k2294m8765n6851l7458m416J6602J6866Q279m369l1008o5762p5670m1296
13535c06169J1238M1729M3450L6776L2194K7401K9114M7145P1147Q0080P2520O3926N6680L7287K713l2791n6663
13518B57777o3940m9031j5404J0724M168k2304l2698j9550r966j7012k0444p005M492k321j0785J073K4042L3902
13500F5718K8531K5349L1699L7664L1609Q815k6637n6770n8302k9677J626J0661J060j1496k3250l2265k3119J2065
13482f719M7894M8508J3940j8935k2190m926N625m927k8368m4102l8766k2175j7393k7592k5861P366N0071O3094
13464b5456L9688P585j2176k2068k5673j6562L452J7184J2331o275k8708m7802n2437l3029k46J9999J7909R422Q341
13445a34521Q441L055J723J1454J7669K820k5922m5118m4370l1618j4704N643K5692L6361L4359K6560K0578J7108
13427h4790J3901J2657J7903K8280L1657J5896j1801k5303j0442J2147J2086p320j4046K739J5959N103j1147q358
13409d879J867n743k2351j6869R652K0193p67k1445j1115J4202J7974m623k6959l1895k5736j5667L82J8281K5451
13390h0047K2875K9576N1678O3118L6358j6162n1802m7048j7826J0477L0692M2533L6206Q320j9382k2487j0508j5198
13372E1373m1183n6353m1741k2677k7233l5283m379N8444Q9026M5343l2159o4842k8136K6834M2041J5555j4625k5497
13354f5492k3252j4021P750L6100M6224K7194K571j811N006j037j4980j1352Q101J3094k635o385J8176L6894J5196
13335G5341k6436m2687k8466j3704o578J1627L6128L1213j1564m7160l3632J2436M2914M0832K9177K9011L5283L2037
13317A65772J2130j8974m6413n3891l9008j9361j4590k3936k8447j3416J6527M1228M0536J2128k2160l4884k1607
13300d8366j796J1797K9711O2000R2640R4215O0767J1737l0675n4675n6062l8275j3419Q520K8307M5842M8169K4256
13282B74693j3743m0130m4061l4840k3796j5996j4391j5250n032J9853L7858L0138J5372K5420M9438M1368r189n4494
13264B23218n6445l9542m7314p6577r1219p9615n8836l5086o02L4675M7862M2233M5916O4818P0434M6548J7215J1057
13246A18740K2708K9068K3343J2525j605j6892j9439r34K1038K2321O729p28O653P291j3999l9913l9498l268M7338
13227A81478P8690P0170K9588j1567k5712j6705j3648l3894o0841o5336m1559j1363L729L231j529o797j7405l1293
13209B9237l3686j3782J6050K7767R289j7275j7352J8020O4212R1979R2935P3671M0296K080k0447j2384R980J0254
13191C70844k3897o3851p7951p0116o2969n5568k5485K7023O4488N4086O138m2254o6886o5450m2646q984J2973O500
13173f4005j3337j3070J3448L1693R967l7964o7517n2337o295L7860N9110N8556N0070M4612M1347L4042K4881K5136
13155A76197L8964N4089N4622L7142Q737k2688m7884n5585m6042l9244n3223p6324p9479n8244m2315n3811p4351
13138b79439p0854m2037j7831j5435j7494K8L4397O1417O5349N2310L7319K6945J5530n157l2056m6012k7103K0250
13120b39873O3250O9950L9981k35k7357l5618k6944n058J7074K2083J1130Q285K8520N2557M9998J9736j1551k7021
13102H907l4211m0239l4626p776K8069M8296L8367J013m7302p9023o8542j7254M1242P3103P6171P0634O7643O2549
13084A87021N2580M1600K7245K002k7530l8326j7674J7592L8138L1987Q859j9565n1685q6552j12191j12872q8839
13067a48210o0862m7574m1632k0035J9661M7487L5632n105l7054l7899j6873O163J9781J9345N797p229k66K9400
13049b39473O2442Q0479Q2487P3128N0614J7301j1337k3065k4661k7694k8870k1329j5957k8576m9135m8350j9276
13032a71272J0624J8330J4763K0083K7605J5643j3066k9319j7087N752J4126O682j525l770k983M083K4518M9822
13014b6991N6164L1771q004m1483o4823q2572q4290n2061O625N2338N1176R778l5163n4120m2859j2825K0961M3472
12996b32906M5940L5194K9404L8210N0325M5514J8080j4203k4938m290K8815M1884K1015j2572k3726j596K9992M2048
12978A12190L0786J1404q385l1609m9843l9537M224M3451L1625k4913o2341l0792M4146R1268P7927L9761K3898L0043
12960B93303K6171L586j2826o483O760N792n536j1903j6452l5799o8413q8378p6256m2386j2112J563K844J370P523
12941b7632L1557P0731R7986Q0756J9041m5523o7963m2474j114K3092K3113J2794O952R711J6463K2148K5803K6095
12923B81536J5780j1155m5229o4371n7198l4579j1301J1518L2582L2065q590p0420j05425q8947m4537q471J0914
12906a65828K5132L5096L0142R908j2032k4970k8415k4875j7163j0472o176L415K2825L9508L5739J3486o133r117
12888h9930k118K356K732O530J9576L8557M8472L1859q362m0388l5108m823R427q688l2448l4240k1287j4187j2443
12869a44513m381M270j522j7192k3026j3761l88J4711L8521O2062O2619M0508K8517M9677Q4539R6185P2326K7304
12851C76456k2043o3160q2391p4526n2495l0417l979L4077O7256O8907M1416J6984J4927K0173J0928j2809l7132
12834B72172n0942m4084r260L8137N9301L1985j8385m6252l7335j5214l862m296p388j0652j7712l2525n6089q0623
12816c3024q9775p4977m8143k6996j3404J47J0335R276O743K1632M9220O1438M6470K4714J5304J0642p18q453J18
12797c9451J1885N546j1685j2266P936J9460m02l6486n6171m8505k9914j6309l506J9710M6816N4550L3074M714k05
12778e1209J8372L2118K4205Q430L596Q781J5291K4132L4454K9811k813m8579p8401q0493o1567k6704J8727N3510
12760g8339N4857L1033J5207K0292K2764J662k7321l3533j4337J632r449l9997o0694m9792j1748L0016N6006O3048
12742b8693N4901L1836j359k6982l0137j9182j4401j7919j2514R012L2692M6434N4817O1141N2192J6668l0575n8333
12724A19598n1753k6621j1004j6286k5987j4433K0998N2110N2219K8643R250L869%o132j403J4792J9221k303l0624
12705A34154l8557k5265r342j462j335j0538k9611m7916n1547l7600j1384K2074N3188O4761M7433J1293k7334n9694
12687a8682p5007n4945O32N3250N6486P251n0532p2588n1189j0336J9483K3756J5547K2442N0535O8945M5740q620
12669B2168n3488o7783o4807n9862m9027k6384j114J3070J2732L200n993r78K7063O6114Q6883O7797J2790n1573
12651f9192q8747p1886r893M9351O1102K9738k865j0416k282N965J3890K2337K3717J6501R556M404p220k2092k4556
12632g2588j4164r067j2081j391K9695N2721M5829K9781L4755N1693M7914J7941j2178k4553k6047k8242l3579l9692
12614C6747m0239k7030o697l882k8434n2614m4866j3726R247J7292K5718L1684J7658o365p075J7991L0896J1640
12596c2055j1402p757J3225K8984L9719M9562L9305p802o8803r9034p7539j5304O2648J19266J12950L9862m3051
12579A42774p3144n2572l0727k7586j8412P119K0284K944j9613j7850J959J9604L4404N1544N9684N0091L7992L6087
12561B24582K4810j8221p1735q9248n9675j6924R505K0140J9041j912l7869n9110m4846j0753J4368K3586K7090K7925
12543a9246K2710J6921J9109K4065J8900M671k245R326L3893N7087O5514N1342J8052j8124m0264m3664l1994p710
12525A78343K3305M4013L8767J3449j0148k0889k6645l4990l9838l2378j4012O759K0784J8843j225k2598j9684Q813
12507A30669K9664J2526l1346o4165o9156o2722n8963m4998m667M7111P1962M9034l052m6443n7585l8996p969J8662
12489a30434L3046L8807M5913N7715O3161M8507J7393r771k0754k6470m2475o4011p3306o7151n9167n2638l1082
12472b72717J2331N1838N5018K5716J502P128K8006L5822K4843J1030N781O390Q982J5182K2798K2314R394p327j8352
12453D5679k6392l7951m6534l6995q043K1117L2800L1505L3501L9812L1198n575n3810p8470o3155k8733r410j4323
12435a73779k2215j3510O003K0335K8887M2050N8521O4783N6229M2686L1893K2064J1513K3j8478m4118n2279j5879
12417D4729M4799O7142K1767m4807o9221m7372j8965j35K3597M9031M9823K2684m617k0864m7246r1681j24225j17287
12399b62848q0024l4694J0819M7611N5591L5650K4416M6785P6719P6326N2505L9406M1665L4070Q328j7572l2094
12382A22659l6879k4637J1575M5508L3731k5182q1225r5071p8242n7534l3327K873L6895M9197M8139N6092P0163
12365D4735O4489L0752p089k2553j3317O513K5028L5154L0795J2364q275j8492k0407k8083m7153o4371o2731m1661
12347h4302j4357J0640L3448M9521M8387L1986J9132K0025J8405o153m7365p9893r0301q2230n7018j2685L6375O1877
12329a44508N3029K9459J4028O368p158k8715m5259m2980j8154J9742M9368N0157K3418k905m29K6936M2396J3939
12311C8732m6857q9615p5906k1618K3103L3667L0740L6205L7597J6016j4553k5455j4762J113K2439N3803O7169K6115
12293I7933m9510r2228p4023l9396l2357l6882j9654J0854K7874L5144M7939N1285K4034j3622k4163j1288o089m455
12275a08604K6534P8137R3642N0358j333q438J4277J7324q814k8569j6148J6278L9467L3288l147m8218o8260m7624
12257C0150o721K0518K1855R813j046n150j114P482R104l320j8840k1358j3444j0168r385R471M7533O8853M1895
12238A76128j2425m0249k2307M294K127j3628j909L9834P0009O1300L3808J8934J6303N719j6379l5187m2307m1300
12220B02765l4215k1093r330p286j2263j9231l4600o2809q5142p4593l1831J3589L8665M4739M0673L0279J9441J5180
12202A2938J4025J0158J4644M1373P2477O9472K8299r497j6902k0143n1945r4667j04287p4010l8887k4717k2781
12185a94450j2700J4916N5629Q8419Q0646K1101n3767r0803p7060m3812j7754K700K0569K2459J778k3160k9523j3571
12167b48383J5023M4884N9998M5134Q309j9016j9177j0741j7723l1002k1654J5245N1108N7137L2095k725k4442k5086
12149i1016j6251j5613k2590j4725K2019O7991Q9736P9305N6776L7236J6448p464k0371j3676m655j6972m5841n9863
12131D0474m0752q099M475q983k1566j1052J0719J6970O085L965K4325M5993M1707J5224p453j5189j9825k8822l0044
12112A8152j0396K3884N3140O2923N2934L4567K1028J2398p413m7384q6300r1620o3313l6386l0945k3642J2945O2645
12094d2783Q4069O6575M0475L3520M2068M8099M2151K2356j0176m4928o4673o3522n2325m1534l1576k5242l3112
12077c0558n5689p3368o7603m3071j7479J116J4005J8338J0567r53k614O237J4802J9244K5849L5482L8782L0544
12059g6369J7958J0733J2309K2768L8680M5307K2164l1749q4536r5765n5576O042M8146N1611K5554q180l0209k8781
12041a09893k181L7435O7386P0040M6039Q484l1621o4626p1637l6045K4713N8079K9472l0281n2993j0131N6227Q2669
12023G1136M6867k4777r1497j24212j10136n4276J9003P6588R6463P8962M1157J655l1419n8718p6290p0762l7365
12006b47621K113J6084J949p471J4723N5104P8791P1786M8985K6763N585j8979m2064n2044m1419j3688J6312L0810
11988e4281K3968P465k663l72J4016M2079P8327R8757P7576J9555l9153o8777p2377o7921n8496l4481L288L9816
11970F326O4399P7485P6675N1598K582m7267p3259p6919p6510p2033m1841J7288O8195P2627M0659J6093J7058J8807
11952A41963n78k5938l0817j4769M312J8036K5887J8495j2144n0007o4970m6250r844K5612N3238O8579O3637L5541
11934A99983p528m8466o4313l9789P309K8669j889m8477n5351k1720K016r019k4762j7517l400l553m230J1256K2730
11915g8051L873k9824m2728l1968j9735p047K1615N4551N9140L4005J3278J2440J0557k330j707K6298N1458L9985
11897A13810M500j5127n044J4021K0208R643j0580k9112l4699k7625k0486j7088k650L0476N9763N5083J8236j8493
11879A44836l0167j9748l321Q972J4585J2208r76k5974n2997n8948k8001K1876N0242M0383J6333L227o629k9312
11861E6589n3387n6684m3634l4524k7124k287L5528N5946M3744J5220q207j7051n279K4480M4680K4742k2794m9091
11843a9133l2174k145Q416N756Q609J2919P470j031l827q927k0396k1191k077J4708Q821k304Q111L1986M5048N0819
11823H9458O5596P3708M4310j0988m3199l3343j3817j4889k9179m0740n1122n9013m7701j4166J5986K3101J9673
11806b6325K3816L0007K6422J9859K1552K5898K3672J9513J6619K094l0093n7915n7241l5731j7489p397L835J2207
11788f697Q875Q257L4094P6316R2354N8820k105n5079q7351j01842r5786o4516j7854K1495L5960K6378J0893J0758
11770d7030L0776N2455N1423K1333k1957n4548n7957k8458J5523M2335L6540J4608J277n5Q34N150J7215K1070m854
11751I5680m8657o9834n0534j6704J017K916M361P723P717P428J1355J4403J1248N016l283j8469l3535k7486L635
11732i6003L2387L5124K2624J3901M65l1742o0020m4196J3421O3215O8289L8749J539l0319m7196l5218K2K7312K9507
11713A861K8135M5480O2963M7001K552l2039l8315l4078l6294l9133l6344l6668m2962l9893j9749j051j199o938L246
11694a73425J8362O264l4701o4185m9660o130K7656L6025L2555L0980L0539K8334K8367L3222L7834L7828L7851M5512
11676A03228N8590O1695L8025j2725o8105j00176j01813q9236p4513m7251L830O0157Q4993O7501L6593K4324L1786
11659G6903M1362M7158N5761O4153N5514J9661l2901p9878j04361j03648q7209o6656m5012j8680Q229K0031Q477
11642a41096j1274j6107m088M406m857k2201k8004j4821Q769K8952L6946L3795K8240K6229K2564Q786j1158k1573
11624g6492j3286O083K2058K6236J7720J26j9054l2015l5121k5104M138M7742P6800O1555J3643j7503m289K3198
11606G6435K0107j2149l3369k1524P117L1072M7218N7205N5808M1170J8073j3053n0084p1109n1891j0841l798n2013
11588C4374j02304q8231j1980O6000J04236J10473J01731P5874L2513j0320l7296n3175o6209p2140o7076n9219n3683
11571i6432l9508o933L2053N3806M7832K3538N4m950J2049L1938L0081R030k536P317J4594J102q432J7831O0321
11552A82755O3598J0283n4767q1396o5912l6215j3840o923j6984l2314l1630j2746j417j2733k1924k21L4629L8650
11534e9107R202n644K3514O1218N3069l233n9339p7975o6308m9910l9688l2461k4711j2463J0376M0411N9664N5462
11516a17923L9798L3972L6613K4534j0609m3334m3452j4106J2221J1380j0069k7987k5268k575K6476M6919N2804
11499a0606M7181L1945N078k5135l2623J371N3824O9445J8272o4236j08754q3545k4800O115j3036n0139o2558m3272
11481b85473j6731J078J9541M6736O5740N5246K3969K580K705N745k794r688K666K6419L9596L6985L1355K9322K5149
11462A00146J8486J9927L2420M0653K8687P48k4502l6104l8654l9727l8922l3298k7422l0149m1636n0293m5536k8206
11444a93382m566K3301N3281P4596P5449N9207M1615K9846J5242r720l9016o3130p9473q4720o9228l2462M827K0183
11426a78150J8544K7081N9961R9743J16144R4526M5245n821l4130l3235j9257j3739k1034k8503k7548k3531k2346
11409E3950j9341r840j712n861j8002k1599q787J2590L4694N9102Q1363P8272K9897m5714r9068r9477o5146l3220
11391g7899j5330j20J4061J6493J0705J4515K7354K4381m827l5251m0334k6959j8686k1689k7091l0749k8748q649
11373b28823K9458N6610M8248K3240J8617L3777L5514J4943j031Q27J101q456k932L0502N9547M8825R768k0810l0699
11354A18226l0322k0169L950K4406J7425p161j3928R281L8670N2054N0400L7333O508l8194p2212p4503m8604j2123
11336D1037J9090L0540J3331j9209l5869k2023K989J3958J0671P541O775o40j6570l4881n1973o3372n7152k7301
11318a83058J1079L5272L9643L3326K0977M726r39J8977N1832O5100M8522K6463J9694J7871L991j5355k4299k5428
11300A48394k9684l0949j7609k745j3029m5520o3901m6956j6449k869m444M27J4846K0995J0438m455j0661r196n444
11281a08811J720J3730K4134K5134J8770J4486J5596J3805R96j5558j6605N929L3789L8469J1771k7431n6112o6545
11263g2733o1957m5926k2396L860L2482O2933Q0911O6018K3211j0906r656J1120K1742K3765L7430N4694M2290m582
11245B32300m6452n1124l3691k8465m3757o3480p4895p3172n2613j6191J4173J8018L410l316Q598K6773L8547M3655
11227a01682M2901L0629N705j8800k4775q125J2287Q327k7266o5333o7949l4990o682j1023k7810k1494Q334L4105
11209b73641M4839N1622N2625K8813j5436l8639j0392M5155P5697O0653K5481K226l587m378o283n266j258l256j5726
11190I249k7224k2534m921N350j704j2941j4558j2983j7978j7670N536L8383M3053N902m2437o5383n9527m3466k5902
11171b61755l400K0621L4447L3888K6462J9631J3708O292k399q996r647n363m362j3976l1497n0541p2242r5457r8551
11152e03137n5272K2512Q1775Q6182N9759N1709P1693Q5429O7450L1481P430R677L0785M8123L4548j8096q0868
11135C1180j09807r2201n6205l0614j3750Q439L2048M0443L0452J6300Q842K909j2142l4762m7538l3711P03K7610
11117b31804K8115J6891K0310L4845L0539p1k3294j0782J7493K1426j217j3359P380L9529M8427K5927r852m0085
11099c9582n8401o5328o0409m1853j3184J1394J5799K881j184K3857O2004P4691M6127J445k3421j6999O744K8465
11081d6954L5015K1473n878l1170m1109l5034k1427q961k501j489n6M892N365q221k7981l2509j5482L518O252Q56
11061b01401O431K3043L3446K9207J9162J3914J5607K1925K7477K2035N16k4471l2097j7368L971J4850J0979l195
11043c5969j9210k4102j0052J0742J4070o893l1877l9609l1587k1755j5146q485j457P048K5441N4256O8634L8235
11025b7716k8597p8449o5044K0O1084P7010N1486R550l1825n8873m9236O627P6398J06568Q0455L4139N282r459k8392
11006A31028m2178l0576q323j4135n0916p2421m2383K0044O8654Q0730O3244L0497k699k0211j7727q123K72J6980
10988A01757M3920N3508J8965m1243p6729o3197k4945J095J394j7188m2583n8288m6683q025L0872L9501J4941j4814
10970h7742j8368R361M3190N3750L7845J7986J0484N169j4106l9780m7984l1056n028J5522L2856N0814N8389L9002
10952A30304p603n7593p6945m7752J2390O0707O7597M2457J5218M45p721j3489j2789q094r820j8380k1460j4963
10934C2509j1562k0712l2515k9907q289K2482M7442N4111L9918J6822J874J128Q263J5237J4321m476m0897p1385
10916C4364o7283k7918K0674N8459Q2560Q8470O9358L9896L0221M2680M2176O551l9689o2366o2823o0747n5066l4177
10898A05340r058j239n384K990K4885L3921J7323o847j9091k1169k1881k0715j5678j2885j9079l2709m5406m5420
10880i2102k3663J1372L0090J1320k5659l7503p701L5743N6254M5231J8439o764k1868k6783k6818k4483j4361N413
10862i3843K1568K0617J1315J2736K2080J8243n69j0210l88O993m033j2305Q845M5940N9588L7467P274l322J401j347
10842A48050k1531m5221m9236k4889J0564K9683K4771J4171J3704J3980j931k8817m5004m2702l3691k4686o733K3615
10824d5903M8155M4761J4390j9884l7796l8042l1617k7615k8168l1128l1540k2020N83K5642L3531J8634K566J0955
10806a14496L7463M7893K6294r68k078J4432J4109j0100k7635j8853o093j8362m4152m5479j2721K0607K2635J883
10788a15621j0309j132J6107K8091L6215M3058M0075J9569p542j7515K00K8209L7200J6669j3934k7596j9808q500
10770D3436m913J004J6935K4620J668l7257m7265j0117L7025M5334J2312k2058k8363j7568j8934m2738o8403o4819
10752a80101k4799J9502K6818k057j9750Q590N9286Q2207O2051K2167j7206m9614n9541l1185J3946K7105n309m1504
10734a09394m2490j9435l357J224N143L638r753j6380N042L8910M9672L4071K3939L5496M6565L2777J954k0320k3524
10715C3778j8733k0948l3110m4718m5080l8690l9604m5736l3549P447M9566N8565M0211K8356L2456K9373J0182Q19
10697b9415K0997M9333N0511K0601j4007l1443l0874k2433j6153j6444j6857n819J4298K3064P864j5468k2449j3865
10679d8559j2812k8973m3174l3396l560K3539L5539M0656M7508M6561K3140j4409l5463k3894j366L88j7251k3108o12
10660f9246L1838M9132M8059L8152K2419K779q192J63J7685K3380J2232j774p963r537r200J279K7069N2406M9384
10641B70065R531l8327n0654j3993L8061N9390L8723L429j9464k9485l7592m3772m1991l4644k6855j4152Q552L0329
10623A07151L3284J8831R455J9152L4301L2913J5814O862K0280L6390J9625l8157j01723j28056j11287p9774n3530
10606a58469k5928P879K8802J8864o729j6176m216L761q784k6996k8713j5414p848j8178l5178l5074m250M6042Q6446
10587b00159R3766O8291K6214j7791n2784o4241m1493L903L8995L6671k12m2869o1259m6797j6940K415K438l357j097
10568b76306N975R734J4586K7021L7034L0323J3873O737P757r99j6304r925K5654N5796M6850Q722k5090l8932l4394
10549a11888j0574K4537L9719J4296k1748j9715J7097L4830P277k9938m0480m0181n6601p0377m3340J2104M2148
10532b52834K9525J4251K4309L1411M418k9336j9165K9541N6534K7989k3111m8245m0003j8456Q694M1819O2969M8267
10514e1423M223l5147m8386m1307k2244R799M4677N5594L1194m215j9895j5463j2390k0596l2205m0664m5530m0658
10496b84636j7037J9274M7022N3046M5660M0386M0944M0069L3513K6449K5450K7050J8232q306m2345o6361p5092
10479g6682p4739o5138m0043p877R191P264J0289L1715M8579L6965J3109Q058J6396Q024j6371k3577l933J2379N563
10460a00828o440o850q423k0261k1563J163K0364O490k1754k5134o291k739k4046l7397j9250J4246L6890M2761L6724
10441a42338K0856L054j819P957J6508J5745J7470K8909L4008J4921j9768m3566m1439j8950J0123L2385L6406J9338
10423a0200p378k6691l0836k3572j0316P404K7617M3491M7020L7066K1001O013q901k6272l7236k6735M185L2966
10405A8626M0313L0143J6998O975K565J0297K5164K2248j1797m9650n3362k6346n830q678j8091k2382k8089k8890
10387g9786k386M6923P8782P1346N0249M1844L2969O746j5001m462K0310J7905j5237m3997m6050k9522o716J5545
10369A39462K3892R336j1870j6918j0991j3818j9475n094K3999L6331K3136P953L453k984j3582j0321N905N103k4242
10350A49275n2463n4558m5219m3839l7423r933J8150J6185p299j6460J44K0711K7263K2946J3484l394k5782m1771
10332f9983m0534k1837L788K0453K0549J6383K4630L6197K3742j2488l4616k0902pl708j2304J4023O6525R3984P2420
10313A76315K9178k910j8169k0255p664J1192J6820M994q052j4992k8457n3168p0064o1147l2695l376J5027J7967
10295d9456O567o341m443J1725K7608L8632N0119N1974K2354l3812p7870q3517o4710m2597j3384K7606N5821M4319
10277c9405P105j5192o624J3031K3797K5863K3394J0540j8567n7336q8327r2727o2000o710N0794R5720J23547J23467
10259A10370Q1791J3533l3922l1463m801M157m771r85K1946L9809M1353L9226L3478L168n0848q7092o9489j1917
10241I3543M1933O6781O6656N2791L1270O696j7086l8270n3198n8388o1028p5210r9506j10553r0471n0938j7999j249
10223c14226Q825J8723K1590R560j2284k6080j3950K4260O3339P1146M1776M525p066J0081L0861L3350K0221J1409
10205c940K0960M0510M6128K6213l60n061J2247K2505Q586j2684k0963k4828m3271o8412p2548m8679j9882n777k95
10186a49551J0819K7805M2101N1336N7957N9262M8047K1732j2716m1370n1916m5019l5423l3741k9201l209L8927
10169d4160O6198N9654L6059J9529L498l5599r1306j21461r7802l8345K3507P9634J32155J55418J13519K0284n5065
10152B25717o1812k2458P071P734r39r074k5255m1841l3458L21K5298K1178J1031K3271M8116N4619L3639J868k4340
10133B40686l9207m1871l7941l7468l7957k3184O661K2645O400j6115p847K6119M9125M6487L4295K0566l883l1970
10115A75541l4854k952L6173N4409N2834M2230K0137j3724l9940m0221k4608j9148l2764n0261n3547l9944k3176
10098F185k0961l5939m7892l5010l431J8292J6151N888P096J9801L4149M6144N3237M8115K8132J709k1007l5302
10080H5357l9198l7039m3608o5275p8466n2727K650M4503N3627N2635N6125M3340K605l5593m1849l2589l6108m1883
10062a63493k4004P942K5632L2388M9909O6203M7100k133l5251l0986j6574j5590j4528K678K3859L3273L7972M8102
10044G2499N3547M0862J7454J915R74N761O57k6469o6983q4683m9460J7861N8710M2904j217l0554l5483l1106k4791
10025c7602j3220J094P228m121l1482n5368m5810L920N5942O5715L8888J9718K4292K4393L781j4083j1404n996j1027
10006A4858n356K4218M7579L5707R718M550J0086o115l6843m4602k2706p70O924J4649K5740K1647j409j9486j5117
9987F3272K366J7693K5729K1187k542l6753o0807o7695o6620n7586k6986K4293O8761P8069M8319l215n2161p6297
9969a00973o6953l6587o233J3161K0465J7164J4501L3188P3921J00681P9695K5275k0123l9792m4486l3404K134L8530
9951G0164L1974j7972n8728n4860l0999k6292m0830n1139n0521m7511m2641k9040m810K6528N4403N7422K4742j5028
9933b05138j6534K2054N3496M7259K5816J9980K5532K6113K3080J5852j2608n9683q4499o0112j6164O417J5612M2662
9915a30865P9978R0020O1677J6452k9112o7780q1002n5935j5357P511J5157K9488M3701L6069K0579K9978N0688L1818
9897A33065l1608p9284o8336k7269l239J390J0046K4452K9774K4264J4832q5j9923k9180j5615J0518L0356L7404
9879D1562L4194K3356J1745P423N125o811k0009j1416J6489K9131P587k3833l3980k2999p442M992O416j5729m9455
9860c654n4124j6609J5548n766n7997p9026n4310k6779k5097k8996j3128J4645L3756M0431M1258L8796L6865M3546
9842a00641N8000O6735N9373L7085M224l3604o1317o1009l2151O729L7552N1656M3148J2720k1682l8643m0023m3099
9824e4947m4704k0959K7991O2780N4502K6006J7040K5030J3159k7729n9206m6618n656J9076Q132j6981k5742j0188
9806e9014J4440K5970Q748l4749p5889p4755j9248N4159R4121Q7958O5222M8593K6285j5175n4611n7210k1100K0313
9788C4058L8100L0107P802j7208l2778l2239k4636k3911k7773k4135j6985k2559l5936k7324J5559O2181P2940M3942
9770A9205L797k0474j9283L353K9658L2997L497l4956n0339m0974l0628k9203k1006M237L0676L7543K5063O278j4001
9751f4560l6193n0843m5628k5029m486J5753M9108Q7375R2201M4832j2598j8796K6499N9507L8456k967j0695J1788
9733A53724J7191j0679l7510l2958p234J4279K1062J0051k3006o7040r2377q2831n5093l1397j1183J2120K5294J2634
9715a84953j1213j2861J6099M7605N1359K5956m580j3159R817M5824N9450L2037j6581m8841m8202k7911q672k496
9697i1322j3590l6976n5230n1960l1305j2503m832k33R448K1870L2310L9005L8587K9196J9910K2830L2518K7991Q18
9678b3468l1800m8341m5755l4756k3410j2168L633L0326O4861Q5462O8666K1197k1704l7975m1440n1542o0276m8720
9660b07210k1098K698K0209M5370P5111Q2701N2019N61m0003n3515m3951k3044j203J7296L4370M7418M1661P750
9642C7140l3251m2640r800L2403M8236L8128K3679J2103k897j6801j6477l427P972J5684L2090N7594P1938N8419
9624C10093K1278k5128o7337q8289p3260l2786k937p479l0681l9909k4471q71Q812o967m0830o2464m0115J7739O0320
9605a25282N4739K8619K5174L5859J7855l2259o9547o7584m6600k3090K0040Q6720J33219J19016O5533K6345J7940
9588B66697J7406J2741J2464J0528j4925o0411q9616p9631m7998k1430k138J8461L2465K3169q772m3746o4117o4886
9570a03739m6695j1471L0525N6912M6957M354l8489m9231l0286j4084j9909k9334j5240J7698L8527K9393K059k2746
9552a54799l6449m1361m0207l0306m213L9379Q1462R1922O4966L3655L2806N6960P2641O1520L0088j2932o0785r4885
9534H9462r6396p3490n1456l4841o403L4671O3702O5825N0748K5227j5926n8276o2704j6373L7569M8254J6374j8789
9516b822l3398l3324k8078j9680j2770j2214j1142K087K6476M9516O1344N8657M2488K1259O622j561j3505k6502
9498G3453k3255m348J659k0366m4289m2076k9383l8360o0570n7370k2806M117k752k0281j1435K6726O4950P5923
9480a30463N5654K3042N687J5830L5404L4684Q661j4913o585L2898P1581P1974K3792m0131o9132m7775j4106j0755
9462D5347l0529l2238k98L8694N4571M0817M378m1791p1136n7753r606L4587N0645M9630M5711L0199o463m8742p1864
9443B4159o8972m6169n969M4206P8328P0007K4186k4437m6270m1648l2147l5329m8870n5767m4131j9984K147J5947
9425b10713K2585J9832O724l562O179L1660M8948M5843L3788K3405R038j0864j7680M310L9810N5560L7021n39l2482
9406A08863m3982l1995j020L8757P2417Q2493N6820L185m6508o0341l8134r037L642K026l691j4457l4505n6600o5993
9387c8060n3346k0305J8812M0608L2564J2245R529K5318K8696M121k1760j7648P238J7930J854k0440k6634j4295O454
9368g119K3949K7971J6215K56m724K470Q956N137m265o797M077K1592L1098K5071J1641L574K034p86p207j4029k2408
9347A16706l1984k9399m170K4742K4668k521j5116J2858N5202O9307M7790J5985n104j4520k2605m2251p7959j12420
9329I209j17303q6439m2546n232K4939M3956L8171J6069J2049L4984M6142J8242j6215j3895R804N384l4215o6642
9311a23538n9819j9241L3722P2183O4773R380m2345l7078R628L6163J8604j5123m4528p1902p9209l4247M4321Q6856
9293a51400O2887K2333K0443M7454O2365N4345L6393J3044j1293k0731j5360k2394n1201o7409m4030r210o392l1510
9275a11666m8157m4402l4128j8066J3446M6035M9953K4390J598M008K1965L5706L8306L4661L2694L5890L7392K9443
9257A49068K2269L3347M9674L0947l0125q3082q4986n9045m9115m5777j0891M2709N8528K3196j2504j0890O190P237
9239C6750Q60Q776K5711L5929M2734N3524N6926M1309J9540J0798J0633J057j9888l8193m4858l9709k3193j194R668
9220A87180j334k2130l2661l2350l7659n3946o3972m7928p248L4208N0384L5631Q638q365j2105j3605j5272p527
9202d0061J0302K3639K5185K6825L6170L6795J1534k3390l0609P58L8506M5465K1438k593m764M710J327k2002m8261
9183A10974n8351m9853l0838o191J9188L1841K1411l91r239J053J3812J8927K6913M3762N1952L4056J113k1888k8905
9164A69346l1596l3807k9653k2436k1777k2482j0754N479r85l3463n5484l6019P483L2002K1641m481k6655m0744
9146a34385m2947k6214J012J4830O142o029l585L979j816j5355j3491Q547K7705K3176K056j0187L454L6125O0939
9127f6044N1633J0574k4837j8379K0598M5608L0703K2j1109l175L13m380j308Q348K675k1878l7608k6175q009j1274
9107f3702l0033l7580k8937k2063k1017p666K3719M9227M6414K4527Q020L269q79q902j4482j7122k3497l0217k2611
9088a73532K472K6269L0681K2767K5809M9010P5082P8429N0382N017l6678o4730q1282q8393q4010p1550o0590m8351
9070c43198j4107M8892J04818J06100N4921O664L047K7922M3151M0449L3988K5224P403q489n905M756k638k7525
9052A05473m1075k8742o194J0271K0580K2485O415j9845k8623r408J4467K0695J7109J9765K4070J8013O399P36j025
9033A51566n358p404l868q197l0817n4476n2054k2312J2765L9863O2026P8333P8069N6798K2315j5596m8008o3296
9015A90349n7359m5591m7233n6926m8785j3071K5158L1738P44l8732n0080k2781J9168M2883L8832K1763M417j3052
8997a8558k6211k2092l337M725j1016k7190j5653J5086L3212K6785R715n725j6969j8225m900J1905J7346J5117J6479
8978a9506J3904q813m4013o3732n4351k4215J8027O4143Q9172O7726J2443l3292m6321l9715k6045k88L0749L7989
8960b6138Q796l0827n0922n0328l8925j5302J4962K3825o478m9810o2756l6722o91K0911L0501M0106N2278O2006
8942a15514O5406O1879N1915L4443Q655j7318k5377p799J4531J1561j7558m3628m6592l4942k2231q162P254J2711
8924g0766L072q290o940N045J5599J2718j3722n9298r1604p6052k2385K1575L0264K3792K2510J7436M439O608L2454
8905a53545M8310K9090N163J6561M6462M7166J4015j5222k3186k5366k4366k677L2621M3495J4177k4127l5756j9032
8887b6217R298L8881N9486N4216J8862k4345m5912l6444j2115r08k0525n8162p7135n7193k0645k068l568k580P441
8868a99633J4018J6419K6421L9383L6855J9746P537K308j2581l3112l0612J344L0561L2682K3021K3661K7268J5344
8850D0630j0459l6198n5399o2628m6758j0025K2918L2600K6250J8063P997k750L603L7387P6103Q5519N7584J2260
8832A96697k6024l9343k0967J1266K1340l641l1054k3445J0509K9973J7817l955j1792r072j3203l0756m9783m9939
8814b5372k3845O688Q601j7945l0536J645N1642O8182M3193J5130R972J2326J86k1598l5578l7800l4807k8278j6277
8795e4471k629M436N87r688j3479J208K8898M5491L5341J3944Q767K2338L2497K6775J5644R997O397k31q704k2149
8775A40969m6247o8817o2705k2791J8272K7620J0555n384r752j1143j0872k94J7879K8272K4828J5393L094j6800
8757C2077l7419m0244k5164j9656m0225o1136m5570O77L3496K9058J1724J4473L4970M8607M8109M6568M8225M0991
8739A19561K0948M542P697K4773L5679K5590o109m5854o9479n7273j4963K6832M0841K5115n795l8779o2984o6445
8721c6103m7651k3514j1149o932J842J0657L074j8240k7033p221K5443M4894M4372L3744J9185L54j8418k8660k8754
8702g0110k3644j3659O056L2307M8184L7056J570l3151l7418l499M2405O0249L5089p272k9963k5404j5701j7768
8684a4673k5672k9544l1639l2072j6467K2670O3047P3752N5010L3613J9260p685n6051r6766r4553n1332j17L2909
8666a56310M2962L4653J7087O555J4240L1054L8857L4294K8037K5815K6338L1797M0327L3991j09l8364m0208m827
8648A66189K1872R594j5703j2934J6826L9663L8021K2631M652j6635l9679n5941o1255n6875l9937p334L1103N6400
8630A00658N8126L9594Q957k4302m8388n6724n3633m2994j8466K1422N6208O0676L6738R791o276k1020m1581n4606
8612B4180m3194r232K8946N2027M9190K3765n207j6961r422K686J0827J9965K9604K5388J418k2205k0207M976K4808
8593A71352J7488j0847l6691m2174k7434p699L9p884j8055j3089J1268M2617O2749N9718L2781q186m6583o7041o5430
8574D6899n2485m3781m2241l3492n186L0796M6385L1287P461J313J2260K1766K4142K9017L5869K8141q65l3288m7640
8555E6358m2364k9898j8821j1998j1578j3243m059J9721L8500K8653n598l4060l4819j3592J1566K9106L3058K0257
8537A7189m19r322p72L902j4773m1125m2541j8255k897j5087l0047j8459J2975M2805P2786J10128J27793Q7749N391
8518B87021n3366n3202k9591k8817m5696n0684m4990m6309m1837n233M6308O1045K5744j3030j5728m14l924k3589
8500c6292k8876j2618K725M386N392J6866K6648J7644m276j5008l750J1538P223j3240k2786r414M089p819l2500
8481i0068l0139J5439P4565J03033Q2019K5832l3025o1229m3939J570L9474M9258L9139K4438O922j6845l9537m8078
8463I8829l9651k4396j5019j7175k5161k5219r830J0242J7145J0009O219J5712K7075K5489J3100K743o61m356j7432
8444D7663l9645n6721m9366j6405J4652J5466n150r092K1910O3403Q0002O1631K1254k3010n2271n2494l0616j1101
8426a9890n069J512J8191K8687J5745j0843l0138l7736l7424k2250J0182L5988K7851m372k1847n750K2940L3348
8408h75J6665j1921k7967j5698J5315L4114K1407p088k2443j7903p401j405m864k6360o2731q3603o1477j3349J8374
8389b59210K4672L5683O4360Q1328O0378J8182j1600k1242k5068k8581k1859L262M1614P4619P8749M6585K687j8063
8371A46496j2064q184k2510l5869k7397o102Q475J5998K5012L0067K2667J2805J5629K4017J7008p923l0611l4375
8353A33139j9689N546L2085M6890M2161K8321K2054J8723o256o0106j10081j12628o2225K36L0575K4563J1027Q250
8335C2585M005j5439l5535l3296j7150j9214m5810o3644m6854j3395L780L276J0222L5099N9672O1619L7959O157q330
8316d4293Q236M0954N7175M3505K0506J0390P326l160j4168j3363j4314l8014o8800o5858k3266J6169J8788P60o259
8297f7686k042n698j6815j8184q616n456j3847j5151P276M3891O7273N8558K3689j0705j6766J2237N4829P8550O6959
8278B32296L1689O45n886P790J7410L962k5518m8163n5500o0739p0150o3223k0097L8371O3010L6011j957k29L8962
8259A18684O6750N1911J4602j0224j9484l2971n2207n5508l4884j3741j6690l7299m9470m0732k0393j064J3005K1044
8241i8671K3215K5440L6118N3022N9825M0682l333n3329q5903q7926o1995j9826K7638P0956R6509R1052N7505J8326
8223A89305n513j5197k7192m9426o9953o6172k3541M5556R8174R2593L6722j0584o504K0456R046m9452j00574j04629
8205c6885q5674q2617q5333n4696J0733O6880Q2391P2356O5537O4677N6042M0613L3828L8807L8488J9027j0025k6048
8187B08101j9240j712Q464O537J668J569K263m386j6802k4624k5463l2474n4652p3218n5803k571L9081K5736k5462
8168d2988n6107l9234l679J8110L1215M8633N3719K5774j7360l9581l8569m0077m6774l3848K424L3336M4546N3232
8150d7228O2136L8734k9559r3153r2939l6805J3448K0961M820k394N864J6471J6607J968j6798j6077J3345M3531
8132i7068L7689K122j6216Q716M7553N5865K8526m050j9353k0618j6632n779J3176K8028K3478K214j4752j3127l517
8113C6255o919k7718n2175o9177p5934o4781k7619J9974M4422L7817L0951M3175M7165J5211k4284k1918J3971K6501
8095e5083k20j5886J3646M9722M0058m280l2490k9066k1420k5700k7569j5472K308J7614L1790M1715M1205L8315
8077D9187M5652N0966K7101j9799m3090j5546K8804L7889Q474j9102k1885j6545k0832k6020k0050j1669j1695r191
8059A2649R013K6450J3706k3665m2755j8589K1640L4982J4400j5258l6241m5966l5700M567N4352O6879K2988l8690
8041B4762o4896m7461j9093j09K2736O0602R0862P9170K4527l4377n9727n0855l4843k8963k3537k323L1756N9417
8023B7648O7919O1740N1536M0609K4031l031l6285o0179n9974m0631k6333l3360n1192o0638o0196n8214m9737k5683
8005b91970N70O522K273K4457P6809J11289R0954M2089J3847J0362K8k3812l5317k6647k2984l6859m3864k3063N830
7986a19486R530j1403k6119j6021P669K7134M0384N4762O8564O8162M3370K109l3559m6622l7542j7112N795K3774
7968D3389K6859J2030n368l375J9943M1397L7733Q233k9595n7425o4954n0968k5361p954j6533m9735q0885p5259
7950b77828k4164L6341N3382J3361l8998m8586q630M1247O5878O4017N2114M1763L6926L4401K1619j0000m5010n4512
7932d6679l3623j1731j6380m1365n9627n3609k3474J9496N5288O4372M8808L4430L9895N3873N4458L8526J6259j1627
7914A27290n0676r1791j12162r7071m9884J3651O8237Q5819N9721J8261m806j0116k2353m3680m6138j7348J4185
7897a58861J6937m82n843Q599J7580O76l0096m5201k9559M981L3538M1496L5851L3562L9989M4707L9559L0087K2484
7878A00004J0625j0124k4340j1642J9369L2619Q658k9009m4789l6195l0728m3765n9574n7077l7429j6982m128N032
7860b29475J2591J1833l521k7868m4733m0460j7862O359K1286L3949N3429O8013N5027J5354k1131l3523l4009l8941
7842b13682l5546l512M1964O1196M4170K3283K4213L2167K1653l698k1567k5130k4510k2408r019J9423N0602O4713
7824B4312M7492K002m4662n7404k9083P983K0008J2121J3714L2301M5458L7954K2677J7344J8953J2044j0228m2183
7806A30803p1926q2933n9778m566N5749Q7457P6486L6651l020j8268n088J9678L6440M1083L9037K6884k667l6235
7788B65787m4039k2285r778l7889p8040p1339r195M8743M7945K097l5334l9353k6805j6775j0391q858k0981m3228
7770a09718n4175m0536j2434J6135M3224O2804N4290J1722l0601l0034J0472M6263M8544L1030J4039p734m3175p2513
7752f2397o4450j9530K5283L6890J6593j0701k4432k0683o673P858J5540J4129P520K433Q14m476k1009m1505m4770
7733a93566k0018J5461L4200L1264K6110L2035L8347K7750r6k8575l9898k7323O35K5246L3554K9617K3691J6007L834
7714B8275k740P991K6549L4507L6794N1686O7258M6146j3126n8417n1501j9261p863j7051j6917l870L454O197J7444
7695A35555K3251j810m3646n8740l7481j4254r601o371O101Q484r207k3661j6955o295j0740j7747r854J254k610r256
7675a03583O056L7079M9880K6735j3270l5304j8815K5759N9837M8193o16l7809k9585O674L3253L8676L4340K4492
7657A51992O810q421p841J63o352l0622n2252n3766l6627j3399J443k871k1662l2560j9592M917J6345Q928m702j6477
7637a16546k4643j8348J4252N9633Q2320O3001J9918j3013j9270q803m379k0372m7270n9455m6187k6920k2632k1944
7619b10658J548M2480O2308M1471P696k799O113Q65l1946o7441p6485o1548m7457m2601k6013J8409O7081P7317M3758
7600a97902J1074J7679M6025M9340J5507k0061k1583Q916M2213N3557M0478K0465J2939J7511J5849P78j0961p999
7582I3825p220k3862l5712j0677L8940O6580N3962K6140K756k3969n2529n7115l1572j2013k7237n4738n5515k9148
7564a39104l813R068J7814K2306J5220L551L97J394n167j1984l711J1286Q446j4955l5559l7549k5863o664J7543
7545a77344L1083J3356k5840m4781j7612L4583P1647P5406N2613J7125j4722k6103j5648l201o593k0577k9822l1997
7527a18427l3815l3291k2762m878R802J8917K7989L5495L2467J8241L449o199j7360l4697m8997m8327l5302k3387
7509b81082j6843l903K4749N6376O5763M7426K7968L4778N7837O0194K8916m937j0193l16r854l7164m4631j9931j407
7490b6254k1066m9760l3533K7456P4530O7913L3106J4785J5077N555j7720k6445o898J5794J2555q853j3908J4323
7472G6657N2248N7737J2680n4466r0857p0641k2663J845j2849l3909k4287J6436N9854P8976O1342J1555m1413n4776
7454B3469j4506L8104M5798J723m4050m6703j4901J0489P596r437j4476J350K1177J9191r968m0289m2773k1589n264
7435i5059k606Q132L7972O2544N8564M2492M4491N8141M9243R345l3488n9718p9525r7823r1980m8677J087J5186k291
7416a23970p481K0903N4250N6759L1879J0383P169R813N447j006j161j119j1970k8249l0781j2935R062J8376J7909
7397B3278J7450J2396n624k2433j1058K5747M5533J5087m4767q1799p2451m1199k1826j6872k054L7649Q3749R7715
7379C8521O1079J019l2677j9548J3162K9649K8413L2227M7178N2525K9881j3668n2486o2323l7519n10J1710j4707
7361A11926n2177o6200n7540m7039l0518J3695P1416R0010M7623j0528l1933k4420k9709m9909m3526O231N7410N7895
7343A2707O295n0508o8950m5389p159J9713K8218K1852L075k0463k9978j6522l304k0509n4550n3371L899P2336R7404
7324a05204P8744N1304K9220N008j4443j4228n730j3018k7271j5863K0729M2788L1384J4666J9241L1288K5632J924
7306A56171k8744o3240q9448p9335k8463K0935K8254Q312M719K3988L2579J4035p062l175K2092M6993N8407N6556
7288A73574M6783L4370K0140o8k4441l8033k8668p622j010j9531m6564n6135l5780L934L4050K8822n275k9806j7818
7269C0922J1492J9408J41j8181k0334k1081l0132l1390j3680K418q310l6605m9876l4137l158K9283O2752R2565
7251a7903J00118P3188K5190j7481m2251n4533n8751m8585k1310Q485K2217K3364L6584P2544J01925P8964n796
7234B75969j04314j49473j15217l7822K1429L3742K2514K6614N1282O6281N1150K3786J2580J5022M943k4951n1451
7217A22084n4660m1651k7247j0333J5311M0053M7168L7528K8765L0650L5013L1678K2458J5147J2105J0573R854J3465
7199C37961K3858L5332L3856R973k5367m6264m0924k7398k8613l9078l4757j3720k974j6559k9180r688L3515O1510
7181B21483N2165J8669j4998l6166m0919l0855j9183k3903m6911p1157q2096p8208n8790k2617J3542J9306q719l0589
7163b39946r615L9953P6150Q5527Q4831P6204M1083j5835n4620m9970k4943j4554j9049j7101o396j917m109J466
7145e2841J4612J7841P295J894J1631J7465r61l1393m3312l1461k3601l8850n6539m2581J936L9164M2777K7206J9207
7126a20511K0124J6199J2249K6542N4222O4753M3940J5564R219K5352M4457N2906M5364J9047j6070l5855l0918k4292
7108B22292l8388n6171m2924o49L0194K5402L500j0843k0424l4875m0860k0381J2058J8641j3602n4179o5385m3123
7090a29717j3827j230o119j2718m170K5897O6064Q9868P6270L2450j0903l2029l7953m6235n7405n7480m0930j7110
7072a77277K232Q372n827l4171m6416j2189N8781J18636J29755R5024L8350k0144o1563o8927m9393l5039m1732m5766
7054a47294k1836J5188L2472K7733K5921L6502M3862L7280K4181J3663Q042R290J4664J0308j0905l1320k9732j2780
7036D5239j263M767J7334K6001R635j9506k4535k595N955k0296n0922n1299k8424p333O920J8574J9672O152o629r625
7016f2178j9534m6680o5720m9177j2275Q069N457K743R662J5856J9663K9929M1019L7722K4856K0793K0442r91m0138
6997f0482n6289k6997J4886K1964q511l7779l5559o597K5445M1841L7849K2204J0328J1287K0206K5742K1822R529
6979C0889p531k5244l9771m9329n2488m4615k2740L752J5278J431k5395m0409k8690M113L8253N3749M2689J3798
6961a32260j4769k7879j8528J3732N9600R5401R4965N4700l11m2320o5250p4747o5728k9137K1530N3264N1945M0744
6943A4952M7158O4858O5324L9082N939j3521j7848j5222j2882k0298m4063p0986p3107m0988J898K8365L5669L2582
6925B6912J8666k538p182K2071O0502O3215K2531k4066m5857n0847n8586o7684o4098m2348n855L8046P3114Q0354
6907C6350N9803L2167J1497o884k4953l1310k4141k1767l2939l7702j8961N994J0646P70K757J9939K9694K1546J1453
6888D3959J5111K7495L3773K6317Q680p004q885o66n19j4168k2441j2605o012k7297n7354n2040o425L5105L9330
6869A4354K1162Q096P80r956j3938J909K3734K5363N416j3835k0628k4276l1286l1843j7034M290J4194M127j9148
6850e8519l9091l8219j0058L1733O1692O5577N0587K8851K27l6957o5804o3201l6135k2829m1884n9083l0137L4007
6832b29243P5807O4883L1305J7186K6575L9928M8825N0275K9360j9679o6564p0970l2656R063K2982J0819j0422k5328
6814b7854k1165J779J9640Q995j6900k1290L159K2527J2305o345K487M0267P2744O8265K6899k1164m1782l0581k0128
6795G1858l9621p1116o8417k0329L1801M6656K5879n215k9517l3805l551M9654P7785M6598j4804m3939j8459K6007
6777B7465M6276L3306M223k1416l0798k1890o887k002j0280k1169k4870j9357q385k484j4807m3050o2170n0000j3930
6758b42225K2984N3198Q0166R0429O2204P176k6463r663K9682M3584K3266k55n667n972k0654m4066n4624m6385l6759
6739h0044m0942m8847l5870O102N7410R1569R8204Q0745M3230p176n0573o4931m9878k7393j4294n783P518J9147
6721b1806J6336K423n552q02N602M131Q09M132Q497L488n449r56K0093L8598L7621K2508P557n492k1031l0167j7763
6700F2777J1283L1441K7159R080n522j2908j5734j1975l545l211j7791l3605l3660k2047j5424j6068j1149L537J7024
6681d0338K1617K1366J8710Q597p118j3228M49K2429L0842J6897r501l3050m4706m2317k7073l006K0370K8676J3509
6662a6875j3170k3758m533K4657L3440K0032Q973R180j186l5422o6081n6463j2848K1703K3427J0900P650R216K695
6643e8463l193Q120K8405L1756J2835n033l801Q662K0520L7874O7523R1726Q2890M1253r96j6656j1228r723k7418
6624B95053n9155q7987r7167p9856m4545q797J5689K9020L3559K5954M377k0777l0666j4150K0855N1570N7872L9787
6606A30636J7123P628Q113M024n961p247Q025K9507M4126M9123M2822J7854k3868o1803p7607p5455o6021m2526K705
6587A198M4518M0366j1956n9638n5434j3482J5578J0417n030m689P501J3190O396n485j4478j6335j0548k399K793
6568e7517J0921L2896O2693P7764P1223O4960P2670O8926K5082l5092n5201k4940J102k0646o4925q2196o8942n5956
6550B2822m8912k6805P524K1592M775j3183p639R750J9791K4924L1067K7974J0813j554N370J4745O087p237L07J8467
6530A20678J0672k8224n6123l5480K1640P1070Q2744O0172K7467P630O213R457K246j2423j9384j4440r374j3434
6512B31107k3385l4720m8542o1119n9803l8488p976J7147L2645L7956K7206J183k0113j5304Q913K3621J6128N114
6494I1570R108J7149P436j6365k9157k0908o144N189K1843M6266N8723M4395J8756N088J240p713j7191j2788k846
6475B13651o811j3960P049N1313P0768M0945k221j6722j3245k7435n8199p1418n2887k3252m995k203q949j3522K36
6456F8143L2258N3307L7085j550k6238k8985k9768l2277j7820J2910K9696J7762J437N568J9300J7594k363k6578
6438A29481m9013o9811q0117o8534l7206J740L8801O4993O7513M3631J3810N283K1746L8992L1372l202m3170o2555
6420D3754n1181k0383R419K5303K5443J2818n885j8435j5958n002j431j1368k6915l9028m2438k8893P131N0356O8561
6401b4132M6764R130m436J9284N4177O2957L4807m363k0352j0077m821k8067o1460o7920m0428p072R702J5236K0239
6382h32J9156K475k4325m5236m8309l1155k651J7646J4344n915k2334k5366k0217q251J3427L2847K9281N631r804
6363a09588m093K125r072k2232j3112J4666L6965L9028K1781p023l1506l2108q579J3645J4467K290o987j4780k4994
6344a39107k4273k283K2537K3956N686n366M289K5876M6487N4361L6916k126l2893l1509j2609l619J441K8547P0322
6325F6633Q5185N4888Q900j7939k2808j9793j5375j3193k0754l6966m9102n0381m3665k5366Q379L4295J5135m1956
6307h3883p3266l4370L6049O3423L2708k718k170J4904J3256l137n710J0336K2007J6927R645J4715K3072J6149q060
6288E9877l4840n0437m6874j6013M1636R9933J18280Q2118K2520j5389j7305n428p396k9480n5102o0816l7463j039
6270D6782K2731K6923K5552K4857J2193j6023l7672l5839k6617l0343l3102j0952J9444J5578k5659n8165n0296k0940
6252a51548J226J6964L3548L7137J8965M166J9252M5866M2236L910l0809l6816l2038m1752n8044n1782j2513L8195
6234a53837O8757O3926L2599k133j9426j2915P537K4550K7336K1128K0075K6436K2775m269l6634l9074m625L2339
6216G4545L8595K0891O522p21k1321o0330r1026q5905m9038q766J2301J2081J320r363j6295k2177k9146l2028k2289
6197b82150j84K2698L7356M8408O3565P5580O6285L1554q233k9798l1056k4504j4463L977K5867L3948K0162l508
6179C5504k0235k1313j377L9187P6987P3240J9746l8181m9954k1759m396k4192n4732n9192l2716O250M2300O5576
6161C0743O5060L7587j545k7662k6155l211J7334J1784j8573m4635m3587k8463k6598l7815l9635k7719j7611n944
6143a86645K9950Q1936J01952O8046K4911K5382N8064P1882N4147L9573M5829M3703L467n9682j04651j12479r9501
6126H5884q9411q4690o9050l5517l894L05j8839l1135k1955r190r608j2138j188J5434K3175K5535K8281J9190o632
6107a95443j9599R073N6356P2016M9105K7388K4731J1039l4746q1743q6055m6015L801L3607L4993J5954j556M936
6089a22158L0693M4212K9306P793K255l350l8259r1368j13881p7949j1384L2377K6802q864l4088k6317J217K0081
6071c32882K2247K6062M6006P0993Q0709P0430M8321J9783j1142l3909m1171m1318m6331n1031l9441r834K1283M0086
6053a61139M6070M0568J9968j3157m3081n3562m2574k0080L167J9873K4916J7783N994P45P113K1027L6980N4728
6035c4661P3238Q0387N9050R344m2965o9806o8143n4189l6028p990K8133N4796N8879M6411K9910J4493M733R717
6017A55309K7069L4257J4174j6825k4435J025L2337L6510N973m2498q7576j16316j24343j10597p4962k3629K5627
6000b88900N3357N7605N3913N1570M2601K3171J0416K0304L8682L5671N771k5414l4169k1161p36J5233K0719J7906
5982G6539J8297K8222L4429K0135o456k0309j7018j8331l4658m6731l5972j1205Q577J8029J7828M166j6085j9728
5964b71J468K1187J4082n716r554k524j1567l3261l3391j988K8779L3609K8304L7568N5895O1979N1628L3789R181
5945B79197k4119n3657o2665n2291l7583k6986k0543k0933k8805l2748k2922j1622k0269m4702n3016k4719K2219
5928b36164N0735M0730R12m3449o6609n5572j8532K1452M6671N7282O1750N9806M1095J046m5628p1362n9399k0873
5910b36109J6577L7734M9433N9102N7657L5682N510j1150j2735j5260k1463j4879R642L1098L0479J7359J3329K1056
5892G3062K6458K4011K2092K4402K1331M088k0761l5704l0062j3032o977k2463m1945l8702j2207J0028R560k599
5874i420j2549k8369n7308p5394n1250M481M4842M6628L6729M7130O8052O4724K5352k6835o1111o2873l7118n426
5856h9715L972j9504n2175n6724k3186K0707M3402M3276M2074N3439O8205O8030M3971J051m6581q0217q2945n0774
5838a13694R33M6694O9403O9622N7985M2101K1822m632l1760m6400m0714k5546k1395k9876k5645Q257M5979M4417
5820F7551M002k4611p169K7791L1722K947k1050k4165k5073l1292k1550J1566L6529K5346l260j1348M307J6792J7799
5801G6834K7098N1307O6157N2478K3477k360l3271q2241j26913j25984p6829k4005J647K1692O4452J06827J00375
5784A20741M5845j228o014M029q912l4835l9448k0664n234k607J074P467j90k4100m2363l9136k0249N248L3428N0470
5764B3322L8353O521r209O455K8139L2334L2044M4798N0964J8439m2822q4881p9687m6333j8641q914r705j1891j0417
5745d1131l042O814R847j377k4283m5532m9795l4571j5378p380l393J4511M0342M3993J6208j0206m174J8775K2104
5726f7668M066m220R505K2269J5214L43k176Q451K0199K6128K5272J8444J1926J4828K4995K5923M652l1931o1193
5707F5027o2003l1699P214K3548J1257n81J4441M1095M1946R964k3595l4296l1406l3163l8851l6492k0825N038L0361
5688f3020L4686M935l8967n7201l8020j1319m588q730q07K2956N2949Q0873R0374N9307l064m5228l1658P510J9576
5669G0564M011R79J6133R540l3243o8870n7617j9243J132m725j1192m515P477K0882L8089M6424K5267j7589m1098
5650a7594j7054L3659O5303N8271L1124Q056o606j7729k0833q788J0102J7457R537J952L972K442j5884l6467l1002
5631F9918J006K4286J0878k1647k9370M700N0215O5294M2754J2646K952Q831N667j4917l3861l1103j2718k491j0329
5612A42711k0064j2188R021J9780P410j2331j5191p89O531q882l2655m1923l6759l2973k9057l551M7916R2692R2768
5593A72466M6783j1005m5821m6456k3851M44R004L578K324J3150J7251o870m7768o6925m3359j03J8798q521o2041
5574g8922r6767q0660k3922K9487M5196L0638J8367K4660L6657L5396J6320j2016l4801l6131j2931J3695J6412m065
5556a13387j7478l651K0911K6912J1157k197O190L0221M9458N1214L8087J7609r422m4163p3932p4045l7062Q499
5538a15079K6987K0026K1021M3146N7673L5985q548l9693m4095l6141k7313j5630l324o82o054o42K6766O2153Q3120
5519G9676Q4365P5813O1197L1363j8407p1411r6157p3059j6425L1697L5894L59l5141l6861j1760O814N662Q768L8967
5500A01354P6400P6222K6254l4873o4452o1053m9819m0491k2898L713K1645J8109J003j2491j1640L525K1617K4900
5482G7025Q212r191o086Q950P437j7082l8722l5319j3627Q607K4978L4707L3641K2838J0879r90j9034l5731l0813
5463C0679m124J7564K0871K5403M2734M5299P020m8572p7249p4276o7573o3884m4818j1269J3346K7414N4690R2615
5445a4130R9393N3453q646l8606l3714k2050j3577K934K6473L7096K2267q398l4915m3258l4658k6640l6647n6543
5427a30166n4892j6025L4495N7470M3940J7366Q04j472M651J2476J5519J2399J0865J7309K4818K1872R066n047k1454
5408E3994m8503q0716r5084p6405l7646o776K982L678J3913L3932M3505K7020k295j1502J5881O0220Q7219Q1685
5390F5102N3295J7746j4766l5820l8397k4455n036R791J5550R555p217k3003k1845l575J2302J0839R48r81Q57j1862
5370I028l7224m6349k1870J3868K7747K2210K9095N9980Q8968R0918P1522M6231J3745k7440n5135m5887j3326M175
5352B30256p823k8885m0240m4746m7343m3793l7775m3939o2486p3549o7788n8374m9713k2942K5909O0522M8040R486
5334b55183p360O991K1608K0995K2785L5597L8229J7044o790j0014m685j6467l8452l5763L491M5644M9747J4985
5316i7598k2602l4950k9807l0804m1384m0771j3727K7777N6470N5137K7645n268j7138M621M1748N9331M7563L6598
5298B2841N4630Q3614Q0018L4758j3346k8469j9272j8362l7107n6248n3728k8562J473J7735J5772O141J183J618k541
5279F2148k0062m9213p5730p7374l9980K1438O4674N6666O622m5144o5669m7647j909M7386O6192L6170j8438n1177
5261a31047m6760l3136l2979k8326Q511O7026J04480R2959M3488j1944m7761n7210m9988l8624k3734J061K7653L2514
5243a23817Q588j6682j3191J2051K7894K5441K6641M4502N8796M3136N85m0656n8112m9998k5980L262K5896K8498
5225b3146M952l1914n2672l4833J1369M7444M4456J2334j5756k1790j3523k049J2344K8422L5801K8280J2985l468
5207C9236k6057n6658p9245p5671m9844k0509M568K9728N0305N1775L2885J0145o402k3227m2373n1169m4607l7461
5189b94581l7683k7633N658L8661L8679J2262n036j355K981r82L529K1503L1107K2521J7949L0328L3174K190l7130
5170a43858l9335k202L4708M6127M1152L0773J0943j5935l2487l1099k6070k9892l3153j7883J9039O1110Q3248O8671
5152B3857K5316j6859l5498l7532l9965m0918k9708j4358j1259j3277N77K4875L0937J4505M956J6015K1781k29l2488
5133a09272m5962l9655k7590q243K5606O1115P5680O5427M4834K6883J8814K4600L4161K3267j5995n5436o0732l1896
5115E606L582K6525L5342L0493J2731q486k3811l5642m5212l8785p510K8532L9992K6465J2166Q339M225o621j5322
5096E2609j4612o590O673K1413K4313Q901l362J3798M5942M6968L151m2093m4951j7006m94o856j0518K333J0163q918
5076H0864l9048m2242p111L4605M5124K1949q610k9269m3768n3705m9123l1403k1437k7359k5111M891L9282M0657
5058a10814J4491K059J7776K9605J1146j7944k0949P751M1217N2774L5640M67l2778m5786l4373q769J8286L6760
5040c441L5757R301l0997o1135o6461m9616j8841J7780M7231N8492N8348O4479P7467P4660L8866j7982o5130p8873
5022H9905n8697k8871k1381m3154o3645n1564j8170j444j1418j9897o009J9004L9088N3893O0415M5082J1336j1937
5004a7464q838M91n786j7148j2200P262K5952L9588M7828M1836K2251J1606K4528M1551L5933J0059j8283m6662p7145
4985A05359r2786p7356m5542k2330m790K3366N1648N3861L1528J0398l55r822j3054L202K6414L2104K9981M8973
4967A50799P3281M8633k9888q9351p0441n852K9754J5349j1015j7899p674R941K9933L7200J2784l6539p4503o9202
4949d690k2740L2512O1151N2501K6297O417p599k8018m3862k9254P226J8443j5806n2778m4956m980K1793K3541J9642
4930A4840J3324m939j8728k031K7875K4986j2582l4282j3949J3840J3572j527o581r157k1533k4277K620L8108M8543
4911D8122L6247K1752n78m4523q5490q1996l8836k053Q363J3165J8782J189l9723o1631m3070k0012k4146k5551J6411
4892c03578P4969Q5211M0177K617J5990N1394N8268K9328p091l0507l8565l2219j5704l038n428j6644k4000k7550
4874a46370l4832m1505l2341k492L2319M9083L6788N012k0598j4863K5442P4272R5069O9877J1892m5192o8741m8157
4856e5337n795J6644l981m5054n9731l1067N913P123k3153l5315K661O3176R2274P2994L7232J9306J9932K0784J3664
4837A12270J828j2781k7148l0955j8516q18Q006Q909P999j414k4976m2061k2531K8094O6223O2272L3304J3196J1208
4818A72109J4394J2899N239q981k5930l6917m2268n2699o5270n5997j4870K8536L9056K3431J6606K7887L0843O757
4800G4825l0321n7187o5751n7050l4499j2433j0149k5695l3271j7293R486L2819N9474R3561J10018P9814J3937m3214
4782H7071o2487n0825k6472J001K1719K2426O061l646O949J8688M506l1327n6397m8545j5567K0631M2295L8014O088
4763a9817l6235o1423n9645m7946m3518m0026k1898R200L7109N2034N2859L6903P475j3354m304K0508K1600j1865
4745a22343m0742k4474K6074O3361O0428L4697J9840L0646N4393O3630L7525j8662p3766r6878q3384n2202k3013k632
4727a47502J1575K2947K8384J7601j3814m8908n9830l9717r512J4864M1782P4154Q3007M1573k5391o1150m6033j5700
4709a31670n455p839J415K2744L8458M0848L3947J8985k817k0305k2987j8729k5832m6387n8039l6060J9626Q0255
4691a19842J11258J02192P2381M3684J5725j9586m7766m2117q553P980k0467o3133o8021k7809J6688L1201J9366N49
4673C730j6247k7584k6582j3451k914p977k2924l2355l1176k5816j9390o267J6590L8669M0804J3746k6445m6333
4655a91922k7654Q723K3708Q789j588K1700N6538N4533O563m2974n2351k8104k017J3236K3205K4124O911j6318j9108
4636a34006L157K8331M2070N0841N3697L1710j6559n5509n3943k7206j0470n406J3220M5289N7293L2626k056j5313
4618C7766j2327j9362m1408n4902l8971j457K7324K3156q035l4809l2503p647J6425L1318M6126O1484O1330L6763
4600I0271K160k1533k8329k4532j5880o599k376m700p198l153R192L1483O4745R7295J03839O8687O807m6026o3130
4581B51023m5031j4360K714l501j7731j4551J3168M3469M7194J8470j9947m0046l4133j6977m866J715Q660P673j7044
4562A65899n6726p3418m4070O098L5016L5826L2564L4644K7843Q001j0020k1189l5843m9591m1916j7062j0898l6563
4544e1405n6247l5137M329J6384o5o311J2856L0145K3191P643R454K4985K5773k547l6946l7710N013N0713M7803n779
4524B6142n7993o3145k7245J5130M5235O3565O9193N9165L7797R443k5343n2442m3705L570M5625L8470q487n1284
4506H3691o8609o9602n9540l5859j1898o318r114O833L9438N7876N1839M3402M3221L3452Q033o882N886K2547J2027
4487A40423k0101m4278m6249l2444j1205R250J3876p320m2642o6504o2051l1913N273K4639J3030j5934l3523k5863
4469b33536k422K3360M4039M8366K5452j2919l5536k8041p200R285K3755L7182L3935J0110m882J6683N6658O9155
4451G3444L7315j0832m0340m3130l4334l1597l9865m6941l5286m599K3998L3348K9743K7680K7900K4552K2961L2696
4433D6713M9619O0611O0737N1834L1026l437l9371n8540n4828l4711p568J3041J0464j4390l2167j5190K6114N5413
4415A45370N3747L1466L560k2675l7562l2755j9018j7477k8057k8884j3792o127k1538l7715k1634K3120N4992L9029
4397F4050j7902p5466r6662p6855m0394j1175Q161K5497L9368M3334M2439M6566N0221L9579J9833J2041J7880J2685
4379A03200j5580m4928n3321n1581n9875o9022n2356o702M4125Q0603R7029Q4699L6357k6732n9363l8509J0906M6217
4361B5167M8005K2719j6072n1773o2680l6823J2488N8033Q3053Q5508O6518L0820m428j9892j7689k1114m4641p4890
4343H2309q7909p5946m9577k1667J119J6089K3958K8800L1225K3285k526l9942p0938q0799o7169l7611n692J3341
4325c19650J3220M369K671R440J1546L291k525R537L9208P2809R3909Q6368M1491k3471o4873n2189o322K1307J0070
4306d9794j0541j0085k152k0060o2204q8440p0282k2760J8784L6162L5155L0120L2761M6089N9155N5540L5525K0088
4288C3061K2584K7636J3317j4834l1864l0718k8949l6674m0630k8124p356P534J5964K2944K5051J7712O170k426p283
4269c6885m360J6138M7599N8821L1126p848j4570J1952L1475K2089O370Q109J3000n822m2170o2372n0108k4031r243
4250a0730p386k171J4226L0125K9865J3298n775j6964j9492j1900R462L4994M1114J9327o461r017O591J6601J7216
4231A42923K2874L1453K2668n256k6723k5796j7098j9205k9952l9658m7542n2743m8487l6428k7836k1515l223K3274
4213a58270L1974J6313N787K0202L6260K7172Q774J1467K6406J9638j0369k8507j5223J0289K2458J8179R068N395
4195E7013J0787J8506J5707L265Q53J7707L4838L5680L2602L5639K1046k6907o4458l5165L8085O8168J9185n0050
4177B32501p5863o8106o8862q0769p8185n8032l7613j9403P460M1565P0152Q5052Q0644N2785J5913l08R742J5450
4159A24123k340j9175r796N481o099l2280l3157k747K7111L5816K8741J0483j6518l1545j6307L883j6116p0196r8812
4140a19450p2021l1329k5567m2973l8127J356M8266P6731P8076N0091L130l0086k2196J0651K4750O464j1364J98
4122i3400K3004J9080j1623k7200k241L1618K3517k5677n6101k2273M6994Q2613N7431Q863j7247j6042q724m918N21
4103H195Q485J4435J9822K7688K9816J3148k0240n0374n8814m4832k2565p705o618j3669j8030j3824k725J0868K0977
4084a05962J7995l828l3968n0351m0970j3090J9759M6477N1669K1094l2678o7536n5072j6204P209Q113J6842N0068
4066a80433Q4328Q9154O5221L5157R865j8681n4173p8903o6792j3477N0023Q1638P0421M5662L6487L4620J4422k0307
4048A84232l7216k4676j1220k2305m1023l3201K244L1327K9165O374j1251j5467k1037m2348o8861o8993k5445L6405
4030a33296O9378N6763K7893J4961J2968k911l6261o5850p2919n2807r031M1657O5390L9742j2251m0040k1650J8134
4012a00130M7271N8931N7629M0383R843j2568p729J6164L5006L7287K8476J5996M337j131J084M293M065O569J6177
3993B61953K3070J6644M027l90J018p540k9434m9568n5036m6961l0693j0247L758j982k2375l0557q297K8892M9385
3974I5667M1808K1029K618j1800k2090k0316n334M769q417l5210m5194k6568k861j642j9767l2563k7213j0373J0394
3955i3063L2317M6015L9881K0539J0330J7798K7676K7024K2516K1842J8404R800J2315L5450N6088M3265K033l1035
3937C19195l3849j9453j1251j7679l3860n0311n4627l8122p161J9928K9279K0046J226j2371q455P006J0228j1684
3919A08085m2335o0511o8488p4197o1635j3133M7029P1012N1879L0697L1710L1420Q443j6613j8370r718j4220k1716
3901b0661q480J6919K6383K0339K5125M5648N5395L6568J320l1620n6720p3126p8001p2995n9627k8997K2600P0254
3883a09676Q1432O3873O0831Q7064J00912O0635j6612p7273r3509p5860l9942N176L9748L8918M125l4283n4175o0781
3865a9397o0702m1370L739M6032M4850j992n0767n8678k4386K0682M7326M8425L5055K2254J5123N986j0202k0589
3847A389q538J5279J5652k1709o5124p5771n7083m1552l8103k3801J1826M5838N5686M7241L4450J5072j3040l1331
3829a33619k2403j289J793j4366k0626k260J8421J3833j1095k6437j5270P910J8159J2808J5746M5076Q3085R2377
3811F1843O3041K6080J1324J0750P08j6746k1892j7672k9543o1967q4875p4386m2801j4609M676J7704J4332j2559
3793a66592m1733m1989j4208Q214K992j7467k9674k5967j0238J3544L5491L8203J8201j085M726K8706M3966M1777
3775a13133L7005L6823K9568J2582O203K2661L9414K6551r013l0055j6896J1826K6280J4812j5269m7266o0074m0375
3757f8356R80L5087M3346L0977J1510p600j9799j6289J868J8759J9136J914k3854m4980m5413j9366J1745J5773o622
3738f1184j5302J7017O3625P4901L8654r961l0988j5602J3670K4010N7l7792n0832k6404Q595K7068L3047L8232L3248
3719A24059R113j4892j8873k0213m4751p3128o1930j4403J8403J3001J878J1973K1316L195k5054l0508j4990m162
3701a19966n609p874o721m514M361K1119K6490M338k5904k7804L120L2643L0533L9l5424n5931n3151l1822p580P828
3681b51829J9836L9293O0999O9270O3909O2586P2162P3257M4222p563m8726n3176k7113p55J766j8025m1956n6282
3663A875n6855m0756r722J7453J6221j0329k7618j3877Q075L898k0426k6556J016L5874M9654M5732M2236M2147L6346
3644I4388K4343J5504J4311J5796J3402L830j2551k8768l1214j0827K4167N1054N0964K5011o944k4283k4602k4360
3626A69221l8156n9343o6741n0540k4180o674J129J5513M5736P7181Q3195N3194N317l1824m7744n4922o5155p0331
3608f5124n5065k3871l574j3962m2959n7685l8729J455L4058M3199L7060L2460L3753K9813R894k1059m3469l8844
3590a82649o229L4628N8346N5544L9074K7076K3022J6242j537k6367m5781m6020j9970K1766N0953M6327J9226J681
3572F5332O938J6173Q244j3744l3182m0248l0340M20M1061O1505M3919R390q333p474j0552j7267M63M6726P6702
3553B15733M7023k6191q3770r0017o1907l5338k3689j5781m61J8716L1310L5137L7279L7174J6933l5525r2551r8893
3535a24818l4994M7071P4939L5644k1285n4323o8812p9705p5375m3678n246J2879J9015L7041N6468M2026p580m8281
3517b39014m4976n563M4869Q8464J03915P1551R946k7962j9887k266p266j0659J8830N4899N1450K0187J1087K8642
3499A46247K9801K630j6505j2323j5033l7235m4652j6955J3590J6074P655J2854J9324J1996J1080L3681N2804L9502
3481B54535J4486J0371J1668j5273n5990o7617m8281l0818j9824N649L3066K3238j9401m3437k9440j5939k9302m2266
3463f4575k7482l549M040O775K3832M2177M0913K9169K6057K4142N554k0711k7610p003K4347M6061M5052J9261j2587
3444A73863k0114L187K8801L1569J9549J0459L606l323L698K6871L4699M168l4772l8103j7537k4053o4711q6068
3426E1789n2262M327L2490K6823J4337K641k2634n8513p6606n9508k3627K931J1030R326L340r103k3225k4067o422
3407a96933J1958R786r466k1950j4145N610K6408M7859O8464P7871P0309N2553L1109O283j3027q301K0525M4040
3389B08953L8701J7580O104L690n418j7669j8238j5329l1214n8875o2921l2001J459P790j811k246M507l88j7154
3370B5520k8010k6387k3245k6227l1045l4192l7594l7573k4419k16J4584M271j7880k1641J579K3575J1719k9914
3352b57095o4736o7731m9491l0608r786K5702O8078Q9555P5264L8568J442k3932l0835j4952J2938K6272J0686j5282
3334b15943k1898n409J1834J6406K1592M3881P4241Q4819O0946J6658k2658m5236n5362n6100m0822p205K7497L7267
3316g5492J7130n800N46L6449O8257O4835K9709p254k4164k4312k1833k2560k3613k1803j4320J923K2560L3502K6920
3297F0680J4241J1117J4469J0001k92K477K4469M7506N3343M2672K2907n052l7610o3128p7954r1451j01880q6580
3279a60065l6258J7250L3442J4323k153N442K1957K7228K1981J6645J5176J8315K7956M0437M5530L6668J4908j6058
3261A42724m9043p0104o8270m7281j8260J3045L9856M5833K2656j1128l0581l7536m9210o0749n0221j9437M565J2612
3243b30529K2111L4647K5397o588j7701J9290O4354N8332L595m0925l6089n60K3865J6004j5718m4656m5300j8433
3225a88904O269Q035N166K5317N5943N5379J2796l3830m6762k8932m440J6952L7824N1609M4759J8017q057j1807Q743
3206B4077L3404L7269J2435k7021o0006p3009o1090k8087P082J8714K547j5322j2099J365K395m878l38J0076k719
3187a35205m1100o5271m2384J0652M8839M8284K1192m834j0582J423R021m878k6529k4813O210L7143M2136K6699P168
3168i6829j2961k9497k5044L908K4662L947m2047o2626l6397N890K4866J5572M14k144P430J4573M668j9592l4546
3149b55753j9899J4485L9558M3991M3241M9081M9331K8509m837k4687j5814J2788L8072M1477K3019J783k960N637
3131F7022N387j5374m0449m4663k3245N634K3314K7866K9829L6525M2846L7940K0925M550k572j1251l6485o8591
3113E9208p5883m1854J2900N2325N7071K9790j5164n4665o3198l5154M006K3200J8552Q488K680o515k2643l2776
3095g9632k2380O832L6743M4818K0132k2415m8331l7498r133K135q532j5336o189j760j9243l9654l0203J3634O5822
3076a50190J00295J07913R0938N8262K3633n207l3750o6193q8255p8076l3183K3982O5423P3873M6963K24l7478m7441
3058E1733m0079l7551m1419l5277j7144n509q169q894L391J3896P730j480Q393K9966L3253Q478k0023k5999r729
3039i4433J1219K4754L0058L1686L5741M3686M3665J7753l2193p3652p2237l0111J6262L7574L7582L2420J9879j2152
3021F7501n1686o1319k3058L0437M7907J8560j9004k7917j4616r581k1233k6990p884K3851L8577K3646m199k0546
3003c7554k0344j6818j6323p072J9536M7788N4078L9955K9478L2807L4024K2105J0826J2871J4984P58j8294k1111
2985A81694j5103k4768m7218n2983l4621k0898l1754n0508n6767n5636n0544j7315N7440J30557J39054Q1194K1629
2968A53453Q918K3721K3431M333p890o971j1332k7065l6390k8383j8550k6088m5527n4999m7236l8705m5075n6855
2950b37210m9627j8713P695Q71k7765l5107j167M0265M0871m99l4523k0879K6160N9481N4057K7855J3338K1369L6529
2931i6999M0146L0476J9443J4709J0988M0j7054l2634m2646m6032l6208m044M6654R3333J10032Q8016M2442K082
2913B22744j1158p90P484m274k2956k3116m306J0351J2126J5385J9752k622n7027r3248o3532J913K4548j8219o5827
2894e2772o2924k8054q379o545O971L3955M6678L7389K7996K8711K3066K583j4090j0127M865J3470J4311J2552L631
2875G3287j5637l1859k9746j5228o778q024o054M022J0305M303m992n651l99J873M838J9772M1858M7454K4176o455
2855A01065j0913J4331L6605K5797j2764m9695o4451n7256l7514j4268M298J4462K1377L1273L8958L2570J3161pR172
2836I6201L0795L5234N737l7541n3138k3413K1362L5148R969j8436k0478o617p98k861J568J1355J6630K2579L6402
2817A59698L9204O209m6446p1964n5233k8678j7289q196P601N249l0673o6383o0598k2226J1830L4657O0517P4260
2799h461M3897j5568m3119j2105L1997L4795J20k9683l2892k0984j0797r774j8147k6432k0257k255L797j3454k9949
2780a79271j7026J6457L5761K6969Q765L91M38j06l028o531r659q673n50P580M305q526j6359j2956q094r506r789Q03
2758a88605J8229L0226L1704K7466K4750K9011M1367N3981N3134L3879P556j1286k0466k5655k6164j6573j092N499
2740F6961n426k6464m3869m9611m1278j9981M073J2199l802k5094k0907J5812N7426P2297N8947M1224L5169L3273
2722A60949K2401N386k491P723L0731N3553O2175M4861N02n2812q6844q8730p3473o3987o2016m8188j1358L1657
2704f9961N1175L4477m096l8871n3551m9078l6929k5757j4161J080J1552K162k5073m2840k6080J8258O0997Q3854
2686a22842Q7067P0586L2674r714k5456p360J5104J6408P989J1081J7062M336j8207j9893J878J5462M708q529o172
2667F6182p993l8957q1326q7819l8462L5249Q2491P7286L3612j1719l1110k7546k2978k6326k4171o248J6653L1090
2649f2092M1368N5755O6109O1630N2811N7620O8379N7596J8562k3065m3966m8896n3202n8003n4931m2577k6183r904
2631E7011J396J547p003j0848j747J2353J9608J8735J3212J565j4893k3872j6540m564o771k0993k5494j0155R289
2612h164J3832O021M180J9496M5098O2115N2704J5362k6647m0867j9074J0817J6062l116j9318j7745j3406k4834
2594G2516m5655n2533l3340J820L2478M3539L4738K1482K0540K7659J7853k0908o2879p0688m3037j6295j5993k7135
2576a15838k2500k473J0051M976k652M858K4958L7728K7158r78k2307j8735M51J0177J882q141n697J797J427m119
2556g7977m352K103J1882K6993M5604N3109L8973J3541p757k5053l9844l5359m26L6749L4613j949k3493l981K8230
2537G1606L8253K7307R369j8406n2403n9379j5272M8479P4541M8555O605j9526k9825k9966j5115R312K0497P606
2519A22238j2159j9011j2172N342L9096P9686Q7552L2293n8746j18961j12185o3212j7212O917J3339L689k3197n6223
2501a02926p7052p7299n6985j4100M4037Q5098P6680L1960J144M933P557k0733m5570j3974N8990R8869O9111J3651
2483H3391j0802k885O290P247R347P957q864l2903m6223n0456n6599n3906k2606K3232L9890J1318k4267k0084K4094
2464a16829O6324P0708L9409L219j0104L95J3376J2241K052m417o561r125l985K1890O1001Q5558P7133M4004P298
2445C53587j8427l0232l4816m3382n9018p0293o6489n3576m2106k6773L075L7630N3164M3115K1858Q8j9381k3636
2427B4388J478L9354N0281K1520j7815m1381n3809o1736n2920k7172j4170k9265m0028j3232K8055L5546Q048j1242
2409a54100k238J1158Q410j06J9P465K0097L8208M6636K7213l095m124K3548K6520k5184q6859r8980o8735m8962
2390b83109n4516m9289j3806K2435K9946K2383K7265L9187L0647j829k8245k2260R255L7501M1578K2377n206k5827
2372b01513l0536j7526P656L3327M9472N7239O5177P2121O1951K5330j8493l6383j9246P292J3488n371l4093n6046
2354b6154n7013k7524K0104M7996K9504j2740k8620k868K7603K5831K21j6918j4678n009N404J7026J8876j907l0633
2335c1499l3851o201J6983P768j6375k2375j1531j3343l7472n8673n0934j4619L4608Q2278J11159J01429N4056L512
2317A14920j2929L927K1736K1694J5936J5506O143k4597n3102m1522Q464N0980N1465K3539k84j1691k2290l4687
2299A33208m1749m4266m6031l8420j3126J5459K5758K3062K9688M2100L2095j615j9109M034L6478L4692L797j6717
2281A59338j3024q349j8675k9448k2360j486J7060K6275K9870L1253K7616J3286j0059k6128j6569J3052L1628J8033
2263B21313j3158l4951m3815n2475n7998m3940j2364J2357J6079R769N825l44j5800l3313m0292l4342k1691p876M394
2244a42622J4488K3727L0738K9054J7689R919J9188L9282N1736N0054M2419L4621K6387J9126Q965j9315o5745r1313
2226I8398n6984J3921N4007M0607K1025L0992L7986K613m6380n1763j7342j95k2866m9109m9308l6177k1874R763
2208d2686O0750Q8758N6332j2142n6893n3181k5406p29J8364L3559L2604O683k7992m0477j5926K7896N4317L9548
2190A43379m800m1045m0181o521L1954N0131L8519J107m5217p3366o5190l1635j830J0921J8882L0961L2202P611
2172E5882k6516l7884k2136r043k0328m2006m9126l9405k4882l828L4748Q0595R9533P0508J2556l4538m9025l9211
2154d4106k2766m982J9186M6434N7788L8417K699j4175K704K6938K3566o359l0920l1398k0620j7453k3990l2940
2136c1977l7970k9000L063M4766O1159L5492m452j7609J173K1076J8443j7j7245k9360m0078m3573k6846R590M1901
2117d1464M2874J3547j4059j4136Q37j99k0778l2508j8485M019J4428J7919K5807K7892Q719k1997l9834l7608k3779
2098a08805J499M0715P3579O8100K2571k7615n2099n3354m5889l0161l45L7368O7423P7599O3287K9694n909k5986
2080A31672l0161k8611j8970R679M6289N7438L0767m380j8228k1032l7331n7599m9856j4472P988p655l6016l7910
2062g8388j3785K45j7594m7310n2360k1699J8960L4702J5948j5120k8879j3159K5149P1235J05501J05208O2563L058
2044A54275l2027l0596k3156l9670o6890o7849l5534k342N248l915j0760j5853k4752k3106M945M1972N2157L2828
2026h5025K1098L8509N6468L6534j4834n6184o3980m9578k7984K815M3812P6699P9001N1221J8190K670J736p285
2008A23883l5871o4261o2620l1328l058K501O059L2462O3652N7242Q264l7369l8063j866L3086M3014L0339Q038j0710
1989A23394j6316j1156r603j9204k6866j3960J8546M9410N9525M7298K3464j300k1934l7079m5495m6113m1963m0772
1971a0124m7375n7177o1298n5572l9619j1915K4732N5352O1469L8967P53l5657n5104m6237j2130K2190L0354J5163
1953a83228K991O319J0763M454l52J3361M2205O9032Q2438P9097N9670L4184J9516J9173J6233k024k3693k9151j7587
1934B03401l558K672j618j6179l0107k1858J3014M3006L2750q990l5703j9842J5760K8528L566l6324n8368n0859
1916E9291k9978j7888j6084q760O437Q593j3498l6558l2732j1108j112j553J8957O5785R7055P6639K3474j4965k2176
1897A49819k0926l0688m2881m1112k5821r415J240O618M842q309k8806m2313l7345j5960J2340M0602O1059O0011
1879C2955L1859l281j4546K134J8649J4117N26l264k835j3184k8199l0221k0515j4658j3231l084J5129K6831L0253
1860B5435L6446M1416K7963J152q961P263J9337M25l3304m8225l8605k3848j6061j4019j8181k8336l3128k2711o017
1841a31959L161R339K2955L2632J8081r546j1216K4600N6163L8697j5112m8442k9631J3520L2457J3067j9303l7976
1823c8513l9069k7868k024L6935O6887O1801K7064L59R441M1437O2159N3674K2236j8778n6948p7779p2362n0555
1805a903l3387k8459k3083n697J5582K2670R704j1370k4176k0813l440J9821L8662M5830M2590L5844K5829K110l8575
1786F7739p3014o6312j3654M5683O8902N4599L2626J8775J448k8564n8633p1061o1985l7511p110J3895J2859j754
1768a03072p283J193N881J109P237L3277N1470L4905K98j7349j7826k8166m9181m7959q783M0529O3635N2604K1100
1749C3619j4958l8082l3398q594O218n884k5430k2446N961L7895N7083O5383O9305O7809N5495L2423R219n39J181
1730B92260q187m3537q1672q1679m0850n257j0906l8457m7931l6438l0098l2462k0375Q111K0137l082l3141l0956
1712b24520L841M1487O3771P2128O4944L6638k57j9518j6505j6434l4395m7125k4973K0485M5288K7237j0045l0197
1694d8150k3367o536L35r091k3764k2975J144K7669L0776K1392L7723Q1902R8596M6388l4471o7191l8476p009j3567
1675E1328l3848l5170l0603m4203n9505m4244m933K4610L7083N3001P2411O7187K9548p574j4942n068o743k1525
1657B6810k7187j2777J0393K7599L3261K6189Q072j0538j5099m637L261p006k7295l3461j5038J2075K6237K3463
1639D4322J2178m190k3544l2105j8811j893j3240m8634o3943l7570n731p839k4570r791L4727O3539N8639M6217L9847
1620G608J9091k0540m5519l7151k3279k7598k8471n215J3592l574k7524q596L7695M7580P845k4137r127K1762K3943
1601h1615k60k4566m0642m6861l0308O549K9477J6302o323k981J6432J9305P520R837K7926L2813J2816j4070l6051
1582a04700n7168o7236m2919Q161M1178L1540Q467R472K7850L2096J7750R581K0788L6571L7639K1824J300r995o638
1563A5561L214N873j140p602p975p338n737N835K4932L2475K1476J0918J3476J0755j4553m1256l7099j1052j546
1544I217j7447k8560j6850K65O358J0174J9307K1816J2822J1513L0783N3550O0391N7776N6255M3901R290k9035m7126
1525B64400n3341o7891p8838n8236j5956N203p924k0733n283K3477M0273M3526L6543P122m5474q6800q2343m2524
1507a44799n198J4415K7707L7230L1075J2287K884J1969K3997K5365K0035J1912l961k0380j1978K9632P1780P5614
1489B09586M5696K0356J5846O437l1997q0279r5946o6600k5405j1364k6959m2802l6367j3958N766J6999K6895L7941
1471d6155M2368L3310J1845j6863m4102n4120l4320M425L0106K3346J018n117J2506L2126L3259J8923O440P521K0307
1452G6823L2420K8959N610k3005l5439k7583j7721k2744l5919l5695j3318J5861K9637K2122O481l177o677j0849
1434a4214j2886j302K4222M4975M2931K0122r867l9368o2449o4161l5670L330K1302J6183J5287K7428K3983j4274
1416a4428n6318n5454j1644L0196L9481K9094K2605J9064L309k4323m2804l1386Q509M9096N6938K6379j1079k1934
1398A5301j0770r260k8562m5208l9074k1668j3004r306O553L3456N1965N2349M4521L8757L1982J8719M375n96N547
1379A26077J5142K2092K6501K7095J6340r383l8143n2457n3285o0692q1901r2000o3451p031L7510M9879M6508M6369
1361d4830M3381K5147M71j0401m913k176j8707m7745o2125l8344J5774O0222O2035L3341J4108J9988L1326L4102
1343A10654L8420M5368L1743q673m0340l3445r999p629k1276k2286j5503k6951m4949k9318J8044M6195L2048J3227
1325G5330K2568L6531K0058j5027l2067k2338k253J8863L5387L1195L868j4050N491L7817L3968r960m9030n3064
1307A23287l7964k9402k8156k2033p453J1674K8855L3265K0504P435J6093L9303M3594J2247l4640o8801q1244p3754
1289d7190m6553q656J8426K4086K2550K9344L6881K9236J0361l07M399J1596P609n376j2267K08K9290N4519N6258
1270B14414L7057J4863n322l5050p0391p8431l6959K5382N4249L2175o634k5067k3277k1109k1030q316J8780L8360
1252A03694L0106J632j8611j2248J2758L7124N1033N1706L0249j9544p7621j04021q1968m0395j7925j6142r097R217
1234g0053J5094l228k0602p407K9659N7393N7323L8958J6551p175k9286l4637q589M1597Q6287R6003O3787Q797l8467
1215B92005n6756m6316k4697j0632j0718j9740l0466m0067m7317m7039l1209K158M1482O6309O4059M2465K1452J1910
1197A76883R128R937K4530N7235Q2234O1066p916p5224q9484n0829k885J7076L630k9473o2245p1037m5087p543K372
1178B368k1577m1532k5955R030K7262K3976K4261L9569N3500N1000L7076K0428p64k6718m5682m8052m0332l3804
1160D054k7534j4135L252J2082O970m997j5601k2895k5268j7302J905K1121K5879J5104K729N62M697K773r405k4139
1140f0148l1802k7436r138K0115M6318M9712K3851j4509m0179m1680k5827n357J2125K5384L4961L7671K6821L399
1122B4281j3900j196M1489Q2551Q8303N3949J1n0537q0687p7486m2066N79J9987J1579k709n973m654j2188k7740
1103C593l7910l0853l787L5497O9634Q0739O3521K7600j1751l9873m4823k5436K871K1931L0927M0772M9153L8526
1085B70331N010k6951l0518p617J5833J8912K122j8677k7034j9152p585q028k1266l4597l9809l8241k8712o964J9287
1066A6344L2797L1340L1134L6152K5886r348m1088l5354r5K5551K1961L872j1061k1954l1210l5452l6463m2323n0862
1047i0173m7203k3652J0508M1269N8641N3831K6797q52k078J8544K4738k894l7727m2012j4494J5313K6800K0612M24
1028C6392l2030o3075p0000m6068j0388J2801J5862O021o944j5109j2673J01J5627K5700K7817K3822J6422R222O274
1009f0226Q449J2363J4220J2385O083l409q565R02K4566M5867M8546L7491L3799M5992N5140L7349l320l5279l4513
990B37840j0152J0215J3479R357P992J956k0829n1651o1172l0972K1467N7718N6635K9347k781l1213n4576o3776
972A18884m9761k2169l638l502j0025j0833p748p437j0532j6004k4479l0938k6161j2179l285l904K94J8579L7154
953f7684L8515K5144Q658j0608l4119m7753l7497j5226n905j3458k0547j7029o240J1428L5733N1382M3619K6944
935c4643K8359M2820M0002J8318J1690L0004L4821j471m8087n8470l2707m696R671J5932J0743j2936l8493l8541
917b7684j2970J3722K8312L4840L0845Q899j8979k8421j7297p271q598r047j075N628M367J274j63k773p51J5832
897H690L7987M3724L1593K2593K3609J7373k839j8941k1525k7386m6093n7765m5992k7012k1207j9257m907R381K178
878i5796j6016j5808M495J7384Q720o565j1061j894J8980M7104O6671O2093M1064K6081K2581J7116O976N671J4296
859B12092J4068j898j2912j702J7229J6717p417l3472l7979j3483K7578N8006N5078K3630q787k5343l6186n4925
841A90294p4693p9848o8249m7569k0442J0827L2959L1909J1641r686j9103j5728n540J6j0499l0130l0015O418N1829
822g5609O0850K8325j822O623L7342M7024K0845j4799k8403j6002K903J0060L225q967j9494k6715k8800k2812j3044
803c9270j1999k4100l4484k5972l823J0601J0338J0724K2739L4480K8614O161j7885l3059l6329k5231k479J6295
785a14679J3895o981k2355j0114K9045P2559R3767Q1450M7577J5441k149j0294j7842k4945k9694l6265m5707m6435
767a3726k7666J741K1291K3478J7259R096l604j8737k5862k2715k2040l3320m7064m5405k1968J3875M5300N6580
749i3487M2895J7937L795P053J2906Q099j102k736l13o710k2384l2910k7425j0254N162P693l032j3334n344K1999
729i1492M6178M3705J6017j4302k7701j9822L065K8194L9935L2126J5130J642q656j8427j5929J1007M7684O2047
711A50401M4487J8167N265L269J318j436m624j4103k7273k9403j9393j9921m2102n7955l4718J4563M3484L0783j231
692E9578k5160l5602l3066j1818K0791L6629J9247j0429j9454l460J5300K0707J3639l056k7524m6268m1008j5351
674h6305L352j257j3690j3110n172p495j3744R74L7973O5172O0173M0257L2227L1657J6921r019k1035j2984n499q242
654I1154m768J2983K3764J0202j0357j2084O28O786N671R722J1322q239l8842m5813k0449N033L409j4677k6723l0195
634c1473l1006k4348q839p18j0253j8197p4L6009N9201N6539M0847K3245K303j8692k6148j4503M303J4836J2329K724
614F8085k351N785J8671J2545k0329n0644m4651j3123q32k5687n6928o1620m3401j9982R661N0106Q1131P5312L7755
595A9503L177n374M722J6579K3421K5115K1938J6925J2826M871j2122k8930k8068p719J3619K1126J9656J9633J9462
576A60360J1991n61r944j5511k3416l3170l4577k1062j220O690p994l6451n6799n4701l6801j9883q691O950L1169
557a43621M9443M6288K8619J8238K1808K1644J987k5988l6084k0099K714J1017O418N807J4750J9632P789j4062k7379
538a1079k1912j268K6348N1776O0060L6500j2994n5719n9361k5781J1343K3754J4497L782O68l42r89O192K2046L2922
518A00443K7854J5224J1329J7176J8722Q599n497j5826k5095l6189m3015m0076l2359k6107j7523j617J4040J7280
500a2637Q770j878j3627l0756m2414k6318J8227N7785O0015L1681O705K048J573j5786m6077o5464n8010l1083m805
481a62051Q389J1496J3384J7252K1195K4822K8214K7026J7216L618n866j3439k5793l4411j9883J5695L8884K3931
463a0321j1244k7016j1204J4033K7783K9028K1494O098n317O636L8768N7316L6437p187l2989k1345J2016L7682L6219
444A96887Q312k5033l7060k1287J717J1579J2016J5302J5707k11k3607k8986j1821K913l620k1200l2994m0038m7100
425b8524m1367q316L7655O0885M5136J1424q329l739J1809K0585J5033j254k0050l6263n0388o1412n9606l4245Q632
406a42334M3742M9574L1555J5054J4993J9976J0756j1697k5925j7804J065Q727L35q902n830N601J2694Q335o376
387C539k5094l6410k9488q370N214n703k9824l7210j4274J9717L5273K5650J1548J5308L5661N0064M0839J5884l47
368G1977M078J4550Q138j9342m8956n6902l3109J1312M7680M8384J4317j9932k0647P799L3568M0771M1901M5841
350A91428L8887J0599k2000l5345l0739k4671j8356k64K6031M1093L8046K9480K1335K042l1883n8715n6013l0494
332I0461p822K09L715J4559L1780M6085M8006L2398M684j8160k2873j6344j6526k5679k4658M92L6619N7538N3544
313B88028L6163J7099m010k8075m5275m4910l0613j5404m510N332R314p355m4823p2974n7670l217M5375M9165J5780
294A07420j3765j2879N550J1123o382k7665l0429j7597j2385k6848m5243m4804k4995m285P996K0476L7443M4772
276c2497L0514Q389L817J8961K7793J0169k1580l8299k9000j0164k097o116r389n331j3J077L109J3056K6743L2596
256B1738K5950J2435o64q283n395P003J3397l873l7357n3380k9632J5806M5247M3630K5983R538k846j1099r204L078
236F2072J2405O923p274j4656j1613r438j5794k2160j5196L146J4426N174j5654k6640j8977l857N445Q798J1846
217c1024J2810O062n894j3161r886R20J1205J1897j577k1295l0256k1357o452J621O317J4013J4728k993k4231k0613
197a09166O962K4036R107j8935l1551k6403j5911m4K6585N3217O2473N5232M5219L4020J3191j1497k1431j3925q249
178G2930j6076k4599j9043n964j279o497j0551q079k907K653R872J6163J5494O981m204j4843k5739l5144l7570l2132
158a20534k5702k2595j5437O145L7426N6585M6273J4382j3269k1626k1290l0857n0009n8696m2551j0567J6448K8802
140b27072L2668L4976L2387J8882q74j2157m903J5764L5275M3285L9163K6692R126q795j9255j7272p269J079L798
121d502M859O710N299l88O6J7038M1792N1153L6384J6236J1169J3880J523k6295m1635k5746M524J8687Q538r915
101A29377k0231j7527n174M993m644l7269o7259o3876k8736P778K6851L6359M2388L1510l400l9053m4414j8699J0301
82f0725J9926R639r875k7369l1362j5288J2843L4638L8897L0741K2937K2426K4542J7383n774l5262n0340l9778j2771
63e4572J3733L1776M1457M1686L0646J0662j4252m0209n7670n3574k8730l765M856P380K5041N7131P9396P3601M4877
44B09470J0496j5298k5216k0830j3202j3128k0424k8924l6274l8773k4744J0294M5951N3248K9013j709j7053j5328
26H7569k127J8350L5121L3813J5739k297j2266k1897l2892l2918j8390n655p721j7174k3380k8229l1907k3157j441
7g0859R797o127k9734l0333r078P525Q817
0a19992
##END=