##TITLE=Parameter file, TopSpin 3.6.2
##JCAMP-DX=6.00
##DATA TYPE= NMR SPECTRUM
##DATA CLASS= XYDATA
##ORIGIN=
##OWNER=chm343
##.SHIFT REFERENCE=INTERNAL, MeOD, 1, 17.50623728154614
##.OBSERVE FREQUENCY=400.13311072
##.OBSERVE NUCLEUS=1H
##.SOLVENT=MeOD
##$JCAMPDX=5
##$NPOINTS=10	$$ modification sequence number
##$ORIGIN=Bruker BioSpin GmbH
##$epoch=1685910446000
##$date=Sun, 04 Jun 2023 20:27:26 GMT
##$ABSF1=17.4825
##$ABSF2=-1.981579
##$ABSG=5
##$ABSL=50
##$ALPHA=0
##$AQORDER=0
##$ASSFAC=0
##$ASSFACI=0
##$ASSFACX=0
##$ASSWID=0
##$AUNMP=<proc_1d_spintropy_auto>
##$AXLEFT=0
##$AXNAME=<>
##$AXNUC=<1H>
##$AXRIGHT=0
##$AXTYPE=0
##$AXUNIT=<>
##$AZFE=0.1
##$AZFW=0.1
##$BCFW=0
##$BC_mod=0
##$BYTORDP=0
##$COROFFS=0
##$CY=15
##$DATMOD=1
##$DC=0
##$DFILT=<>
##$DTYPP=0
##$ERETIC=no
##$F1P=0
##$F2P=0
##$FCOR=1
##$FTSIZE=131072
##$FT_mod=6
##$GAMMA=0
##$GB=0
##$INTBC=1
##$INTSCL=1
##$ISEN=128
##$LB=0.3
##$LEV0=0
##$LPBIN=0
##$MAXI=10000
##$MC2=0
##$MEAN=0
##$ME_mod=0
##$MI=0.1
##$MddCEXP=no
##$MddCT_SP=no
##$MddF180=no
##$MddLAMBDA=0
##$MddMEMORY=0
##$MddMERGE=0
##$MddNCOMP=0
##$MddNITER=0
##$MddNOISE=0
##$MddPHASE=0
##$MddSEED=0
##$MddSRSIZE=0
##$Mdd_CsALG=0
##$Mdd_CsLAMBDA=0
##$Mdd_CsNITER=0
##$Mdd_CsNORM=0
##$Mdd_CsVE=no
##$Mdd_CsZF=0
##$Mdd_LrLAMBDA=0
##$Mdd_LrNITER=0
##$Mdd_LrRANK=0
##$Mdd_LrZF=0
##$Mdd_mod=0
##$NCOEF=0
##$NLEV=6
##$NOISF1=0
##$NOISF2=0
##$NSP=0
##$NTH_PI=0
##$NZP=0
##$PC=1
##$PHC0=111.62
##$PHC1=0
##$PH_mod=1
##$PKNL=yes
##$PPARMOD=0
##$PPDIAG=0
##$PPIPTYP=0
##$PPMPNUM=2147483647
##$PPRESOL=1
##$PSCAL=4
##$PSIGN=0
##$PYNMP=<>
##$RDF1=0
##$RDF2=0
##$RDFWHM=0
##$RDINT=0
##$RDPOS=0
##$REVERSE=no
##$SF=400.130009529479
##$SI=131072
##$SIGF1=0
##$SIGF2=0
##$SINO=0
##$SIOLD=131072
##$SPECTYP=<PROTON>
##$SREF_mod=1
##$SREGLST=<1H.MeOD>
##$SSB=0
##$STSI=131072
##$STSR=0
##$SW_p=7788.16199376948
##$SYMM=0
##$S_DEV=0
##$TDeff=65536
##$TDoff=0
##$TI=<Spintropy Username asu_chm343
2023_02_15_AcAc_D2O_1H_1Scan_VT_Bruker400>
##$TILT=no
##$TM1=0
##$TM2=0
##$TOPLEV=0
##$USERP1=<>
##$USERP2=<>
##$USERP3=<>
##$USERP4=<>
##$USERP5=<>
##$WDW=1
##$XDIM=0
##$YMAX_p=410849303
##$YMIN_p=-273220
##$ACQT0=-1.70581753891579
##$AMP=(0..31)
100 100 100 100 100 100 100 100 100 100 100 100 100 100 100 100 100 100
100 100 100 100 100 100 100 100 100 100 100 100 100 100
##$AMPCOIL=(0..19)
-1 0 0 0 0 0 0 0 0 0 0 0 0 0 0 0 0 0 0 0
##$ANAVPT=-1
##$AQSEQ=0
##$AQ_mod=3
##$AUNM=<au_zg_no_rga_lock1>
##$AUTOPOS=<13 >
##$BF2=400.13
##$BF3=400.13
##$BF4=400.13
##$BF5=400.13
##$BF6=400.13
##$BF7=400.13
##$BF8=400.13
##$BWFAC=(0..63)
0 0 0 0 0 0 0 0 0 0 0 0 0 0 0 0 0 0 0 0 0 0 0 0 0 0 0 0 0 0 0 0 0 0 0 0
0 0 0 0 0 0 0 0 0 0 0 0 0 0 0 0 0 0 0 0 0 0 0 0 0 0 0 0
##$BYTORDA=0
##$CAGPARS=(0..11)
0 0 0 0 0 0 0 0 0 0 0 0
##$CHEMSTR=<none>
##$CNST=(0..63)
1 1 1 1 1 1 1 1 1 1 1 1 1 1 1 1 1 1 1 1 1 1 1 1 1 1 1 1 1 1 1 1 1 1 1 1
1 1 1 1 1 1 1 1 1 1 1 1 1 1 1 1 1 1 1 1 1 1 1 1 1 1 1 1
##$CPDPRG=(0..8)
<> <> <> <> <> <> <> <> <>
##$D=(0..63)
0 60 0 0 0 0 0 0 0 0 0 0 0 0 0 0 0.0002 0 0 0 0 0 0 0 0 0 0 0 0 0 0 0 0
0 0 0 0 0 0 0 0 0 0 0 0 0 0 0 0 0 0 0 0 0 0 0 0 0 0 0 0 0 0 0
##$DATE=1685910446
##$DE=10.51916
##$DECBNUC=<off>
##$DECNUC=<off>
##$DECSTAT=4
##$DIGMOD=3
##$DIGTYP=12
##$DQDMODE=0
##$DR=22
##$DS=0
##$DSPFIRM=4
##$DTYPA=0
##$EXP=<CHM343_Proton_1scan_298K>
##$FCUCHAN=(0..9)
0 2 0 0 0 0 0 0 0 0
##$FL1=0
##$FL2=0
##$FL3=0
##$FL4=0
##$FN_INDIRECT=(0..7)
0 0 0 0 0 0 0 0
##$FOV=0
##$FQ1LIST=<>
##$FQ2LIST=<>
##$FQ3LIST=<>
##$FQ4LIST=<>
##$FQ5LIST=<>
##$FQ6LIST=<>
##$FQ7LIST=<>
##$FQ8LIST=<>
##$FRQLO3=1116889.28000003
##$FRQLO3N=0
##$FS=(0..7)
83 83 83 83 83 83 83 83
##$FTLPGN=0
##$FW=4032000
##$FnILOOP=0
##$FnMODE=0
##$FnTYPE=0
##$GPNAM=(0..31)
<> <> <> <> <> <> <> <> <> <> <> <> <> <> <> <> <> <> <> <> <> <> <> <>
<> <> <> <> <> <> <> <>
##$GPX=(0..31)
0 0 0 0 0 0 0 0 0 0 0 0 0 0 0 0 0 0 0 0 0 0 0 0 0 0 0 0 0 0 0 0
##$GPY=(0..31)
0 0 0 0 0 0 0 0 0 0 0 0 0 0 0 0 0 0 0 0 0 0 0 0 0 0 0 0 0 0 0 0
##$GPZ=(0..31)
0 0 0 0 0 0 0 0 0 0 0 0 0 0 0 0 0 0 0 0 0 0 0 0 0 0 0 0 0 0 0 0
##$GRDPROG=<>
##$HDDUTY=20
##$HDRATE=1
##$HGAIN=(0..3)
0 0 0 0
##$HL1=90
##$HL2=90
##$HL3=90
##$HL4=90
##$HOLDER=13
##$HPMOD=(0..7)
0 0 0 0 0 0 0 0
##$HPPRGN=0
##$IN=(0..63)
0 0 0 0 0 0 0 0 0 0 0 0 0 0 0 0 0 0 0 0 0 0 0 0 0 0 0 0 0 0 0 0 0 0 0 0
0 0 0 0 0 0 0 0 0 0 0 0 0 0 0 0 0 0 0 0 0 0 0 0 0 0 0 0
##$INF=(0..7)
0 0 0 0 0 0 0 0
##$INP=(0..63)
0 0 0 0 0 0 0 0 0 0 0 0 0 0 0 0 0 0 0 0 0 0 0 0 0 0 0 0 0 0 0 0 0 0 0 0
0 0 0 0 0 0 0 0 0 0 0 0 0 0 0 0 0 0 0 0 0 0 0 0 0 0 0 0
##$INSTRUM=<spect>
##$INTEGFAC=(0..63)
0 0 0 0 0 0 0 0 0 0 0 0 0 0 0 0 0 0 0 0 0 0 0 0 0 0 0 0 0 0 0 0 0 0 0 0
0 0 0 0 0 0 0 0 0 0 0 0 0 0 0 0 0 0 0 0 0 0 0 0 0 0 0 0
##$L=(0..31)
1 1 1 1 1 1 1 1 1 1 1 1 1 1 1 1 1 1 1 1 1 1 1 1 1 1 1 1 1 1 1 1
##$LFILTER=20
##$LGAIN=-2
##$LINPSTP=0
##$LOCKED=yes
##$LOCKFLD=-2882
##$LOCKGN=116.679374694824
##$LOCKPOW=-35
##$LOCKPPM=3.29999995231628
##$LOCNUC=<2H>
##$LOCPHAS=205.5
##$LOCSHFT=yes
##$LOCSW=0
##$LTIME=0.680999994277954
##$MASR=5000
##$MASRLST=<masrlst>
##$MULEXPNO=(0..15)
0 0 0 0 0 0 0 0 0 0 0 0 0 0 0 0
##$NBL=1
##$NC=-6
##$NLOGCH=2
##$NOVFLW=0
##$NS=1
##$NUC1=<1H>
##$NUC2=<off>
##$NUC3=<off>
##$NUC4=<off>
##$NUC5=<off>
##$NUC6=<off>
##$NUC7=<off>
##$NUC8=<off>
##$NUCLEUS=<off>
##$NUSLIST=<automatic>
##$NusAMOUNT=25
##$NusFPNZ=no
##$NusJSP=0
##$NusSEED=54321
##$NusSPTYPE=0
##$NusT2=1
##$NusTD=0
##$O1=3110.71999999513
##$O2=2470.803
##$O3=2470.803
##$O4=2470.803
##$O5=2470.803
##$O6=2470.803
##$O7=2470.803
##$O8=2470.803
##$OVERFLW=0
##$P=(0..63)
3.333333 10 20 0 0 19.8 30 60 20000 0 0 80000 80000 1000 0 0 1000 2500
100000 600 0 0 0 0 0 270 100000 10 1000 1000 0 0 20000 0 0 0 0 0 0 0 2000
0 0 0 300 0 80000 46600 10000 0 80000 0 0 0 0 0 0 0 0 0 0 0 0 0
##$PACOIL=(0..15)
2 3 1 0 0 0 0 0 0 0 0 0 0 0 0 0
##$PAPS=0
##$PARMODE=0
##$PCPD=(0..9)
0 90 0 0 0 0 0 0 0 0
##$PEXSEL=(0..9)
1 1 1 1 1 1 1 1 1 1
##$PHCOR=(0..31)
0 0 0 0 0 0 0 0 0 0 0 0 0 0 0 0 0 0 0 0 0 0 0 0 0 0 0 0 0 0 0 0
##$PHLIST=<>
##$PHP=1
##$PH_ref=0
##$PL=(0..63)
120 120 120 120 120 120 120 120 120 120 120 120 120 120 120 120 120 120
120 120 120 120 120 120 120 120 120 120 120 120 120 120 120 120 120 120
120 120 120 120 120 120 120 120 120 120 120 120 120 120 120 120 120 120
120 120 120 120 120 120 120 120 120 120
##$PLSTEP=0.1
##$PLSTRT=-6
##$PLW=(0..63)
0 25 0 0 0 0 0 0 0 0.0001 2.7778 0.14793 0 0 0 0 0 0 25 0.30864 0 0 0 0
0 0 0 0.13717 0 2.7778 0 0 4e-006 0 0 0 0 0 0 0 0 0 0 0 0 0 0 0 0 0 0 0
0 0 0 0 0 0 0 0 0 0 0 0
##$PLWMAX=(0..7)
50 0 0 0 0 0 0 0
##$PQPHASE=0
##$PQSCALE=1
##$PR=1
##$PRECHAN=(0..15)
-1 2 3 0 1 -1 -1 -1 -1 -1 -1 -1 -1 -1 -1 -1
##$PRGAIN=0
##$PROBHD=<Z104450_0191 (PA BBO 400S1 BBF-H-D-05 Z)>
##$PROBINPUTS=(0..15)
<19F-109Ag> <1H> <2H> <> <> <> <> <> <> <> <> <> <> <> <> <>
##$PULPROG=<zg30>
##$PW=0
##$PYNM=<>
##$ProjAngle=0
##$QNP=0
##$RD=0
##$RECCHAN=(0..15)
0 2 0 0 0 0 0 0 0 0 0 0 0 0 0 0
##$RECPH=0
##$RECPRE=(0..15)
-1 0 -1 -1 -1 -1 -1 -1 -1 -1 -1 -1 -1 -1 -1 -1
##$RECPRFX=(0..15)
1 0 0 0 0 0 0 0 0 0 0 0 0 0 0 0
##$RECSEL=(0..15)
0 0 1 0 0 0 0 0 0 0 0 0 0 0 0 0
##$RG=30.14
##$RO=0
##$RSEL=(0..15)
0 0 2 0 0 0 0 0 0 0 0 0 0 0 0 0
##$S=(0..7)
83 83 83 83 83 83 83 83
##$SELREC=(0..9)
0 0 0 0 0 0 0 0 0 0
##$SFO1=400.13311072
##$SFO2=400.132470803
##$SFO3=400.132470803
##$SFO4=400.132470803
##$SFO5=400.132470803
##$SFO6=400.132470803
##$SFO7=400.132470803
##$SFO8=400.132470803
##$SOLVENT=<MeOD>
##$SOLVOLD=<off>
##$SP=(0..63)
120 120 120 120 120 120 120 120 120 120 120 120 120 120 120 120 120 120
120 120 120 120 120 120 120 120 120 120 120 120 120 120 120 120 120 120
120 120 120 120 120 120 120 120 120 120 120 120 120 120 120 120 120 120
120 120 120 120 120 120 120 120 120 120
##$SPECTR=0
##$SPINCNT=0
##$SPNAM=(0..63)
<> <Gaus1_270.1000> <Gaus1_180r.1000> <> <> <Sinc1.1000> <Squa100.1000>
<> <Squa100.1000> <> <Sinc1.1000> <Sinc1.1000> <> <> <> <> <> <> <> <Sinc1.1000>
<Sinc1.1000> <Sinc1.1000> <Sinc1.1000> <> <> <> <> <> <> <Crp60,20,20.10>
<Bip720,50,20.1> <> <> <> <Rsnob.1000> <Gaus1_180r.1000> <Gaus1_180r.1000>
<> <> <> <Gaus1_180r.1000> <Squa100.1000> <> <> <> <> <> <> <> <> <> <>
<> <> <> <> <> <> <> <> <> <> <> <>
##$SPOAL=(0..63)
0.5 1 0.5 0.5 0.5 0.5 0.5 0.5 0.5 0.5 0.5 0.5 0.5 0.5 0.5 0.5 0.5 0.5 0.5
1 1 1 1 0.5 0.5 0.5 0.5 0.5 0.5 0.5 0.5 0.5 0.5 0.5 0.5 0.5 0.5 0.5 0.5
0.5 0.5 0.5 0.5 0.5 0.5 0.5 0.5 0.5 0.5 0.5 0.5 0.5 0.5 0.5 0.5 0.5 0.5
0.5 0.5 0.5 0.5 0.5 0.5 0.5
##$SPOFFS=(0..63)
0 0 0 0 0 0 0 0 0 0 0 0 0 0 0 0 0 0 0 0 0 0 0 0 0 0 0 0 0 0 0 0 0 0 0 0
0 0 0 0 0 0 0 0 0 0 0 0 0 0 0 0 0 0 0 0 0 0 0 0 0 0 0 0
##$SPPEX=(0..63)
0 0 0 0 0 0 0 0 0 0 0 0 0 0 0 0 0 0 0 0 0 0 0 0 0 0 0 0 0 0 0 0 0 0 0 0
0 0 0 0 0 0 0 0 0 0 0 0 0 0 0 0 0 0 0 0 0 0 0 0 0 0 0 0
##$SPW=(0..63)
0 2.0754e-005 9.2239e-006 0 0 0.0072087 0.0001 0 2.5e-007 0 0.0072087 0.0072087
0 0 0 0 0 0 0 1.472397e-005 2.288794e-005 1.068705e-005 5.763436e-005 0
0 0 0 0 0 0.095493 1.7778 0 0 0 0.00010084 9.2239e-006 0.00059033 0 0 0
9.2239e-006 2.5e-007 0 0 0 0 0 0 0 0 0 0 0 0 0 0 0 0 0 0 0 0 0 0
##$SUBNAM=(0..9)
<> <> <> <> <> <> <> <> <> <>
##$SWIBOX=(0..19)
0 0 3 0 0 0 0 0 0 0 0 0 0 0 0 0 0 0 0 0
##$SW_h=7788.16199376947
##$SWfinal=0
##$SigLockShift=0
##$TD=65536
##$TD0=1
##$TD_INDIRECT=(0..7)
0 0 0 0 0 0 0 0
##$TDav=1
##$TE=297.9798
##$TE1=300
##$TE2=300
##$TE3=300
##$TE4=300
##$TEG=300
##$TE_MAGNET=0
##$TE_PIDX=0
##$TE_STAB=(0..9)
0 0 0 0 0 0 0 0 0 0
##$TL=(0..7)
120 120 120 120 120 120 120 120
##$TOTROT=(0..63)
0 0 0 0 0 0 0 0 0 0 0 0 0 0 0 0 0 0 0 0 0 0 0 0 0 0 0 0 0 0 0 0 0 0 0 0
0 0 0 0 0 0 0 0 0 0 0 0 0 0 0 0 0 0 0 0 0 0 0 0 0 0 0 0
##$TUBE_TYPE=<>
##$USERA1=<>
##$USERA2=<>
##$USERA3=<>
##$USERA4=<>
##$USERA5=<>
##$V9=5
##$VALIDCODE=-1
##$VALIST=<>
##$VCLIST=<>
##$VDLIST=<>
##$VPLIST=<>
##$VTLIST=<>
##$WBST=1024
##$WBSW=4
##$XGAIN=(0..3)
0 0 0 0
##$XL=0
##$YL=0
##$YMAX_a=16268
##$YMIN_a=-14755
##$ZGOPTNS=<>
##$ZL1=120
##$ZL2=120
##$ZL3=120
##$ZL4=120
##$scaledByNS=no
##$scaledByRG=no
##$AMP0=100
##$AMP1=100
##$AMP2=100
##$AMP3=100
##$AMP4=100
##$AMP5=100
##$AMP6=100
##$AMP7=100
##$AMP8=100
##$AMP9=100
##$AMP10=100
##$AMP11=100
##$AMP12=100
##$AMP13=100
##$AMP14=100
##$AMP15=100
##$AMP16=100
##$AMP17=100
##$AMP18=100
##$AMP19=100
##$AMP20=100
##$AMP21=100
##$AMP22=100
##$AMP23=100
##$AMP24=100
##$AMP25=100
##$AMP26=100
##$AMP27=100
##$AMP28=100
##$AMP29=100
##$AMP30=100
##$AMP31=100
##$AMPCOIL0=-1
##$AMPCOIL1=0
##$AMPCOIL2=0
##$AMPCOIL3=0
##$AMPCOIL4=0
##$AMPCOIL5=0
##$AMPCOIL6=0
##$AMPCOIL7=0
##$AMPCOIL8=0
##$AMPCOIL9=0
##$AMPCOIL10=0
##$AMPCOIL11=0
##$AMPCOIL12=0
##$AMPCOIL13=0
##$AMPCOIL14=0
##$AMPCOIL15=0
##$AMPCOIL16=0
##$AMPCOIL17=0
##$AMPCOIL18=0
##$AMPCOIL19=0
##$BWFAC0=0
##$BWFAC1=0
##$BWFAC2=0
##$BWFAC3=0
##$BWFAC4=0
##$BWFAC5=0
##$BWFAC6=0
##$BWFAC7=0
##$BWFAC8=0
##$BWFAC9=0
##$BWFAC10=0
##$BWFAC11=0
##$BWFAC12=0
##$BWFAC13=0
##$BWFAC14=0
##$BWFAC15=0
##$BWFAC16=0
##$BWFAC17=0
##$BWFAC18=0
##$BWFAC19=0
##$BWFAC20=0
##$BWFAC21=0
##$BWFAC22=0
##$BWFAC23=0
##$BWFAC24=0
##$BWFAC25=0
##$BWFAC26=0
##$BWFAC27=0
##$BWFAC28=0
##$BWFAC29=0
##$BWFAC30=0
##$BWFAC31=0
##$BWFAC32=0
##$BWFAC33=0
##$BWFAC34=0
##$BWFAC35=0
##$BWFAC36=0
##$BWFAC37=0
##$BWFAC38=0
##$BWFAC39=0
##$BWFAC40=0
##$BWFAC41=0
##$BWFAC42=0
##$BWFAC43=0
##$BWFAC44=0
##$BWFAC45=0
##$BWFAC46=0
##$BWFAC47=0
##$BWFAC48=0
##$BWFAC49=0
##$BWFAC50=0
##$BWFAC51=0
##$BWFAC52=0
##$BWFAC53=0
##$BWFAC54=0
##$BWFAC55=0
##$BWFAC56=0
##$BWFAC57=0
##$BWFAC58=0
##$BWFAC59=0
##$BWFAC60=0
##$BWFAC61=0
##$BWFAC62=0
##$BWFAC63=0
##$CAGPARS0=0
##$CAGPARS1=0
##$CAGPARS2=0
##$CAGPARS3=0
##$CAGPARS4=0
##$CAGPARS5=0
##$CAGPARS6=0
##$CAGPARS7=0
##$CAGPARS8=0
##$CAGPARS9=0
##$CAGPARS10=0
##$CAGPARS11=0
##$CNST0=1
##$CNST1=1
##$CNST2=1
##$CNST3=1
##$CNST4=1
##$CNST5=1
##$CNST6=1
##$CNST7=1
##$CNST8=1
##$CNST9=1
##$CNST10=1
##$CNST11=1
##$CNST12=1
##$CNST13=1
##$CNST14=1
##$CNST15=1
##$CNST16=1
##$CNST17=1
##$CNST18=1
##$CNST19=1
##$CNST20=1
##$CNST21=1
##$CNST22=1
##$CNST23=1
##$CNST24=1
##$CNST25=1
##$CNST26=1
##$CNST27=1
##$CNST28=1
##$CNST29=1
##$CNST30=1
##$CNST31=1
##$CNST32=1
##$CNST33=1
##$CNST34=1
##$CNST35=1
##$CNST36=1
##$CNST37=1
##$CNST38=1
##$CNST39=1
##$CNST40=1
##$CNST41=1
##$CNST42=1
##$CNST43=1
##$CNST44=1
##$CNST45=1
##$CNST46=1
##$CNST47=1
##$CNST48=1
##$CNST49=1
##$CNST50=1
##$CNST51=1
##$CNST52=1
##$CNST53=1
##$CNST54=1
##$CNST55=1
##$CNST56=1
##$CNST57=1
##$CNST58=1
##$CNST59=1
##$CNST60=1
##$CNST61=1
##$CNST62=1
##$CNST63=1
##$CPDPRG0=<>
##$CPDPRG1=<>
##$CPDPRG2=<>
##$CPDPRG3=<>
##$CPDPRG4=<>
##$CPDPRG5=<>
##$CPDPRG6=<>
##$CPDPRG7=<>
##$CPDPRG8=<>
##$D0=0
##$D1=60
##$D2=0
##$D3=0
##$D4=0
##$D5=0
##$D6=0
##$D7=0
##$D8=0
##$D9=0
##$D10=0
##$D11=0
##$D12=0
##$D13=0
##$D14=0
##$D15=0
##$D16=0.0002
##$D17=0
##$D18=0
##$D19=0
##$D20=0
##$D21=0
##$D22=0
##$D23=0
##$D24=0
##$D25=0
##$D26=0
##$D27=0
##$D28=0
##$D29=0
##$D30=0
##$D31=0
##$D32=0
##$D33=0
##$D34=0
##$D35=0
##$D36=0
##$D37=0
##$D38=0
##$D39=0
##$D40=0
##$D41=0
##$D42=0
##$D43=0
##$D44=0
##$D45=0
##$D46=0
##$D47=0
##$D48=0
##$D49=0
##$D50=0
##$D51=0
##$D52=0
##$D53=0
##$D54=0
##$D55=0
##$D56=0
##$D57=0
##$D58=0
##$D59=0
##$D60=0
##$D61=0
##$D62=0
##$D63=0
##$FCUCHAN0=0
##$FCUCHAN1=2
##$FCUCHAN2=0
##$FCUCHAN3=0
##$FCUCHAN4=0
##$FCUCHAN5=0
##$FCUCHAN6=0
##$FCUCHAN7=0
##$FCUCHAN8=0
##$FCUCHAN9=0
##$FN_INDIRECT0=0
##$FN_INDIRECT1=0
##$FN_INDIRECT2=0
##$FN_INDIRECT3=0
##$FN_INDIRECT4=0
##$FN_INDIRECT5=0
##$FN_INDIRECT6=0
##$FN_INDIRECT7=0
##$FS0=83
##$FS1=83
##$FS2=83
##$FS3=83
##$FS4=83
##$FS5=83
##$FS6=83
##$FS7=83
##$GPNAM0=<>
##$GPNAM1=<>
##$GPNAM2=<>
##$GPNAM3=<>
##$GPNAM4=<>
##$GPNAM5=<>
##$GPNAM6=<>
##$GPNAM7=<>
##$GPNAM8=<>
##$GPNAM9=<>
##$GPNAM10=<>
##$GPNAM11=<>
##$GPNAM12=<>
##$GPNAM13=<>
##$GPNAM14=<>
##$GPNAM15=<>
##$GPNAM16=<>
##$GPNAM17=<>
##$GPNAM18=<>
##$GPNAM19=<>
##$GPNAM20=<>
##$GPNAM21=<>
##$GPNAM22=<>
##$GPNAM23=<>
##$GPNAM24=<>
##$GPNAM25=<>
##$GPNAM26=<>
##$GPNAM27=<>
##$GPNAM28=<>
##$GPNAM29=<>
##$GPNAM30=<>
##$GPNAM31=<>
##$GPX0=0
##$GPX1=0
##$GPX2=0
##$GPX3=0
##$GPX4=0
##$GPX5=0
##$GPX6=0
##$GPX7=0
##$GPX8=0
##$GPX9=0
##$GPX10=0
##$GPX11=0
##$GPX12=0
##$GPX13=0
##$GPX14=0
##$GPX15=0
##$GPX16=0
##$GPX17=0
##$GPX18=0
##$GPX19=0
##$GPX20=0
##$GPX21=0
##$GPX22=0
##$GPX23=0
##$GPX24=0
##$GPX25=0
##$GPX26=0
##$GPX27=0
##$GPX28=0
##$GPX29=0
##$GPX30=0
##$GPX31=0
##$GPY0=0
##$GPY1=0
##$GPY2=0
##$GPY3=0
##$GPY4=0
##$GPY5=0
##$GPY6=0
##$GPY7=0
##$GPY8=0
##$GPY9=0
##$GPY10=0
##$GPY11=0
##$GPY12=0
##$GPY13=0
##$GPY14=0
##$GPY15=0
##$GPY16=0
##$GPY17=0
##$GPY18=0
##$GPY19=0
##$GPY20=0
##$GPY21=0
##$GPY22=0
##$GPY23=0
##$GPY24=0
##$GPY25=0
##$GPY26=0
##$GPY27=0
##$GPY28=0
##$GPY29=0
##$GPY30=0
##$GPY31=0
##$GPZ0=0
##$GPZ1=0
##$GPZ2=0
##$GPZ3=0
##$GPZ4=0
##$GPZ5=0
##$GPZ6=0
##$GPZ7=0
##$GPZ8=0
##$GPZ9=0
##$GPZ10=0
##$GPZ11=0
##$GPZ12=0
##$GPZ13=0
##$GPZ14=0
##$GPZ15=0
##$GPZ16=0
##$GPZ17=0
##$GPZ18=0
##$GPZ19=0
##$GPZ20=0
##$GPZ21=0
##$GPZ22=0
##$GPZ23=0
##$GPZ24=0
##$GPZ25=0
##$GPZ26=0
##$GPZ27=0
##$GPZ28=0
##$GPZ29=0
##$GPZ30=0
##$GPZ31=0
##$HGAIN0=0
##$HGAIN1=0
##$HGAIN2=0
##$HGAIN3=0
##$HPMOD0=0
##$HPMOD1=0
##$HPMOD2=0
##$HPMOD3=0
##$HPMOD4=0
##$HPMOD5=0
##$HPMOD6=0
##$HPMOD7=0
##$IN0=0
##$IN1=0
##$IN2=0
##$IN3=0
##$IN4=0
##$IN5=0
##$IN6=0
##$IN7=0
##$IN8=0
##$IN9=0
##$IN10=0
##$IN11=0
##$IN12=0
##$IN13=0
##$IN14=0
##$IN15=0
##$IN16=0
##$IN17=0
##$IN18=0
##$IN19=0
##$IN20=0
##$IN21=0
##$IN22=0
##$IN23=0
##$IN24=0
##$IN25=0
##$IN26=0
##$IN27=0
##$IN28=0
##$IN29=0
##$IN30=0
##$IN31=0
##$IN32=0
##$IN33=0
##$IN34=0
##$IN35=0
##$IN36=0
##$IN37=0
##$IN38=0
##$IN39=0
##$IN40=0
##$IN41=0
##$IN42=0
##$IN43=0
##$IN44=0
##$IN45=0
##$IN46=0
##$IN47=0
##$IN48=0
##$IN49=0
##$IN50=0
##$IN51=0
##$IN52=0
##$IN53=0
##$IN54=0
##$IN55=0
##$IN56=0
##$IN57=0
##$IN58=0
##$IN59=0
##$IN60=0
##$IN61=0
##$IN62=0
##$IN63=0
##$INF0=0
##$INF1=0
##$INF2=0
##$INF3=0
##$INF4=0
##$INF5=0
##$INF6=0
##$INF7=0
##$INP0=0
##$INP1=0
##$INP2=0
##$INP3=0
##$INP4=0
##$INP5=0
##$INP6=0
##$INP7=0
##$INP8=0
##$INP9=0
##$INP10=0
##$INP11=0
##$INP12=0
##$INP13=0
##$INP14=0
##$INP15=0
##$INP16=0
##$INP17=0
##$INP18=0
##$INP19=0
##$INP20=0
##$INP21=0
##$INP22=0
##$INP23=0
##$INP24=0
##$INP25=0
##$INP26=0
##$INP27=0
##$INP28=0
##$INP29=0
##$INP30=0
##$INP31=0
##$INP32=0
##$INP33=0
##$INP34=0
##$INP35=0
##$INP36=0
##$INP37=0
##$INP38=0
##$INP39=0
##$INP40=0
##$INP41=0
##$INP42=0
##$INP43=0
##$INP44=0
##$INP45=0
##$INP46=0
##$INP47=0
##$INP48=0
##$INP49=0
##$INP50=0
##$INP51=0
##$INP52=0
##$INP53=0
##$INP54=0
##$INP55=0
##$INP56=0
##$INP57=0
##$INP58=0
##$INP59=0
##$INP60=0
##$INP61=0
##$INP62=0
##$INP63=0
##$INTEGFAC0=0
##$INTEGFAC1=0
##$INTEGFAC2=0
##$INTEGFAC3=0
##$INTEGFAC4=0
##$INTEGFAC5=0
##$INTEGFAC6=0
##$INTEGFAC7=0
##$INTEGFAC8=0
##$INTEGFAC9=0
##$INTEGFAC10=0
##$INTEGFAC11=0
##$INTEGFAC12=0
##$INTEGFAC13=0
##$INTEGFAC14=0
##$INTEGFAC15=0
##$INTEGFAC16=0
##$INTEGFAC17=0
##$INTEGFAC18=0
##$INTEGFAC19=0
##$INTEGFAC20=0
##$INTEGFAC21=0
##$INTEGFAC22=0
##$INTEGFAC23=0
##$INTEGFAC24=0
##$INTEGFAC25=0
##$INTEGFAC26=0
##$INTEGFAC27=0
##$INTEGFAC28=0
##$INTEGFAC29=0
##$INTEGFAC30=0
##$INTEGFAC31=0
##$INTEGFAC32=0
##$INTEGFAC33=0
##$INTEGFAC34=0
##$INTEGFAC35=0
##$INTEGFAC36=0
##$INTEGFAC37=0
##$INTEGFAC38=0
##$INTEGFAC39=0
##$INTEGFAC40=0
##$INTEGFAC41=0
##$INTEGFAC42=0
##$INTEGFAC43=0
##$INTEGFAC44=0
##$INTEGFAC45=0
##$INTEGFAC46=0
##$INTEGFAC47=0
##$INTEGFAC48=0
##$INTEGFAC49=0
##$INTEGFAC50=0
##$INTEGFAC51=0
##$INTEGFAC52=0
##$INTEGFAC53=0
##$INTEGFAC54=0
##$INTEGFAC55=0
##$INTEGFAC56=0
##$INTEGFAC57=0
##$INTEGFAC58=0
##$INTEGFAC59=0
##$INTEGFAC60=0
##$INTEGFAC61=0
##$INTEGFAC62=0
##$INTEGFAC63=0
##$L0=1
##$L1=1
##$L2=1
##$L3=1
##$L4=1
##$L5=1
##$L6=1
##$L7=1
##$L8=1
##$L9=1
##$L10=1
##$L11=1
##$L12=1
##$L13=1
##$L14=1
##$L15=1
##$L16=1
##$L17=1
##$L18=1
##$L19=1
##$L20=1
##$L21=1
##$L22=1
##$L23=1
##$L24=1
##$L25=1
##$L26=1
##$L27=1
##$L28=1
##$L29=1
##$L30=1
##$L31=1
##$MULEXPNO0=0
##$MULEXPNO1=0
##$MULEXPNO2=0
##$MULEXPNO3=0
##$MULEXPNO4=0
##$MULEXPNO5=0
##$MULEXPNO6=0
##$MULEXPNO7=0
##$MULEXPNO8=0
##$MULEXPNO9=0
##$MULEXPNO10=0
##$MULEXPNO11=0
##$MULEXPNO12=0
##$MULEXPNO13=0
##$MULEXPNO14=0
##$MULEXPNO15=0
##$P0=3.333333
##$P1=10
##$P2=20
##$P3=0
##$P4=0
##$P5=19.8
##$P6=30
##$P7=60
##$P8=20000
##$P9=0
##$P10=0
##$P11=80000
##$P12=80000
##$P13=1000
##$P14=0
##$P15=0
##$P16=1000
##$P17=2500
##$P18=100000
##$P19=600
##$P20=0
##$P21=0
##$P22=0
##$P23=0
##$P24=0
##$P25=270
##$P26=100000
##$P27=10
##$P28=1000
##$P29=1000
##$P30=0
##$P31=0
##$P32=20000
##$P33=0
##$P34=0
##$P35=0
##$P36=0
##$P37=0
##$P38=0
##$P39=0
##$P40=2000
##$P41=0
##$P42=0
##$P43=0
##$P44=300
##$P45=0
##$P46=80000
##$P47=46600
##$P48=10000
##$P49=0
##$P50=80000
##$P51=0
##$P52=0
##$P53=0
##$P54=0
##$P55=0
##$P56=0
##$P57=0
##$P58=0
##$P59=0
##$P60=0
##$P61=0
##$P62=0
##$P63=0
##$PACOIL0=2
##$PACOIL1=3
##$PACOIL2=1
##$PACOIL3=0
##$PACOIL4=0
##$PACOIL5=0
##$PACOIL6=0
##$PACOIL7=0
##$PACOIL8=0
##$PACOIL9=0
##$PACOIL10=0
##$PACOIL11=0
##$PACOIL12=0
##$PACOIL13=0
##$PACOIL14=0
##$PACOIL15=0
##$PCPD0=0
##$PCPD1=90
##$PCPD2=0
##$PCPD3=0
##$PCPD4=0
##$PCPD5=0
##$PCPD6=0
##$PCPD7=0
##$PCPD8=0
##$PCPD9=0
##$PEXSEL0=1
##$PEXSEL1=1
##$PEXSEL2=1
##$PEXSEL3=1
##$PEXSEL4=1
##$PEXSEL5=1
##$PEXSEL6=1
##$PEXSEL7=1
##$PEXSEL8=1
##$PEXSEL9=1
##$PHCOR0=0
##$PHCOR1=0
##$PHCOR2=0
##$PHCOR3=0
##$PHCOR4=0
##$PHCOR5=0
##$PHCOR6=0
##$PHCOR7=0
##$PHCOR8=0
##$PHCOR9=0
##$PHCOR10=0
##$PHCOR11=0
##$PHCOR12=0
##$PHCOR13=0
##$PHCOR14=0
##$PHCOR15=0
##$PHCOR16=0
##$PHCOR17=0
##$PHCOR18=0
##$PHCOR19=0
##$PHCOR20=0
##$PHCOR21=0
##$PHCOR22=0
##$PHCOR23=0
##$PHCOR24=0
##$PHCOR25=0
##$PHCOR26=0
##$PHCOR27=0
##$PHCOR28=0
##$PHCOR29=0
##$PHCOR30=0
##$PHCOR31=0
##$PL0=120
##$PL1=120
##$PL2=120
##$PL3=120
##$PL4=120
##$PL5=120
##$PL6=120
##$PL7=120
##$PL8=120
##$PL9=120
##$PL10=120
##$PL11=120
##$PL12=120
##$PL13=120
##$PL14=120
##$PL15=120
##$PL16=120
##$PL17=120
##$PL18=120
##$PL19=120
##$PL20=120
##$PL21=120
##$PL22=120
##$PL23=120
##$PL24=120
##$PL25=120
##$PL26=120
##$PL27=120
##$PL28=120
##$PL29=120
##$PL30=120
##$PL31=120
##$PL32=120
##$PL33=120
##$PL34=120
##$PL35=120
##$PL36=120
##$PL37=120
##$PL38=120
##$PL39=120
##$PL40=120
##$PL41=120
##$PL42=120
##$PL43=120
##$PL44=120
##$PL45=120
##$PL46=120
##$PL47=120
##$PL48=120
##$PL49=120
##$PL50=120
##$PL51=120
##$PL52=120
##$PL53=120
##$PL54=120
##$PL55=120
##$PL56=120
##$PL57=120
##$PL58=120
##$PL59=120
##$PL60=120
##$PL61=120
##$PL62=120
##$PL63=120
##$PLW0=0
##$PLW1=25
##$PLW2=0
##$PLW3=0
##$PLW4=0
##$PLW5=0
##$PLW6=0
##$PLW7=0
##$PLW8=0
##$PLW9=0.0001
##$PLW10=2.7778
##$PLW11=0.14793
##$PLW12=0
##$PLW13=0
##$PLW14=0
##$PLW15=0
##$PLW16=0
##$PLW17=0
##$PLW18=25
##$PLW19=0.30864
##$PLW20=0
##$PLW21=0
##$PLW22=0
##$PLW23=0
##$PLW24=0
##$PLW25=0
##$PLW26=0
##$PLW27=0.13717
##$PLW28=0
##$PLW29=2.7778
##$PLW30=0
##$PLW31=0
##$PLW32=0.000004
##$PLW33=0
##$PLW34=0
##$PLW35=0
##$PLW36=0
##$PLW37=0
##$PLW38=0
##$PLW39=0
##$PLW40=0
##$PLW41=0
##$PLW42=0
##$PLW43=0
##$PLW44=0
##$PLW45=0
##$PLW46=0
##$PLW47=0
##$PLW48=0
##$PLW49=0
##$PLW50=0
##$PLW51=0
##$PLW52=0
##$PLW53=0
##$PLW54=0
##$PLW55=0
##$PLW56=0
##$PLW57=0
##$PLW58=0
##$PLW59=0
##$PLW60=0
##$PLW61=0
##$PLW62=0
##$PLW63=0
##$PLWMAX0=50
##$PLWMAX1=0
##$PLWMAX2=0
##$PLWMAX3=0
##$PLWMAX4=0
##$PLWMAX5=0
##$PLWMAX6=0
##$PLWMAX7=0
##$PRECHAN0=-1
##$PRECHAN1=2
##$PRECHAN2=3
##$PRECHAN3=0
##$PRECHAN4=1
##$PRECHAN5=-1
##$PRECHAN6=-1
##$PRECHAN7=-1
##$PRECHAN8=-1
##$PRECHAN9=-1
##$PRECHAN10=-1
##$PRECHAN11=-1
##$PRECHAN12=-1
##$PRECHAN13=-1
##$PRECHAN14=-1
##$PRECHAN15=-1
##$PROBINPUTS0=<19F-109Ag>
##$PROBINPUTS1=<1H>
##$PROBINPUTS2=<2H>
##$PROBINPUTS3=<>
##$PROBINPUTS4=<>
##$PROBINPUTS5=<>
##$PROBINPUTS6=<>
##$PROBINPUTS7=<>
##$PROBINPUTS8=<>
##$PROBINPUTS9=<>
##$PROBINPUTS10=<>
##$PROBINPUTS11=<>
##$PROBINPUTS12=<>
##$PROBINPUTS13=<>
##$PROBINPUTS14=<>
##$PROBINPUTS15=<>
##$RECCHAN0=0
##$RECCHAN1=2
##$RECCHAN2=0
##$RECCHAN3=0
##$RECCHAN4=0
##$RECCHAN5=0
##$RECCHAN6=0
##$RECCHAN7=0
##$RECCHAN8=0
##$RECCHAN9=0
##$RECCHAN10=0
##$RECCHAN11=0
##$RECCHAN12=0
##$RECCHAN13=0
##$RECCHAN14=0
##$RECCHAN15=0
##$RECPRE0=-1
##$RECPRE1=0
##$RECPRE2=-1
##$RECPRE3=-1
##$RECPRE4=-1
##$RECPRE5=-1
##$RECPRE6=-1
##$RECPRE7=-1
##$RECPRE8=-1
##$RECPRE9=-1
##$RECPRE10=-1
##$RECPRE11=-1
##$RECPRE12=-1
##$RECPRE13=-1
##$RECPRE14=-1
##$RECPRE15=-1
##$RECPRFX0=1
##$RECPRFX1=0
##$RECPRFX2=0
##$RECPRFX3=0
##$RECPRFX4=0
##$RECPRFX5=0
##$RECPRFX6=0
##$RECPRFX7=0
##$RECPRFX8=0
##$RECPRFX9=0
##$RECPRFX10=0
##$RECPRFX11=0
##$RECPRFX12=0
##$RECPRFX13=0
##$RECPRFX14=0
##$RECPRFX15=0
##$RECSEL0=0
##$RECSEL1=0
##$RECSEL2=1
##$RECSEL3=0
##$RECSEL4=0
##$RECSEL5=0
##$RECSEL6=0
##$RECSEL7=0
##$RECSEL8=0
##$RECSEL9=0
##$RECSEL10=0
##$RECSEL11=0
##$RECSEL12=0
##$RECSEL13=0
##$RECSEL14=0
##$RECSEL15=0
##$RSEL0=0
##$RSEL1=0
##$RSEL2=2
##$RSEL3=0
##$RSEL4=0
##$RSEL5=0
##$RSEL6=0
##$RSEL7=0
##$RSEL8=0
##$RSEL9=0
##$RSEL10=0
##$RSEL11=0
##$RSEL12=0
##$RSEL13=0
##$RSEL14=0
##$RSEL15=0
##$S0=83
##$S1=83
##$S2=83
##$S3=83
##$S4=83
##$S5=83
##$S6=83
##$S7=83
##$SELREC0=0
##$SELREC1=0
##$SELREC2=0
##$SELREC3=0
##$SELREC4=0
##$SELREC5=0
##$SELREC6=0
##$SELREC7=0
##$SELREC8=0
##$SELREC9=0
##$SP0=120
##$SP1=120
##$SP2=120
##$SP3=120
##$SP4=120
##$SP5=120
##$SP6=120
##$SP7=120
##$SP8=120
##$SP9=120
##$SP10=120
##$SP11=120
##$SP12=120
##$SP13=120
##$SP14=120
##$SP15=120
##$SP16=120
##$SP17=120
##$SP18=120
##$SP19=120
##$SP20=120
##$SP21=120
##$SP22=120
##$SP23=120
##$SP24=120
##$SP25=120
##$SP26=120
##$SP27=120
##$SP28=120
##$SP29=120
##$SP30=120
##$SP31=120
##$SP32=120
##$SP33=120
##$SP34=120
##$SP35=120
##$SP36=120
##$SP37=120
##$SP38=120
##$SP39=120
##$SP40=120
##$SP41=120
##$SP42=120
##$SP43=120
##$SP44=120
##$SP45=120
##$SP46=120
##$SP47=120
##$SP48=120
##$SP49=120
##$SP50=120
##$SP51=120
##$SP52=120
##$SP53=120
##$SP54=120
##$SP55=120
##$SP56=120
##$SP57=120
##$SP58=120
##$SP59=120
##$SP60=120
##$SP61=120
##$SP62=120
##$SP63=120
##$SPNAM0=<>
##$SPNAM1=<Gaus1_270.1000>
##$SPNAM2=<Gaus1_180r.1000>
##$SPNAM3=<>
##$SPNAM4=<>
##$SPNAM5=<Sinc1.1000>
##$SPNAM6=<Squa100.1000>
##$SPNAM7=<>
##$SPNAM8=<Squa100.1000>
##$SPNAM9=<>
##$SPNAM10=<Sinc1.1000>
##$SPNAM11=<Sinc1.1000>
##$SPNAM12=<>
##$SPNAM13=<>
##$SPNAM14=<>
##$SPNAM15=<>
##$SPNAM16=<>
##$SPNAM17=<>
##$SPNAM18=<>
##$SPNAM19=<Sinc1.1000>
##$SPNAM20=<Sinc1.1000>
##$SPNAM21=<Sinc1.1000>
##$SPNAM22=<Sinc1.1000>
##$SPNAM23=<>
##$SPNAM24=<>
##$SPNAM25=<>
##$SPNAM26=<>
##$SPNAM27=<>
##$SPNAM28=<>
##$SPNAM29=<Crp60
##$SPNAM30=20
##$SPNAM31=20.10>
##$SPNAM32=<Bip720
##$SPNAM33=50
##$SPNAM34=20.1>
##$SPNAM35=<>
##$SPNAM36=<>
##$SPNAM37=<>
##$SPNAM38=<Rsnob.1000>
##$SPNAM39=<Gaus1_180r.1000>
##$SPNAM40=<Gaus1_180r.1000>
##$SPNAM41=<>
##$SPNAM42=<>
##$SPNAM43=<>
##$SPNAM44=<Gaus1_180r.1000>
##$SPNAM45=<Squa100.1000>
##$SPNAM46=<>
##$SPNAM47=<>
##$SPNAM48=<>
##$SPNAM49=<>
##$SPNAM50=<>
##$SPNAM51=<>
##$SPNAM52=<>
##$SPNAM53=<>
##$SPNAM54=<>
##$SPNAM55=<>
##$SPNAM56=<>
##$SPNAM57=<>
##$SPNAM58=<>
##$SPNAM59=<>
##$SPNAM60=<>
##$SPNAM61=<>
##$SPNAM62=<>
##$SPNAM63=<>
##$SPOAL0=0.5
##$SPOAL1=1
##$SPOAL2=0.5
##$SPOAL3=0.5
##$SPOAL4=0.5
##$SPOAL5=0.5
##$SPOAL6=0.5
##$SPOAL7=0.5
##$SPOAL8=0.5
##$SPOAL9=0.5
##$SPOAL10=0.5
##$SPOAL11=0.5
##$SPOAL12=0.5
##$SPOAL13=0.5
##$SPOAL14=0.5
##$SPOAL15=0.5
##$SPOAL16=0.5
##$SPOAL17=0.5
##$SPOAL18=0.5
##$SPOAL19=1
##$SPOAL20=1
##$SPOAL21=1
##$SPOAL22=1
##$SPOAL23=0.5
##$SPOAL24=0.5
##$SPOAL25=0.5
##$SPOAL26=0.5
##$SPOAL27=0.5
##$SPOAL28=0.5
##$SPOAL29=0.5
##$SPOAL30=0.5
##$SPOAL31=0.5
##$SPOAL32=0.5
##$SPOAL33=0.5
##$SPOAL34=0.5
##$SPOAL35=0.5
##$SPOAL36=0.5
##$SPOAL37=0.5
##$SPOAL38=0.5
##$SPOAL39=0.5
##$SPOAL40=0.5
##$SPOAL41=0.5
##$SPOAL42=0.5
##$SPOAL43=0.5
##$SPOAL44=0.5
##$SPOAL45=0.5
##$SPOAL46=0.5
##$SPOAL47=0.5
##$SPOAL48=0.5
##$SPOAL49=0.5
##$SPOAL50=0.5
##$SPOAL51=0.5
##$SPOAL52=0.5
##$SPOAL53=0.5
##$SPOAL54=0.5
##$SPOAL55=0.5
##$SPOAL56=0.5
##$SPOAL57=0.5
##$SPOAL58=0.5
##$SPOAL59=0.5
##$SPOAL60=0.5
##$SPOAL61=0.5
##$SPOAL62=0.5
##$SPOAL63=0.5
##$SPOFFS0=0
##$SPOFFS1=0
##$SPOFFS2=0
##$SPOFFS3=0
##$SPOFFS4=0
##$SPOFFS5=0
##$SPOFFS6=0
##$SPOFFS7=0
##$SPOFFS8=0
##$SPOFFS9=0
##$SPOFFS10=0
##$SPOFFS11=0
##$SPOFFS12=0
##$SPOFFS13=0
##$SPOFFS14=0
##$SPOFFS15=0
##$SPOFFS16=0
##$SPOFFS17=0
##$SPOFFS18=0
##$SPOFFS19=0
##$SPOFFS20=0
##$SPOFFS21=0
##$SPOFFS22=0
##$SPOFFS23=0
##$SPOFFS24=0
##$SPOFFS25=0
##$SPOFFS26=0
##$SPOFFS27=0
##$SPOFFS28=0
##$SPOFFS29=0
##$SPOFFS30=0
##$SPOFFS31=0
##$SPOFFS32=0
##$SPOFFS33=0
##$SPOFFS34=0
##$SPOFFS35=0
##$SPOFFS36=0
##$SPOFFS37=0
##$SPOFFS38=0
##$SPOFFS39=0
##$SPOFFS40=0
##$SPOFFS41=0
##$SPOFFS42=0
##$SPOFFS43=0
##$SPOFFS44=0
##$SPOFFS45=0
##$SPOFFS46=0
##$SPOFFS47=0
##$SPOFFS48=0
##$SPOFFS49=0
##$SPOFFS50=0
##$SPOFFS51=0
##$SPOFFS52=0
##$SPOFFS53=0
##$SPOFFS54=0
##$SPOFFS55=0
##$SPOFFS56=0
##$SPOFFS57=0
##$SPOFFS58=0
##$SPOFFS59=0
##$SPOFFS60=0
##$SPOFFS61=0
##$SPOFFS62=0
##$SPOFFS63=0
##$SPPEX0=0
##$SPPEX1=0
##$SPPEX2=0
##$SPPEX3=0
##$SPPEX4=0
##$SPPEX5=0
##$SPPEX6=0
##$SPPEX7=0
##$SPPEX8=0
##$SPPEX9=0
##$SPPEX10=0
##$SPPEX11=0
##$SPPEX12=0
##$SPPEX13=0
##$SPPEX14=0
##$SPPEX15=0
##$SPPEX16=0
##$SPPEX17=0
##$SPPEX18=0
##$SPPEX19=0
##$SPPEX20=0
##$SPPEX21=0
##$SPPEX22=0
##$SPPEX23=0
##$SPPEX24=0
##$SPPEX25=0
##$SPPEX26=0
##$SPPEX27=0
##$SPPEX28=0
##$SPPEX29=0
##$SPPEX30=0
##$SPPEX31=0
##$SPPEX32=0
##$SPPEX33=0
##$SPPEX34=0
##$SPPEX35=0
##$SPPEX36=0
##$SPPEX37=0
##$SPPEX38=0
##$SPPEX39=0
##$SPPEX40=0
##$SPPEX41=0
##$SPPEX42=0
##$SPPEX43=0
##$SPPEX44=0
##$SPPEX45=0
##$SPPEX46=0
##$SPPEX47=0
##$SPPEX48=0
##$SPPEX49=0
##$SPPEX50=0
##$SPPEX51=0
##$SPPEX52=0
##$SPPEX53=0
##$SPPEX54=0
##$SPPEX55=0
##$SPPEX56=0
##$SPPEX57=0
##$SPPEX58=0
##$SPPEX59=0
##$SPPEX60=0
##$SPPEX61=0
##$SPPEX62=0
##$SPPEX63=0
##$SPW0=0
##$SPW1=0.000020754
##$SPW2=0.0000092239
##$SPW3=0
##$SPW4=0
##$SPW5=0.0072087
##$SPW6=0.0001
##$SPW7=0
##$SPW8=2.5e-7
##$SPW9=0
##$SPW10=0.0072087
##$SPW11=0.0072087
##$SPW12=0
##$SPW13=0
##$SPW14=0
##$SPW15=0
##$SPW16=0
##$SPW17=0
##$SPW18=0
##$SPW19=0.00001472397
##$SPW20=0.00002288794
##$SPW21=0.00001068705
##$SPW22=0.00005763436
##$SPW23=0
##$SPW24=0
##$SPW25=0
##$SPW26=0
##$SPW27=0
##$SPW28=0
##$SPW29=0.095493
##$SPW30=1.7778
##$SPW31=0
##$SPW32=0
##$SPW33=0
##$SPW34=0.00010084
##$SPW35=0.0000092239
##$SPW36=0.00059033
##$SPW37=0
##$SPW38=0
##$SPW39=0
##$SPW40=0.0000092239
##$SPW41=2.5e-7
##$SPW42=0
##$SPW43=0
##$SPW44=0
##$SPW45=0
##$SPW46=0
##$SPW47=0
##$SPW48=0
##$SPW49=0
##$SPW50=0
##$SPW51=0
##$SPW52=0
##$SPW53=0
##$SPW54=0
##$SPW55=0
##$SPW56=0
##$SPW57=0
##$SPW58=0
##$SPW59=0
##$SPW60=0
##$SPW61=0
##$SPW62=0
##$SPW63=0
##$SUBNAM0=<>
##$SUBNAM1=<>
##$SUBNAM2=<>
##$SUBNAM3=<>
##$SUBNAM4=<>
##$SUBNAM5=<>
##$SUBNAM6=<>
##$SUBNAM7=<>
##$SUBNAM8=<>
##$SUBNAM9=<>
##$SWIBOX0=0
##$SWIBOX1=0
##$SWIBOX2=3
##$SWIBOX3=0
##$SWIBOX4=0
##$SWIBOX5=0
##$SWIBOX6=0
##$SWIBOX7=0
##$SWIBOX8=0
##$SWIBOX9=0
##$SWIBOX10=0
##$SWIBOX11=0
##$SWIBOX12=0
##$SWIBOX13=0
##$SWIBOX14=0
##$SWIBOX15=0
##$SWIBOX16=0
##$SWIBOX17=0
##$SWIBOX18=0
##$SWIBOX19=0
##$TD_INDIRECT0=0
##$TD_INDIRECT1=0
##$TD_INDIRECT2=0
##$TD_INDIRECT3=0
##$TD_INDIRECT4=0
##$TD_INDIRECT5=0
##$TD_INDIRECT6=0
##$TD_INDIRECT7=0
##$TE_STAB0=0
##$TE_STAB1=0
##$TE_STAB2=0
##$TE_STAB3=0
##$TE_STAB4=0
##$TE_STAB5=0
##$TE_STAB6=0
##$TE_STAB7=0
##$TE_STAB8=0
##$TE_STAB9=0
##$TL0=120
##$TL1=120
##$TL2=120
##$TL3=120
##$TL4=120
##$TL5=120
##$TL6=120
##$TL7=120
##$TOTROT0=0
##$TOTROT1=0
##$TOTROT2=0
##$TOTROT3=0
##$TOTROT4=0
##$TOTROT5=0
##$TOTROT6=0
##$TOTROT7=0
##$TOTROT8=0
##$TOTROT9=0
##$TOTROT10=0
##$TOTROT11=0
##$TOTROT12=0
##$TOTROT13=0
##$TOTROT14=0
##$TOTROT15=0
##$TOTROT16=0
##$TOTROT17=0
##$TOTROT18=0
##$TOTROT19=0
##$TOTROT20=0
##$TOTROT21=0
##$TOTROT22=0
##$TOTROT23=0
##$TOTROT24=0
##$TOTROT25=0
##$TOTROT26=0
##$TOTROT27=0
##$TOTROT28=0
##$TOTROT29=0
##$TOTROT30=0
##$TOTROT31=0
##$TOTROT32=0
##$TOTROT33=0
##$TOTROT34=0
##$TOTROT35=0
##$TOTROT36=0
##$TOTROT37=0
##$TOTROT38=0
##$TOTROT39=0
##$TOTROT40=0
##$TOTROT41=0
##$TOTROT42=0
##$TOTROT43=0
##$TOTROT44=0
##$TOTROT45=0
##$TOTROT46=0
##$TOTROT47=0
##$TOTROT48=0
##$TOTROT49=0
##$TOTROT50=0
##$TOTROT51=0
##$TOTROT52=0
##$TOTROT53=0
##$TOTROT54=0
##$TOTROT55=0
##$TOTROT56=0
##$TOTROT57=0
##$TOTROT58=0
##$TOTROT59=0
##$TOTROT60=0
##$TOTROT61=0
##$TOTROT62=0
##$TOTROT63=0
##$XGAIN0=0
##$XGAIN1=0
##$XGAIN2=0
##$XGAIN3=0
##$TITLE_FILE=Spintropy Username asu_chm343
2023_06_04_AcAc_MeOH_1H_1Scan_Temp_Bruker400
3 mm FS NMR Tube, AcAc in d4-MeOD
1H, 32 Scans, 60 s Delay, Bruker 400 MHz NMR.
Temperature - 298K

##$observeFrequency=400.130009529479
##$brukerReference=400.130009529479
##$OFFSET=-1.9815786951414545
##$SW=19.4639278408014
##$BF1=400.13
##$NC_proc=-11
##XUNITS=HZ
##YUNITS=ARBITRARY UNITS
##XFACTOR=0.0594198743855302
##YFACTOR=1
##DELTAX=0.059419874385412186
##FIRSTX=0
##FIRSTY=-49915
##LASTX=7788.222355585829
##MAXY=410849303
##MINY=-273220
##NPOINTS=131072
##XYDATA=(X++(Y..Y))
131071d9915J0227O039M623J0206J5577J3322M515l772n737r77N912Q621L765o340j5391j7734j1867j262P224Q019
131051a4945K411j570K268J0365J3095O167n111j2978j4516j0656l093M589O755J453n810q256n770k337K117J0717
131031b5105K0661K2643J2511j537p935n309k762p582j6334j9123j0916K862J2151J2748R006N838J638p426j8414
131012b2385k2558j5719l405O013R418Q904P325O159N355L629N22j770j196J36j158l250j003M966P245J813o435
130991a7394j0994j0946q219l726M63J313Q82N305J3888J7430J2601Q248R730P859m916j7381j4644l437l390j5795
130971c3123k1430j1383M58K165J955J0753K2315K4410J8118J1778M647q697k3402k8079k0708q984K096J1546J4513
130952c1052O815l206r92J3513K3482J7722M890o59J852K671k134o524n428k376m069j1197j7569j7337j0218J426
130932d0390J6974L4320M4614L8607K0236N136Q67k287j3432k3706j9288m998J101n354j0279n188K75m188j3891
130913A9129j9429k0494j9450j1649N714K2158K3906J1946k85m557l402l79M911J1699J6183J5973J1121J691j0140
130894E4646j7765j6857j2399j1487j1309l646R290J4383N460q080j4606j3688j0929p024N83R650J4226J2276O799
130875d77K45p488j5279j8517j2602J227J4124J5671M203j0045j5397j1309o462n978o877o365o605q090n523M271
130855i7273J5319J9188J5482J0588Q591Q277O993L040l964j0956j1870m509M821P901M464J443L571Q622J0826N820
130835F374n907j7028j7673o154P263J2370J1498J2970J5395R164n598j4053n534J0632J6480Q332k56K411J2122
130816E2808J6519J1395M093K226M409M350O34k059m51L234N337M324r25j1101k1957k5521k0092j3505j0987n854
130796c123R284K7106L2256K1781P718r51p499j5937k1475j8229q506J274P910J0315P384J327k495k983m485p415
130776C3257n514K968R667P835J907j544m511j0836j6464j6372j4495j5497j2458L866K6749L8426L2779K0526J1628
130757I1917N435J31j435j37l343j2965j9949j7037r324n626o105n175j430K041L560L413J245k909p407j1694j6621
130736a3415j9810j5544k836J0641J6299J2647L432o730j1839o195P981J9527K0581J5570J2998J2917Q968o80j0836
130717E3676j5349j0756K376J6306J8643N552j0486j3481k309J0755J6948J7506J4902Q037k126j0827j6315k1494
130699F1558k6305k5560j7468p912k356P02M088N250O82o505r411o370k783m015q978j0885l504J2241K7566L3371
130679A3406K8754K0059J2434N967l08n852j1123j7223k1122j6974n458L880M214N46J635O807P140k485j8623l4316
130659b8642m2486l6114j3484J5174L3261L3512K4023J6583J3723J0572N267K150N133J1691J5095J2105P215P178
130641I1956J0869Q588m598j8606j8900o403K167l857j5865j9573j3407n518M50O069Q623K791q576j6129j7494j8715
130621c6128k0713j6173m157M632M883P522K2176L8094L7024J9569L255l412q135j5175j6171p208L67l488j1764
130602e002j2555p301m250j552Q227K1068K4250J5329M392l036j0998j8683j6286j850J0899J0664M159L778Q789
130583C0042J0278P779P628Q606K476j1231k2243k2564j3966k585N192K489j1333k2887j5793P421K5907K7138K0431
130564C2785J7772J5118M510o741n127O616J2468O892M72O37J071m986j2866j4704j1346r378j1513j4998j5913j2157
130544b1388n941m248j1487k1221k2097j2528j140P961J9005L0810L2512K0499P616N903J0525J1614J1178J4028
130526G1601J1666o084k8086l0671j0322J0178J1875k03j1995j9632k4937k4674j5664l444L234K028l955j0424j0910
130507i0419L98J8771K9521K4916J3421O003J638n525j2843j3427q064k444L216J1537J8568J7910J2668J2873K0769
130488E9487K7418K4781J4109J928o253q512q127j1383j8643k0961j2166o6L595Q09L196J1515J2545o82j7470k3729
130468C1391j8641j1433q545r696j1358r545l158K768K063k744k068O904J5215J4272N568n404j6330k3356j7837K628
130448e9306K4906L1808K1336P275K158O108J1132J0128K024o828p363J299P386q26j8482k6954j4493J1011L1329
130429C3648L5093K4047P230o305j1006o308K675P095N84j3681k3563j9648o588J788m71n400n030l666q831j5717
130409a4054j2015K597J3123R021j907n321L44L917k385j3796j9435j2958K890J8287K3315J6824Q204O756J0101Q208
130389D1716j239q523n945O74N61o728j2471j2626j1354j0759p243j538k664j4600k6049k2828o685P674J2271J2694
130369g5662J5115J7046J4748J1085R869Q309J772p336j1687q780l613j686k790k331K740R411J0408K669o074l451
130349b0238J2557K8523K8994J2710p785k0304k2799k0193j6187r999K30J2279J9618J8208J2625J1561J6545J9615
130331G5960J4513N372n2j930o694j4817j7059n913J2391K1122R339j5793l4709l4763k2289j2870j1764j0121j003
130312e1080R206J0492M391J678P182J4388J5439J0470M683K11n738j4993k2457j8486l4K1521K8894J7215r06j0899
130292B1177j0988p477k498N380J2972J4999J3505J5264J9166J5175j412k2010l4290l3978k4599j1839k079j157q920
130273d3609j7171j6686n254J2022K7122L2897K7371J7118J2079J3971J3909M947p713j3934j1751o616l86J0252
130255D8568K3479K8823J8847J7j3244j3586n815J518M679M339J778j106r61L347P005L508o835j6550k0153j9378
130235D8280j7357j2668l754M707O294K166q87j778p318k0299l1651k9916j5338J107J1753J9442K8703L4624K6641
130216D2751M262j6441j7899j888J0930M737j3512k4413j9404o428M693J2399J7495J6973R672J517k106n248j4824
130197C266k7190k9984j8951n576l621j3003k1929k1755j3684j965J2266K7844L9766M3334L9637L2581K2312O686
130179G0034j1092k1733j8863n782Q006J4413J1012K016l860r40O125O652k690j3388j6211j1412m848Q8J970j086
130159H411p228r607o473p136j8501k9894k3235K268K7174L5361K9908K2125J5624Q236J658j56R46j354q667j5301
130139B4159j5646j0940p298p874q443k306J0067J9320J7656Q244N59j107K12J108J127N71N63L697Q646O684p940
130118D1059k5392k8013j2222O273J1632M230m481n289L861J8466K9142K8782K0482J2535N806m885j7208k1549j6835
130099D6394j1994p501P794L2573M2969K2023j3008l0151k1801p752n255j3296k3068k6772j6924O718K8820L1984
130081D1753J9797J1758J4108J2480k081j6856j6236l188Q589J3274J2557N585p911j9364j8539p684J019J483j451
130062D9093l111n795j1122j3033m879R225J6375R399m767j3821j4228j2429j3975j7848k2242k8262l3595k9529
130044a44544j1359J2452K8920L4964L5644L1496J7798l847k2768l0249k6595j6833o354m50N47N838K3278M2216
130026b9846L9891J1482j7498j9344K233J8308J1550m970p757P746K4458K6650J7831J2470J5187J6550J0077K829
130008A37847K335K134p781k1934k5852j9532j7471k2863j9567K355K8399L8179L0321J6969L993r218j7911j5425
129990H4978n435J994M214M615J016j1265k6078k9760j9313n727K391P247J1468J1335N766K571Q839K0904K8796
129971I8556K5989J2057p993k3631k4707j2347R06N516L968J915k230j1799k1375k1150j0540J05K220k199n635m117
129951C509Q33N746P491L433p405k1833l2113l0334j4850P591K6806L5906L3589K2667Q720k018p182r958j3140j2855
129931D603l107J3482K5101K3258J1727K89o844j2375j7635j7608o134J4862L3227L6027K2217L928o737r537j1996
129912I6748j7558k3998l0705l8370m1136k9413m914J5988K0798J5770J4015J4786O298j2141k3491j3778Q583K1868
129894b0650J6366L311j835J775L250j875m894J735J0715Q734m372j5197j5820j2680j2792j1781l649N714N729k090
129874e0306n190K803J4683J9761J4517L354m814j616J2190K3987K2390J1706M839L921m9p971q138L165J0531k08
129854F9555k0368k9476k1585p857K426R117J0172j200k2150l3841j9936J1593L3265K6506J254j5714j0569M126P921
129835f761r73o122J541J0436O287o468j1286k468Q524P740q146l1005m5739l8740j1409J6140K4124J4904O908R260
129815f3253J4353J4932J3812J3021P364l971j0868o007L630P312M910K484Q87k217m961n090o415j2762j9570j9792
129795g2201j4561j0311r392j0746j4607j7840j0717J0231L0455L1731J6766O651J3327K6830L1553K3392P953o787
129777C1727j2057l520R566J0329m156j6144r457R566K1811J9356R771J372m229n760j41R414J1349j362j9638k6156
129757C1641j5081J157P255L004O16O206J1851Q207k578j1801j5755j5373r586J743J1381J1177M077Q8R31q45o688
129736B1627q018j143N153L312j412j206J80o306j8886k5228j8776p472m246j2649k3726k5901j6681l520O843J5602
129716a22453K5145L0325K4276J0083k953j3230k5982l8250l7724k0922r94Q771R536R201R743R212Q186P804Q383
129697a01843J3784K7155L8857L2447R762n444N01J1184O327p310j0264k919q26n492m249L841O250J851M472J7547
129677C5631K6181K0808J0301M584J299k840l794j665n069j5110j9359j1396k337k651o018k651M177P400R381J1769
129657E8641M102k0001m3904m4474k3841o862p727j5549j4718m377P228J5947K2436K6318K5053J6311J061j3225
129639a7581j5854n267N312K206j1206j9531j5570n787K675Q975J1751P229k014o715m470m454j2278j8569j1070P533
129619a04685K3053K7852K6364K3210J4913k881k4695l6216k5942M207L7933N4400M3120J2675j5677k5677j8565p919
129601E470l451k738Q66O987R534P195O122J0672J6883J8479J5181J0550M946l445j1617j2258l583N511L817r497
129581G5624k2912k3735j0248P800J9815K3030J9682R508r040l0105m0015l0760j1221j27p296k3527k8765j0421
129563i2713K3759N0281N0846L0514J1831R773J7734K0713J5097Q710O292L871l403j4864k5818l0589k5373j3106
129545D3555l578l119o665o373m131o093q386j682R807R579n668j7082j0224K420o8j5449k2490j2482J834R485J5031
129524c1779K2771K3813J0857n483r781m954p233j9711k6376j6263k64M626q99j144J1460K6165K7858J3943n482
129505A2124j9240k3460k1007j6272j0336r5J7327L8754N4891N7134M4224K2427J015j1708j0816K345J8233K3182
129487A78722J0057j3819l2405l7059l4606l6017m0261l6480k1756p429l473m786o88P810R571n31j6011k7902l1086
129468a38149k3031n928J0041J5755J6406K4950M0488M5825L1224P923r104j8813k4013j6514J0619M2673N3834L8514
129450A02700J7266R047J1074J0783N699K877N295P128J051j3696k9366l5007k6440j1785m180q863k0050k8999l0753
129431c6219k4824j5140q584p317l540J0576K8033L1657J6527j361m423N346J1274L616j0841j9317j7263j0880p797
129412f0477o972J57J6421K9705K3687j227k3931k3558j260K1757K6076J2489k29L743J7751J8607l825k9897l3224
129393a4207j5438k782q625j7572j2314K341J3881K3872L7646M3960K6843n914k6768k2505o982L400R649J8073K3137
129374F9695J4970l443j7636j7549n703P613J2402N766m838q078j661N532O907O944J0530J0674k635k3819l3767
129355C1904k3247n511L9q871j7050j2219J285J0433R347K750l636r709j6040j7389o725J5123L8252N2384N3096
129336I4216L9681J3236j9393m4293m9853l7844k1428j1490p892m682R8L263L396L732N530K378j2655l3649m2794
129317a20443k9767n150J2479J9033K4529L1806K9456J1353q940j3829m131N653R100J1473J3702P860p496j9467
129299c2779j5450J419J6956K0757J2630k3p531o229m108j1365k3092k1276N77K5550L4569K9958K6623K8271K6718
129280A02175J9375J1806M787n956j6836j8287j2087j2449k5348l8989l9920k7759r881O519J2959L876j1183j3155
129262g0353R68J2251Q627L412J0931J9884J1786n152n538J3307K5725J4932n643j5159j1348l833M097J4565K4236
129243D7695K5679J6918L573o277p134k47N815L885j972j464O896J3257R704j778j5520k7704l4256l2179k5345k0790
129223d1244j7745r317M181J4532J9536K4912K9386K2700M749p814l590P546J0947Q237R787J5686J7300J0995j045
129204A19739j6977l1719l5102k5494j7276k1372k6005j2605J4629L2125K7512J0574n003j4418j5365n279J0423
129187a1613J9681J7755J0805M303k090q035j2086j7838k8381l4926k5294n038N822N74n995k917P03n602j4117j1409
129167a25698R92J1946J8465K5032L1154L1731K5933J6209L100j0116j3859l958Q183Q863J944L297J7026K9077K5239
129148A04560O066j6853l1107k9722j5699j394L478K878O641J3931J4559O254j613m141q371j8543k5395k0147j0914
129129b5532j2252k1899k1636l602J6318J8715O520J98R374K0562J6942J022j1046j2618j2491j7429k0209j0682Q881
129110g0864K6252L1929K3816N299j3734j9209o071J3462K3888K5389K7362K6073O218l0508n5691m5978j3756Q761
129092c7362R580M806Q928J5875J5127J0535J1125J2861M196j3273k3475j7286m292J553q92m325p794j6880l0246
129073f1239l5352k1252Q450L7632M9962L9311J3098j2024k1607j4500k271L050j138r747j6847j8543j3450m029M793
129054g5703J0890J5990J9496J6314O023n61P677K5179L2153J7035r001k3983j8393k838O004L014l165l712j588o785
129034A4046k1244l4474l6504k9428k1526j5286q441k545q25Q29R867K2865K6156J4381j504r869j1996j2731p710
129015a25939Q225K6273L1268K2682J5801K0697L0449L2525K2622M512j4676k5082j9252l048N648l440j9180k1568
128997a1483m813J7739K8261J8510o681l2679m3895l6432k1369j1032n241K654J1415J4535J4908K2861L6824L9859
128979C3941K3055J125o229q74j792j7826l7245m4193l4604j4349Q031K2846K2628J0575J82M79N461L625n825j3285
128959d4274j3323j1105j2651j5466j3211n501K596R256J7829K8649L4621K9587J7942R962Q421O163j930j1199j5003
128940B1363j4182j3035j0387k103R682J7551J8815J7564J6423J3197P027P06n057j2117j6902j1074L802J0948k464
128921D9757k5889l5843k3548j859J4241K2060K3849J7443K120j4249k3210k6978l3400m1883m2355k8269m027K0780
128903a51260L8187M2387L1540J3315K397N835J3733J0668m800j8296j7796p413K72R93K106J0073K0857K5821K3183
128884D1802J7993J1685o30j8084k6186j1313J7774L4224K3529L93j1758r322n629o404m372J769J06j5519l2206
128865G852l4111k3194j2790o382M519K3004L9131M2111L2029J6291M99j3169k1925k1077q326J0241K0305J0704
128847F5712j2769k9680k5335n480J2618J8504J2946N56j3305k1998k3085k2689k6764l0853k6912j6725p934L11
128829a52882J4511L0357L4101K3378J2583J1677J2500M000r672j5504q115P941K4874L3377K5681N931q875p036L585
128810D2412O616l705k1633m0346n3221n1435l2510q052P817J5043K2564L0269K8585J5444J577k959K018J2323K4423
128791d770L2769L1263K1025J0007K520l907r419p808L710J6660J8690O095j3865l0311l6137l0651j7681j689J3321
128772a78K1647J8114N883l381k983M78n04l62R434K1281J8419J165j0643o334K24p210k3272l1291k7223j8964q419
128751d4119R587L1283M1551L1936J1634l913q514n227K596J3569K3899K6701J7244k592k4839l9174l7424j8463Q447
128732C4182K6718K3457O83k5147l6700k9094j0266Q556K0301K2857J7599Q395J48k483M226J9822L5294L6872J9466
128713A74886o380k5762l3977l3887k4668m983J4273J4980n167k6053k8812j7195p266m369j833K487J907o245j4444
128694c2508j5240j0014l563L385J0821J3657O921m295p655J017J0571P972m244j0678l022J0370J7765J9239K1637
128675C2136K3715J6546j255j7743k0607j0874j112l103j7670l2663l1477r511J7308K6937J5643J406J135J2329
128657A140K0947J9154Q917n130j7836k2716j7470q582l741j661L687J0926J2064N567l36j56J050k790p782n710K928
128636g530R261Q939P251R291J1486P534j480q502r845p569m187j075j130n561p849J16J3455J5623k65k0220k6555
128615a8812j7708k609J4978L3419M1710K8484J835j5487j3420m681m875j4555k4420k6715j7412J887J9567K2168
128597C354J1919N827J2558K1633K1296J4615R083K205j0356k0821j6687J484J9702K5424J6423l51j2398j0023J973
128578I6860P233r51r708o331J751n48j1125j4225n647J877mk971L504J5518J9558R239p856j8232j4777j726J1258
128557G2697J7826J6337O955n461q794M074K0206J8114j951j5712j0173l026j3406l0497l0877j4540j251J426L861
128538B5808J1742J9308K3780K6806K2628M993j4756j8085q993j0706k8904m1781l4019j7169n050Q422L0445M7134
128520D1603M0602J7089n82j911M884Q868M486j0782l2344m5135l7514j7490m394n239q489m59K0070M2390N1998
128501F7651M0277J3943o707p050M501N898j0912k9459k9273j1498K530k255j5817j5746L592K3073K2667M762j2942
128482D7235j9704j6609o269P869J5587R381j020k50O690K20j8870k4020l434J6688P914j9030l0894j8633l326o84
128462e1159l535j291L330L441j28k477j312L820J1254J4650Q835k92k84J0723J9593J5265M239L028J6618K9181
128442H3499J9587j3138m3975m7498k7044q528n459m291R557K6952K9421J6939N088J734L047P784J7351K3196J2632
128423A06854j0029k4067j8496l895N992J0453J3053R973k754j8270k4623j8238o732j708r878k5361l0415j3001
128405f1142J4683K5898J1459r259j4811o595J993Q623J9072K8475K3621M515j1404j1500l475k162q453r732J453
128386A259J6497J9854O004j4442k4811j7701l44J4042J7913J2066M54j3547k6785l6672m2523m2890l1763m228L0375
128367a37242M8394L4674L259j5396r187M406N915J56M575K0502L1036K4677P163j0380k2281k6000k1696j7232k1728
128348i6385k9932k4989k015K2706L2255K7372J8022R496N451J1417K3671K6436J3207k82J405R058M407r673j5270
128329B6357r643o761j0274p648N535J5423J0105n971k2746l4607l5351j9345N722K1952K3767K3346K7554K6153
128311C3568J2646K73K528J0295M841j4235l0056l2513k6022j5384Q84K0586L3023L0246J7496P902Q695J5049J6691
128292I6513R209k389j0893j4197j3215p961j594l005j5403k5792j8454J807J4050J0385N138R544J3703M474j1772
128273D0148j8309j1969m663n304j1325j5460j2304q17J2413J5474L443j4667k6244k7968k3552j5202m177N512J1381
128254a03590J6426K3255K9002L0705K9328K3912J0356p865j7773j3991q194j1859j9930k2834k3948l0074l3912
128237a30986k3713m349R285J5449K2956K8343J7408p978k5314k0358l933P078R843Q748L681l763m174P374K0629
128218g3774K2375J3275L484k871r121j5711j7557j0977K279J6753K5457K3547J3920O300P011J2467J5508J4229
128200D6594J1031O859Q63o642j3729j7084j1765M080K2181K8436J8691M404k442l496n782o121L699J8021J8162k068
128180A13892k2909k1440k603N179j3731m1723m9827l1450m689J2967J8578J2924p424l8187n8788m9576j4587K2871
128162a70523M5072N1558M8955M0584K7119Q833j3986l5681m2026k3532P227K3931J6902M008M908J5425J7815Q119
128144C4708p06j013k156j5229l4504m1923k8779p264K193o902k1081k3278j1179K965O998n57j1312j3751k105J6490
128124a58385K7192K5398K4037L4236M5104L7145J2950l338L11Q920O447j565l610m481j4112k4752j9599J6J5080
128105F994J6400J3863J5384J3295o09j8677k5597j6278J032J4166J4800L068r836r065P685K5094K6653J2535l838
128086H7069j2172j1266k762J0455J9232J1933j1307l4118l9875k8795j4234n255J7M842O239N75q487j2924r152j88
128066e0173R368J6721J9589J5154K022j6806l2626l4494j8570M474J6609J1078J49j3J1740K3449K6777K3546J7284
128047D5278P556n061j5329j7749j1104J695J4350J8950J2880L139j888k995n551q167o946q060k0680l6355l3633
128028f9670j0200P251k413k5112l2088j8296j372R530K1359L4057L2080P608k1978l0319r683K3369M4827M2311
128010A261K2753M660J16M153M914O28j267J053J327j665m03P811J4145J1179L920J108L014N161P700J2310J4365
127989A18243P203p899k3354l5069m3480m6727m0852k6965j1246K529J3520J6885O026j4478k7403k2007q190k227
127971a45491l070M775K5007L9884L2827R765j1046k1781k5925k2707o871J5687K7526K0783P543K699O320J0099
127953c3976J1294J0920O389k836q674n093j52m754j3704j2458q96N497r9o275l077L085K132m162q752j1727j5576
127932i2894j5677o609O856J5170J6505J4322O804r193k5130k4687l980K1782L5991L6997L2351K5116J3830J269o103
127913D2720o952n621k712P260K4391L5867K8491P227p900o158P14m354k0077k9809k4842j3456n905k228J40k480
127893A4316j1596j6781o964J0601J5304q5j8400j9884p184K09p835k1647k8133k7474k7641k8505k0656q2K3297
127874a79140L5000L0015J5044O19n839k201Q445K0217K8737L1860K6484J0329j0186k0958j6358q836j2274j9586
127856f8628j0802J5412L3340K1233j0137l0706k6388j0070q88m007j1901j6202j3883o520K262R266J2763J1435M827
127837i9594l190m816L276J3472J4182L320r190j2844o992O59K822j243o107n389K533J3779K3870L1296L5130L2555
127817B7529K2515R500p76p911j3990j5897p927O784J5487J1023J341k616k994r313j9107j7259R37J7428J2170j0428
127797A6496k8103l0782k9051l0703k5833n930J5206J6417m61j2264o096O874J2060R976P263L641j540r94R413J9118
127777e5293J6193P067Q054J9049K0996K470k4115l8319l4069k0098o187L440Q014R516J2325J7980K1271J5882L097
127758a2727r201j5784j8221j9216j7365j0452j199N029Q132J4139K5580L5164L4018K4037J5884J4789J4934R686R11
127739I8138n327p134o846p418j2496k4566l7822l8425j9085R824L0332L4870K7797J4091k969j4958j2053K608J2016
127720D0577N111q525j0423L164J5787J0062j1229k6775k0272Q93J4855J1219L09m195j738J199L510O335N243l346
127700C1761j3613j9409k5852l8613m7410l6937j1670Q507J7635K9354M9797O4759O1844M7735L3317J7721p48j2530
127682A55648j0299l715o327j6027k1283j9026j4216r455o695j0865j9592j9176m920M713q579l3906m4805l4708
127664a23233j7532J268K8250N6165O1682L7767P358n286j97R092J3851Q235j1867l4513l3680l054K6192K1611o263
127645C5846j8035P03K3049K0971N98j2782j0191m787p892j3145p975P044J7726J4136K167o174q040q139o011L886
127625B2955J9181K8682K8202K6059K7169K3136P132j1521j8801j4473p540n03Q072J0525l826k9562m6442m2195
127607B6250k2891J07K0538L2246K7890R684q795j8380k3274k8433k8020j5425L007J4632J6441J4813J2709P127j552
127588C8674o702l861L859J0344J2294R790M536j992j0829k4328l9679m6499l6916j7017j444M542J0463K4264L6657
127569c3844L0052K878k2555k2316J086J9617J1686j2110k1906m594K2856L7152L3982K2680P535j1078k3196j5832
127551B2093M567J3391n82j8519j6824K493J9604K5256K4726J9303M008j5099k0572p673O481O855J07j137r90j1051
127531E6437k5693k5310m253K0112K9728K4601J4704M816m990j1925j2588r245p666j0139j4136j5922j3312p418k728
127512a4927k021r98O278J6029J6999P167o13M285J5610K0858J9409J9449K1348J6438J667j5453k7765l4616l5331
127493C3813k6510j0365K270L457j934k590O404K0580L2104L4803K5882O987j6346l6893m6648l8510j3490J3594
127475a3392K3744J3035l558j1142j0613r595n417J1401L8445N7379N2390K6735k101j9223k1835j6441j0923q583
127457I0306p793o982q169j2567j4434n833J0085J7147M012j9123k9591j8457l80N421l085j3574j7819j7885j6275
127438f4996j1274m602k859n101J593K4085M7141M8015K4967j307j5080k0923k7628l0423j9255L543K4544L4037
127420D477L1016J7777r93j6564k3431k6946l4164l8170k3872P531L2036K9433R009j481J0193K7562K7747Q943r784
127401C0319j2671m067J208j374k589L382P953J263j0008r402N278J6443R368r299k2357k3402j8301j1188o57J1714
127381c8387K0081K3039K4048K1425Q760j0076j7762n100J2531J2835l885j6859j5133r844j2342j5834r386J528K812
127362b7549o062j2074q866l139n30J626M591L905M3J852J2060J9402J4307M160K318Q155R558J533r197j6015j7455
127341a7377j1112N315K4130K9457J4385j0039k6637k7570j5981O64J4542K0123J7689J1870M729o266k2060l7544
127323c1682m4440l6011j1017K1266M2715M2414L0449K5007K5939J5544j1085l3616l3945k0188r025J955K4205M9494
127305D7979N4893L5668J1346m952k2529m9547p1132o5804l4718j448J3593R965J780K498J3221K2645K1287J5280
127287B5J7982K7450K5135K704k3151l2848k8968k5720k3561j2201O044J5062Q201l355q212o840k788M233J1343
127268d9465J1017K957l321l312l684p780p912p82K521n983j5129j0748J159M255j591k276M952Q135M522Q023K5566
127247c8876M2300M0333K0511l373k1272k8457k1130k413J4663K1134K2939K7541K7691J2827q771j6555o525K768
127229H5335l187j7095k5308k7775l2027l6611l3487k3369j6917j9956k6012k5640j7050m740P926K0841L3344M1278
127211a20450L9580K8489J6405J3410J9802K3550J3110p714k1754j6359L848K3466L1744K8557J8705O900r11J908
127193A02286J5301K7896K5182L545k5890m7119n1053l9508k2034r008l928j424M817J3544J9546K3174K8180L0628
127175I4135K1169K139r369l546P206O376k341l358L923L967r307k2784k3987j5801n196R014K7596M0777L8021K2346
127155A80980O029l433n839k168N701J2190J2021N200n919k0438l5760m6169m9286m8209m3069k8854p629P100P536
127136f0016L556O258R736M258j680P358K5573L1975K5009K6709M5637N8699M3370J0069j4053k0753k2421k6632
127118A52652k7169j8465m829N485O521l171j6350j8717m333J3382J6141M125n610k926M409M694k766r745q902O51
127098H5077J1672J2304k221k1531l0889k9057k6496k6870k2406j0035J122M620P299J5674K1373J2271o972j7727
127080b2792r564R355K3293K2586P668j1830k1748j5363k363R19q260j5713r404N844J7308K1143K2721K3982J9541
127061E7323O687p888j5903j8546k3687l2049l2510j6362P528J9836J3937L489K877R073J1654J3295K5393M4591
127043F8738N0134L1002K591j3475j6310k0602l1649l9989l8571l0887k0732p333N182O287n082j3283n008J1260
127025f7727J6585Q681M595J5171K9190K9002J3460l292j1249j2869j2229n931R482K7144L5474L2795K7558K2435
127007A58275Q604j6640l5805k9201m735P133o761k3410j6034P859J8628P727l197J698R174P43j6609k0616o639P368
126987D7562P755J307J18K414l065j9022l3884l3879j7151M720J8068J9444J5547J1412L327j2680l0213l7851l3011
126968h9082k2116q063J1398L0971L6677K5098J2840J5253K3302J5790r022k9538k9857j8353j1737j2479j0606k33
126950f9757J4721K7236L2533K9737K3469K0607K1011J6269K777r992j1920p391p979j4001j5434j0103p649j3032
126932B1102j8994k0124k2061k7789k5304k158L2455N3254M6681K3358K357p312p480l129k09m499j4755j9727r349
126913c683J0915K3004J5551l979j9068k2202j8630j4744j0025k784K391j163j2502k2892k5298k0329j3251r006r773
126894a57468j2870j0962Q76J7525K7811K6719J8977J0622L741J28J355K341n320j8069j8808o4K0470K0677M615l043
126874g0747Q265K1858J8903K552j0212j0229j352Q504J2724P355m711j3461j1932m485K77J813O685J6794K5009
126855C610K3269J1079m230j2861r304K137Q836J313j5342k4529j4810P469K3629K0865M795o714k907P815P659r265
126835B2514k9636l6485k7572j4351o163j845L377R364J3129J5401J9743K5038K3571J0142q514j7773j0428N078
126817e410J4629J4549J3318J7731K2945J9096M082j4517k8381l4629l2935k1795j978J8242K7072K0739P209m804
126799C5163j6149l0187l9305l0270n125J5532J7327R351O418M669r125l0081l6897k1594J132J8107L2193M4815
126781c4026M3556K2112j985p844M7K148l694j000J5140K7410K1232M386o032m421K840P800M486r414k6730l3610
126761B2401k5339j2847o094J307J9886M1714M4490K0479r951k0033n450J4645K1073J2070j218r038r727o757m185
126742H7426m642q432j3586j7753j9520j7032q173L908P797o275l1427m5963l5422q895J1710J5587J0656R802J6417
126723e3817K4207K5969K0328J2010O368L114k538j1027j4809q085L256P838L522j121j96J792j839r798j4986j3556
126703b3368q057k722J516O658J3168J7646J7244J5534J9016K6052K5203R380j2954k6448k4751j2364L758J5988
126685F0499J4670l083k4497l2476k5960j8260j5510j0287J220J0702J3023J6361K7063L5116K6887N738j1452j4383
126667E5371o537L466Q218K580j1376k1858j8934q358n634j5605k5601k1398m966O705o35k2067l5199k1785J1437
126648a32176L8659M3266L2748K2429J5305O599j503l049r61k955p563p105k534j919n219n082k840p325j5055r719
126628d5999J1073K5976J9299N683Q455K3065K2011n435l6413m2168k0264P310K0333J7487J0965J1094J8561K8632
126610G9665L7137L8591K4100q075l9888m5124k0577O002R250l090o644K044M458o682j5899j1627m062n897j1784
126591B1898j0949p842j3567k3822k2282m186J7491K9537L0070K1606M766j6576l2368l4126k2420n758M357j56j5034
126572g9361k2756j0173J2901K3171J3367L08k02O726Q445N849Q058J3538J1166j472j3186j3651l587J0335K2395
126553h129K7938K4402J5349Q716Q825J3272J7312J7141J0185j959j1579j2543r749j3204k1681k1161l774J9004
126535E8365K8312J8879K244q347j0602j1216j5963k3595k8142k5368j6125m170O731J3450J5182J6086K1203K6929
126517F3853K2465O407n728j39J5460K2904J9027J4268Q878q862l7043n3686m6430l0968k5904k4277q433J7036K8254
126498b2918J5258n746j4436o633Q940K1392K2325J0444m756j1284q557o575j1610k0370k7333k8491j8345N422L2175
126479g1098M4099L6102K1102J1760O599n67p271p042p67N558J0173J4119J3464K739j3191j9641r141P535J3770Q324
126459F6626O065J4960K0998N806k4575m2375l2681j1859l251o811o437J350L960m356j3417j3542p453k462k175q239
126439e9868j8658k2818j1367O903J3133O359N259J5910J9128K970j3083p113Q177L826j8513k6635n269K2559K8954
126420e0146J5300K671L513J4089K4250K4756J2560l523r513m000n72o731j1139j102J6580K4316J7091M797m840
126401F8357j2327j6438j1786M9P428K017j1619k4226l2968l8812l8748k8643j1971J557O943Q267J1069J5449J9419
126382h6983K4269L1121L4638K7505J2532L255P702J7216J8461J2389J0777J4826J0946o360k0077j1746J0513K0722
126364A31706R854m523o560l380q365j7081j5664o088n155j8053k8936k3408q251m35m562j0835j1423r416j1123
126345e1698j5889j6402p460O985J6581J5793J0707J0492J3435Q619o918k0731j9395l971J3843K4434K3195Q714
126327A0334j1924k1966j1579O496R961m800k0004k2892k0201k0701j7390P00K7043M1706L5816K1633J6354K2824
126309D1410K9272K4241Q418p712j5991j8324k1346k5963k6743k1263j4457j1402r989l984R043K4875L5721L5508
126291C1314K4966J1819K882l225j0987j7461j5084n527j025p900j7504j9036j2869m454O385J9783K5925J3774j1176
126272A0600k8657k5167o876R776J4106O772m717j3411j7964k0683k0337j1324O784K3815K8497J9442K052j8626
126254d5918l3915k8610K997M0031M9432K1318k0736m7236m8985l3007p275K0205L7261L5901K2157Q943J233m623
126236c0827j0072j1507q144n199p152j2095j4381j0156M15J3749K4425K7409K0052L268j7567l3630l7957l1031
126218a40400j9169p068N197J8014K9607L8666M4721M4127L1215P330j5773k5961k1146p166R459K2143K4025J5093
126200E2914O025O414J1528R677Q72l468n34k429j5547k5081j2569J6374L4908K5931k20k1084k5472j7060l485R380
126180D7074J5961J2661K037r261j6870j9652j6548q580l240q728k1201k5013j1007J0672K2109J8199Q907L940L312
126161D772K660p65r488k4793l9508l8915j6538J4416L3473L5431L2223L1992K7251J0638o638n644J1996K1278N857
126142H9698j8227k2628l820J4524J5239P654Q430J6512J8597J0714J090m971j0275j5513j4883n423O688J3145J2374
126123A18925Q896P219P823O623j732j7500l3925m4394m8516m7113l6494j5993K517M441p878j6374j0156L601J4252
126104a05778K0762K4270K0275Q462M38N038J2220N239j3983k5304j6806J298J1951J0064J416q045j4787j5779j1850
126085i0899r830j3704j5003p10K6565M4054L2278K96k1385j4756P058J9591J6825J1411J1230J0673O139M879J0949
126066C5661J4421N842o717q040R92M357n007j5147j3033j314R627J7587K6265L1131J9874q947l5880l7943j5224
126047A8505P404Q084q628k1609k0817j5017j3444j2820p922m192r642j9895k1770j0149P136K0302K6295K7191K6925
126028b4063K9557L4233L2199J5439j1243l2789l8476k8308p269J6761K9026J5057k0656n1472n3241k8605l68J4777
126010a09441J8136J7965J7157J4324R815N866L825M442Q609J4285J4202J702j9202l3399k9004j1218K926L961j794
125991f6843n502r302j8846k7865k1949J305K5823L4504K5959J0440l146j0542r534k543J525l416j0299n380J3569
125972h2042L1647L2322J5152m815j3745j2608j3422k2759l1966k7643j0504L759N868P195K3877N1461O7329N8722
125954G7828L6382J6206r08k1500m0206m1886k2824J158J1693O641j412q69P884J4543J0095k556j0038l986P110Q202
125934E1557j350o883n96O963M386k364n27Q495J2848J0901J2485J8928J7327r4k2943l5451l2874j9893k989Q636
125914B6562N152j0685k0398j1225M854N185j3806l2582l3160j6985K685J6308K2820K5566K7148K5607J5867k191
125896C6722j9367k5650k0853j1887k681O749J3961J4463P594l522j5411k2466j7307j422J0502Q281K944J1144K6481
125877a725K4648j104k7931l2598j7032K084J4032J5686O799n439q689k299l27q555j2710k552P586P75j1945o023
125857f7319J7492L1171J9967q24j0636q514o164j0713k1439l2723l5012k2667l915P608J2642K3938M1654M8362
125839a7092L5942K0168J6169J4342k892l0755m6717m0355k1878l339J2578K4372K6988J9486Q012j257m541K720
125821A1951K0304L4342K7492K081j8887j9645r483n627r782j2594j2333j4837j8734j5208l365O193O585L820O159
125802b1568J1679J2328N679l074q416r531r173j0338j3040j3057o120N220J1699P052m298j1929j0666m997k801o616
125782h1967j1653j2545j0971j2901j6400q486J7440M4442M5356J6286j5484k3707j1779M49O808J5622K6904K8412
125764d174J6364L563R47L668K193l188o494o359m685j604J501J73n445o971J302J3187J9105J8375J5689J0136l258
125743F4025k3038l9265m1088k3161J0388M3386N5733M2323J9069K597r183k5921m1938m0870k1484k508J020p674
125725c7589j9563l2314m3322m3194k6724k685J6313K7504L3828L3450K3806J1659P977J3306J6884J0834j443j1579
125707b2852j4876j1746n968l002n497q798m974O338J4550R207o713j8326j4829j711N767N34q333o759Q896K9934
125687e9158M4522M4299K6723m83j9088j5432J936R884N20p042O709L1840L8447J3449k4156m6004m2525k5235r544
125668c0338j610J591N349J0630J2408M927j0550k4104k4253p385J8130L6151L4078J3990p887j6149j0821m637o804
125649g284j3405j4294n488P382J6014J8082J9144K5135L2552K9600J0790j2590k2715j4794n2R744J2002O877p190
125630H9510k4871l1025j7141M972J7190J8613K2002K8685K3538J16k4039k7965j3622R7L110R39r79n337j2681j4600
125610C6512l540J5910K9598K4869k55l2709m9457l6136m083J8919J8755Q096M860P297J07k0599m0216m3055k8309
125591i3436p668P000J2519J4719K0274K7072K6073J4795K893q58r03o828j8429k7769l1377l0270k1886l854J6426
125572a01507K7866K9669K7397J8557j457k0556j8226K396J1947m837k5636k2846k647Q428M260K735J2865K1561
125554c0031J6449L319n716q146q242q309q990j1155j2098n485J0654K9719M2645M4362L3838J3092j1655l1482l8868
125535A3901k9628n164K2275L2476J6331r247j6901j185J5083J0542q745j9709j1357M960J1766N292j989L432J9531
125516E1664K9395J9914m017k7704m3364n0897m7212k7564K580K8724M2236M4014L3854J0291j6508k7944k0512j1883
125498a4933j4946k0399j6143q410p124l544J5564L8947M0428J7029m966o334L091O289L617L116J642p704j8177
125479G043j6460m119L019k147q180k337J2083K1995K1927J7328J3023P012j302l951O146K0058J7373r119m0595
125460E8797n2212m1369k6540k0966j9741j4053n154J507N235N836J18q237m771J6914L9034L7739J4860m393n722k85
125440b3403k52J315J3293K3791J3893j1170k3513p354K1912L7695L0069Q623j2063k1796j6696j411J1954J3239K918
125421F1044j0417j8815j9523j4929j0835j1433j3616j0399j547N685Q899J4583K3910K4804Q938j1750j9618j6529
125403a1548j7374k0895q216K4228N0068M3957J3931j1055j6613j1597p427m292K251J2618K2766K5345J2887j2168
125385H6866l2690l2199j5384l685q495j7961j4524J917J4875J1985o71n729N247K0316J9234j683k2201k0950p29
125366a6461J6703J7632Q083k66l881m180j368K120k42j0254j9005j6067k129J2110J7156J1452K12q531r040k597
125346h553M138O761O219L898r67o469o265K662J4373K0223J7622R098l094j6734k7458l1711k9686k2161q388Q843
125326f7649K1036K2893J9415J7513J4535L600j2022j9853j4661n239j921m269n422l651m118j0236j6457j1432R590
125307f8348L4763M2306K2344r969k8617k2871m021J1669J8259J8092J3874P255k68q688j7349k0148r718J0475K5509
125288A4549K5698J7539J2200R770L639m431n061L194R419M790o199j3451j4761j5788j9026j8744q488R009K2243
125269B6101K1834R872l157r535r555o733l840n770j8555l8247m5903k4811J6692M9275N2824L5280J7912J0407P340
125250H1431K442m260j1543j9408k4627k1211q532N946J4538J5587J0097j885j6691k3882j5514J993J2199P154l089
125231G45k768J0702K3949K3177R683j365K902J8837K9358K2115L051j0879j1342o033n652j0046j2446j2021j3245
125212E8722j3990m708J6219L3997L1750J0513j1363j7838r634R9k92j1572k4203k7121j8133n473K405N964J0085
125193B5427J3898J2337O602M134N937L112q597j8826j5570k912M010p15q866j3461j7423k2342j8530L644L6036
125174a2105N5910M8952K3768P60r903j5284k5550l8099m0264k6691p521M207Q000J1351J3149L230j8134l1509j9113
125155g4846J0625L0406K5789R749K893P828R838j935k2158l7806m2218l7871k9026j6474L23J8781L3037L8069L3475
125136d1521K3337J2515K790o840j5026j5050j643J8112K7126J7046j63p754p679j6270l5847m5975l1246n169P112
125117a22145J715l910K62N755N084N461J5328K9375L6428L4180K7530J8638P395k602o581m600N49P808J5066J6971
125097H7707J2181P725Q451P229m653k1159k7001j8267o463k074n403j4749l0479m6337m8850l3572j2829R68J1525
125078a36050K8102M5613M8282L1541Q687n576q904o428j254N115Q686N511l059j0549j0019J471J9409L1899K7769
125059H0246P861j4697k8024l2274l3850l3307k5573j1151L01P03o131q813j409J0544J6364J0490k956j3772j3449
125040i8897j106J6390K9085K9305J5377o696k5787l3345k9914k2109j3802m400M267O792L729M931J5685K5160J9262
125021f6073K587n183L818J5087J3632M424J385N006M127l703p025K429J7501K4684J9652R882N129P783J0840M760
125001G0742j2020k9671l5661k5718n416J5246K5814J9199j674k3021l2083k8496j9671r114L035J1680R523j653
124983f8959j1625j4305j1828o678K58L527l159j4014j3519L049K1560K7437K2704J7956J6259J3194O403k351r418
124964b3509q864K840J6914J7105J463j1049n147R855J5229R059L055J359q43k732N27L539m673k1141l0015k5074
124944e2102j6319j1543o486K152P916N297k105r660j7577k4096k3471j5214n076O286K2817L7809L5219J4092m217
124925e6278m485J454m029j5893j7179q221m424q794o747J0082L0914M0090L2342J1695j3018k8502k3793k312J9454
124906d7644K8540K6037K0965K0299K5598L2698L3927K6046J5170P915R09j2038k5164k5510j2862k133k658p052n875
124887I7168j995k681o307n924o39M254M730K05p929j5276j6440j1883p716n169K152J4671J8865K733k5182m2549
124867d912l7507j7837K699J7864K7397L0307K4841J2616j76o181k738M822Q194N511K506K971L681J755M69K136J777
124846H0195m336r231m050P461J4053J4384J7403K4865K5784J2316q764k5627l4650l8763l9128l4360k4493j2409
124828c9350m029o409j8712k5713j1605J6534L1334J8521l590q361N044J5257R806l020j1131j2049p282K959J4376
124809c7420J8006J0741k20p146r061o399K964J6928K5688K2309J2215N946N891O237L356l53k367m577j0439j9409
124789C2890k4911j9097k427J2496J2220j250j1438p053N998J5893K0553K4946K8532K4710J1247n613j6991j7332
124771H3373p829J264l292k1949l6527k8889k660K2145L2486K9660J7106l883k5118l3838k9582k5851k8563k6312
124753h8259j0957N449P712J439L768J5544J9566O427j2126j8111n105J9900M1629M2804J8022j4502k6838j2964M033
124734b569L114p552n400J3624L1399L3094K1289L949j7256m0358n5343n2202l2511o413J8500L9024N0133M5239
124716C9761K4677k34j4124q510J1671K9810K9325R488j1656j6237p650n124j6949k9126k5420r105L965P300P995
124697A9857J1962J5685J3064K115j5391l3377m0842l0602r706O785J2864J3505J0171k325k0803k9362j8689N46
124679i4543J2078J2547P266j437r934p691Q680K2896J7277p86p895K077J2383J1595P607Q490Q306J637l231K428
124659I750J3164J9509K2346K5149K1504M908j5418k3727j9921j8557k6267l3228k9014j5915l229L138K614j056k06
124640f4456J0404K4978L0952K4150J2772L904n379j8134k7343k4977j6258j3743j8004j5365J717K1725K8419K1233
124622b3405J2218P001O78p122o578O214J8082J4641J122m865J646Q511P162L875N656P223N64j0652j5095p611P117
124601B6382J9830K0580M352j9987l2810k4333o932J358o57j584K234N006P118J6154L0105L4487K2322N612k34N045
124581A14048R838N101j0153l0515m5221m4152k9133j3536n508P34J0464J5113N410r085r377M668J0842n669l0854
124562e6985l8008j8395J1555K9489K7240J4416P346J3122K1526J5573p021k7646k7742j1537O37n76m344R46J0969
124543c9435J4858J1649P036K99j2506k4585k1813l182J3988J5369P111M896J2824K1469K1844J2724k793k0068l3606
124524a3921m1162m5598m7716m1429k3538m484P48q276j6960j4899o180J219O931J5078K6937M0819N3468N8410M8867
124505a1686K6379K224j2324j3492l480J0953J7756P781j2341k4772k2740j8027k0057j9751o115J1218J2890m52o485
124486h2521Q629L2651M4795L9376K5135R939m626j7487k5426k7054k5628k6690l2660l8562l3983j3190J5870L6085
124468a15347L6288J9653k241j8750k3077j3184M429J5912J2095p95p653k204O833Q640L770L90J306K065J179L730
124448f6961J1017J3751L273j3566j9367o961J1184J6515L086j8464l0933k3312J101K6433L7126L0581J4851l417
124430a4063k1237l1114k2862J044K1709K3457J1166J462K872J1437J9503K0714J2001o23l386R393K5399K9086K0815
124411A16773J1482M394m739j4612j9626k1705k6052k6740j2954R505J9767Q844r838k1156k4738k5651k3887k0269
124393h1202j8594j4717J694K5821L4335J5876r139j3566L725K4790L9733M8376M4922K3418m809j9625j8715j8613
124375F3710k8261l7839l6367k5422j1576J804J1291J3613J2826J6918K4657K6195J8509R132K944k151m504J638
124357E7117J1367R385p244k0861j7619p512q014j8234k3096j6058l981O507J4896K1032K3857K4773K4317J8103L906
124338I2641j0599j6004j4081j3456j5008j1583j044R829J3971Q085r316l2690m3769k6227R654L0596J7155j2821
124320b4667k6671j4633O094J8484K1647J9431Q428j3855l7413m7278m0687k7569j3913N405L2700N5121N6035L5964
124302A2623J3241L814P876J6608K3083K3664J6748N200n257j3201k1306k7250k4019j3357p951j2659j4611l308R283
124283a0779M264j4725k4935j5970p60O655Q156J1054J4382J3408Q421K447k435k352O554J9180K2770J1823n391
124264E1767j8014k1705j4777K545K0200K2565Q568l937k785J459n869j8938j9871m464J4192K2763J6655j358j8663
124245C0333j5996J1312M0016M2616K0266m103k0137l5832n0374m7158k2139L227J0694R784J8527L3567L7145K5565
124227H7313J2645P683N733J064k426J070Q362R286j838j8573k7168k1173j0140q915j8776k6822k5037j9825j8236
124208f5773j5436m326J0631J9235J9503J6155J0185O13o990n170K935N726j936j4276k5050l3706l9974m0113l1255
124189a99022j4629N831K3708L1115K6673K0979K5384L5530L6079K3499J3086J7211K5728J7932r236l4412l5462
124172I994j5045J621n246k7222l6765j8714J3477L5647L9194L1685J8642j045k2088l0756k2637j1504j1342j6569
124154f8673j0543R453K6139K3063M637q949m608J0050J7608J2432N630P082J0277K686j3965k5483k6609k7486l4620
124135i1879l7820k5779o153K201n669j4518r199P236J9764K0794J7800K1392K9683K9263J2960q275j7049j0634k671
124116f8553l860r805j0997o227o31K703K598k982j2476j7992j4356p302n056n117J581J4729K2685J8254Q282L745
124096i0777O404J0148J1591J3045J5186J2482K93j5068j9188n809J3745K2760J8151J0081M303m362j7870k5346
124078d0231j6278K809J4364J0461K42k869L947J2043J3102J0034J2329J8156R608k1501m9032l5852J3794M9480
124060D606L6434M38j0884O549J6869L162j3016j3653j1679k2486l4365k7253m967J0536Q307l072j0170o512M944
124041f6212J2570N501j0634j5768j028J7414K0223J0871O388R909Q870j826j1067q782L29N779N797O419R848R825
124021A4426L35j3435j7734p029O230N893o661j5851j5221j3732j6359j4675m487K672k103q404l059P529Q512J604
124001i1549J18M306J920p801j0850j854P360Q369R611K1146L7605M4585L4338J0104j7686l5823l7094k8267k2131
123982g3593k0086j1971N099J9448K1293J5944J4274J8393K2584K0866R135j1789l0727l3209j9513o335m893q166
123964g3246o750m662p842q119N553K5985L3766K2599N170n489p742m195L965J2045J2234M362j638Q30N477K359p947
123943F715j5136j1876r29R972J6644K0249K2196K0624J3986N858J245j766j0464k5618l7376l6729k4770o423J6603
123924c6995L8531M3765K2628r724k5107j5593k666q258k7753l9410l2070j3831K019R912J1993J3070J6455J9873
123906c3161J5465r91k0362k5619j0298J2316K2564J5255L043j02O508J3827J5792J2987O268n856k1675l3691l5353
123887f3083k7615j6488p218l039m957q153k565J5966L6297M0646K4239J388r955n447O195J6820K6400L6859M3020
123868I9310L4917J0682j6230k7768j9724n348P03k802p295p275l997j32K352M60p128j5596j8073j4623j1699j1622
123848b0888q307L853K1272L4259L6053K6919J2800K535K832J1423J6364O957j3549k9653l0367k1396j6309j7603
123830A7195j4268l41J3527J4986Q331M560j488k4013n3729n6015j6208L1076L9583Q717j9923j9233m713k350j2109
123811h6415j5825n525J0648K2313K4755J7691M947p321j6556k3548k4435j1855J1042K7217K4467J0803L358P565
123793b6674J4683J4823N206r815k0164j6363j223R806O675k482l866L111Q920J0316J2284J6528J9171J9124J8611
123774G8671J5615N475q850j6645j1599J748J4044J8099J1259j991j0559p219J674L674l766j2414j6710j8420j8022
123755B4064j2185k237M341M460L125L299L81q833j9092k2904j7449k456J9840L7927L4850Q641j8190k1412m210P872
123735A9832O43j1853q324J1706K9361L1386K3079J4649M501j5156m0062n3194m5594k8484j7873j4262o793P542
123717i8896J9840K2865J8584J2329Q632J2150K2425K7864J6964l215j3120q545p533k2344l9355l8431k0306o99
123699i0791J3320K4993L2043K7141J3840O407J0811J7829J8101J3291Q646M263j294o356j0086j4915k0582k1103
123681B5558j2325J312J1355J3968J1377P581M673J229o378j8367k7664k6142j4933l433K569N841R171Q725K40j2886
123661a8529k2522k4125j8745r727j081L486L722L552N988R158R868Q658P901O490N46j0298j9776j9467o573J1890
123641g9584K3117J9010L725j0423j4467q697J230R624J2703J0563Q580J1711J5856J1121l457j5181j2738J31J1976
123622e200J8578K2263K1437J2133j347q565p615q255j7286k8836l2855k6220j2069M486J5953J5777P539L197N687
123603b1198J916j7237l7570l5924j0771J5544K5060K1023J4525R213N733Q108J5361J6325M255j0254j2577n066j912
123584a5446o351p377N91R550J3669J9536L2031M0215K9228J695k3364l2338k9130k4706k2188j6505n248N095N072
123565b5971o689k0389k4545j7475p122r65l74m265j1866j9239j9050q816M033J0049Q496O461R477J6692K2997K2270
123545f6291J0987p265k3004l0086l0758k7793j6794O003L1448M3129L6729K5439K3034K8099K9014J9338L064j2582
123527D1711k4392l2531l5416k8228r307J2584K3163J8944J3350J9339L0167K8136J1487n49N963J9865J9938J964
123509A16188j8910k8058k3734j2007L07O499K317q720j7191j8208j6752k0009k6883k8135j6513M575K2411K4995
123491e7828J1312p312j6658j1767q44K910n931j9951k7255k4407j8348j4806j0182L40J1488J3734R144J0663K2900
123472a32798L4179L3744K7067K4365K1775P731j4656k6424j7575j645R91j2974k8893l1657j7783N500K5767L2066
123454g1220K3485J1821J0284J8551K3483J5734L01j2004j8339k3681l0023l2730k8222j9551j2212q354o675l774
123436a63126N932K5400M6209N1233L3154N829j0653j2360r896q902n560r42l867j4337j8527q938K473K192m331l012
123416i2029O135J1342Q821M806J077n351q690K233K3600L5319K6578R620J006J538L468N825J0770J3029N826o807
123396E8116j4562j4882j3434j3656j4779j7407k1560k1466j2200K42N885O690J3311K5273K8578J8192Q854J3059
123378C4254J9320P066k1856m2225l6516j3222R642K6114L8528M2523K9966M714j7199k5522k4361j9863r843P177
123360H697K1354K1569J2153P296R182M766j1607k4942j8401K918J8835K0540J7215J6159J0073q992l2258m1349
123342C3208l0054j0176M418J1622J6291J8841J5202N553l626o775m041J950R193J4382J2763L561p844j6500k2640
123323D5328k5668j8676K901K9332M2345L3649J0768j5208l8235n2088m8107k5671J821J8931K2576K0082J8240J9385
123305D1705K2585K2838J4408O18o518l469l732j9084m0003m8298m3339l9191l8594k9220q259Q696J1322J0417J9046
123286a28072L1500L4659K9904K8484L1151K7695J4682M82p513r730p517N95J2742K0875J7349J222k1719m1510m8449
123267a3170m0228k4115q974J910P293M503l299l813R308K3462K2441J0807P192J4605J6034L199r167o442M782J0444
123247B6772R848Q848L936r953k3315k1717q559j573o493r471J418K0033L2107L1304K0955P973q29k901l760j1200
123227F3423k4049l2530l0662k1549j0097J114P166J463j4533k9130l1335j8595O138L5181N2937M5724K1576P858
123209C0100J9341L8552L8979J8611l226j5421k4464l5549m0718l1073j0800O277R024l280k0039k6346j7104l349
123191g0485J814Q09N956J8408K4972J7078O99j5492k8838l4698k4445j796J1335K03j9046j7367Q443L1831L2601
123172e8018J9929J2281R520r47j8597k7141j7467Q15J4700K2418K5513J8091k336j9902j4023J0516K3701P408k1260
123153a4799l3613k4082q132M307J5283K3317K0818Q732k158p876j4817k3377k3761j4224p516r493o240J3868L6761
123134f7002L7532J2730j6494k9710k3403o115Q945Q600r181k7854k7083o215J6168K5630K4321J9912J4376P716L053
123115c4074K345K701M14n558j4550k3007k3082j0076Q603J9809J9933J5150P255q513k9030l9624l1190j1288P605
123096a46177K0762K5890J7193m165k2576k3848j3323o272m753K639J9973L7047M4875M5249M0641K6696K603j9768
123078D2686k7101k0502j0792q92J5526L6437M5199L1176Q906L139J5470J9903k816l8362n6482m6825k4330m643R489
123059d814J7624J4832K336p550n860J752M971K542m74j761j449L97K39o932j6239j4102Q41R874k37j4875j1674N010
123037b5549R743o756k6281l0169j8966j680J6269K8693K9388K4826K9973M2818M0112J0787k2336l0561j6460m618
123019D9233n256q336q559j2801k1266k2695j4562r984j5548j7899m165J6200K3479J3891N17o823r136p669M98J3319
122999d7562K0553J5065K145o000j821J2138K4651K2727L783j7401k1526p844L536k029j3691j1325M347J1860q12
122980i206k0110k6009j6068k413O485J0491R623L345k776q91N993M234j1873k8729k7686p288J5215K3430J6947O700
122960e0586J248J242L979P765J1084J1823J0340J0479J3412J2457P72j5300j8691k715J6945J9468M260j0383j2057
122941A5542o128j423K905R105J0534J867o529Q53J9835K6363O649k3381l7249k8692j2687j153P616J4244Q932j2668
122921e465l4133l3333j0727J0734J5227J0759J1543J6532J5644Q178J902j923r131j9238k4230k2683k3042k8576
122903a21962k9916j9128k560Q143J1260J3483J8521K5323L3026L8697L3585J2535j2880k1711q415P601L554j9681
122885c0525l8490l3304q655J4942K4304K3426K1304J7880Q077m782r367j734Q340J0933R112J1986J9636K2851J6067
122866H2001L822n416o733m06R413J7395K1013K0892J6529O549l936l784R052J9468J2950k962p626M097J6284J6366
122846B24968J0217P462N444k786j4836k4017l0557l7224l9177k9145j0089O580J3305R156n670k7719m4554m2814
122828c1456k3791k237J1567J9615K5002K4193J5248M012m678j3572k2434j9196N234L6618M6715K6696n39q742p7
122809H8178J429j7001m2616n5615m9884l1160n713J9971L5459L4102K2705J3303O222p614k6282l1963j3500J5877
122791d4102L2638K8649J4149O39q596j3420j3046q703l199K652P927P723j685j5061k2841k2535j8036r713M713
122772h1847J9935K5318J9778J3672J2918J2642J0674J4267K5008K8844J3314j2725k8533k6198j5405p723o505r418
122754H016j0713l353J1671K0873J3323k507q593k426P01q919k3125k9857k6807j6333J072K0817L1325K5511Q837
122735I513j0055k9010m5545m8543k7724J1042M7777O4572N5618K6318r868l6140m2011l0004j0972M707J0269M076
122717e5980o578r465k189K689m505j3632o973J5028L3235L5076K7424K1021J4383Q93j6377k6444k4017j4002l306
122698c3719N864J3228J5178O647j0730k5190k4379r258O080J0876Q896R693J5021K0691K5753K9661K4356K335k6998
122679F4005m1788l2667j3150j030O21j051j602N64Q340K0032K4716J3540p032k1593k2735j3716K190K3772M2909
122660D4325M5214K6051j32j3010p008N623J1130Q903P750J0980J1067J368j1987j6632j0781n454q369j4057j4513
122641G0468j1964j3468j8145j8801j3857q854o283k176N540J1825J0408Q57j1609j9503j5803J316K4062L9130L8886
122622F2029K6407R116q099k1447k5296j6589j067R906J0533O195O370J3434K0537K0072J1434r06j3990k7140l7130
122603D4369l7963k7896j3543l946j857k621l12O337J2827J3200P056J635L603R516R537O98r918j5876j7143j3034
122583c5331j79J6379K1077P742o790k606J4840K1234O486j4222k3698k1458j4608n004N676R582K360q153j2783
122564c9456j4657k1684k9820k5815o975J1871J5221N351n72R567K8516L6994K5595O079l498k336o439k2827l5136
122545g0021k3719O387K8312K2631m601l1719m0300k4348Q128L7409M3747K4853o08j2583j0783j0908k1438l2273
122527a11834k9959j7338r358j0467o351J5892M5939N8667M4013J8951O290R567J5396J4919J3062J6951K3836K4602
122509A22778J4833j367j6704k6645l0694k9949k4413j3135K505J6492K1143J3406k117j6291k1154j4606l071N76
122491h413j3289l9206n7123n0000k1670O796J9030J7065J1891P599J523m388k660P650J6342J4330N606J922Q233
122472g8762J7905K1330J5960P831M550O569O547o84r714j1314n899k577m276l187O083J8008K5032K5493J8043q7
122452E6851k1593k8576j5457r20k397r777l404J0696P811j5601l4072k9033j0047O516J8604K8200K9199J9315R518
122433A5833Q274Q122q7j0925j4241j0584n087L037J2106J0272q205k7125k4858j947K0940K7638J6961m727k6786
122414a1389l4681k1486K364K0773K8673K7753J5311p395k3886j8754j278N863p84l310P547K0277K3152J8021Q793
122395E5564o250k3202k8274j3533J2340L3064L5802J4387k3584n2119m6940j5075J1892J8121J8410K6797L2692
122378E0092K1931K714p618q336r871j2682r585k314Q51o44k017m805j1643j4265k558J6184K2180Q203j2256k2383
122358A178j7039o70J8413K9863K6581J1027q142k3630k9065j7956O633K6946K8081J7340J2522J4250P075j1809
122340I1598k4598j9540q089n307p770l604O358J1705R857O682L697k500r484r618k244M399N055K952J674n24n331
122319D5368r977j1725j1198q075O00J2967J8465Q509j0910k3692k1066j0018l799p940j6472j8689q603R507K3906
122300d2842K5837J7644Q470K862k301r831j7119k1031k2536k2771j8938q621N306J8360K9541L7749L7006K2617R95
122281D0397j3686j4112o393j156j973l834o96O645J0441N780p68Q67O398j729k7857m8531l8132k967K5625K9090
122261c6591J6262J688j0517j6436n804K2027M8472N4507M0817K0177o12k0173l2776l2782k5398k1918k5510k8958
122243e3525k3949p503J5706L1892K6353Q25k4388l3806l4000l7536l9669k6616r75J9127K5257K6223K8754K7182
122225h0648J7587P767M730L147m121j1397o064J4033L6459M6364L8209J7011o814k2818k4059r533J3542L0269K6677
122206I0341K735k5175l9186l6140k6016j7545j0767j678J1797K7959M0875M2996L2644J7527O488P6o033j1706j3164
122187H6028j0846q957q083n078K91N249R832J5910K0724J8494R329K00m124n893r191j4289j7687j4816m026R256
122167G2323J5492J1875N807L421J632j946l98R796J5653L092j9167k8717k1133j3873j6775j8802j1175m513j0225
122148g633j9298j5014J979J6193K0116K0604K3720K5606K1356J4155J0017P126l252k3272m0111l7731j7139L344
122130G66J1083J1754J2053L476k0667m2333l5636m512J9063J6709J411j0642k1318l2857l2541j3290P538J0022Q51
122111a19070J661J6704L0616L2939K7613K0873J4632J0610Q868L879p789j8984k0434j3205l751O444J5180J1857
122093A8643r236l3100l7756k1878m536L10n486j6237k7749l0205j3152J7366M0101M2234L1465K1835J8463J8985
122075A0067J9023J3029L7r591m449R063J1311l641j9731k3149k0365k2766k6165j8459K26J7377K3927K0553J1677
122056a2026K073l079k361r79l848q195q352n073m108p367j1003j1275p878k777O06j380q021j1819m692J2710K9833
122035f9011L4844K5099J0760O899J7919L0029K4809J711j9452k2192j3166j1858k4406l5654k7755j251K4225K7835
122017b0615N911k4843m1413l3154q177J6792L0950L4431L2588K8122J8872K848j4792k2564j3962K861J1251L183
121999H289j2707k0901j3617M559K2065K8336K0408N437m296j223J2239K7056L4322L0341J9004R217O768R123J1229
121980A95649J3488J7614J7209L253j9090l0598k1733p026o183j7347k1249r708K795o79j7707l1365l1191k1544
121962A4588j0530J469J7708L2972L3362J2553j5833l0092k5326j8077k1839k7227j7314K543O615j5656m0638l8179
121944a38901r399J7104K2555J5618J1991J3726J7071K5897M2166N1618L6468R94l0256m0693l4955k3898j2482o206
121926d1582j1871k3011k0775j936R026p255l2422l2189l980K0963K2355J3517J3383J8449J5943Q855J0385K0988
121908b1157K6622J8760M866k686j194J733r72p329j0056q068r174j8038k7335k8102k3421k1307j8532n710J2824
121889a38276K0840J4645Q926J2071J2441q27j8465k5814k4685k5311k5912j6872M20J4777K2272K7428K9815K4520
121871h8007J5925J6375K8085L8085L4541J8134m726k9043m7408m9701l3943j1658L012N521k66r089j5528j3783k713
121852a46187J0503J6210J1884M096J369N663J0834J0760R247J7416L7186N1945M2134R328k3292l5709k8749j5187
121834a0549k482R381J9268K3176K0512J6081J4465J5186J3619N104j0864k8009l5579k6633n414J4726K1772J3544
121816F7304k941j7972k4563k0836j1129m155n330r678o841L998J0034J750j0850q930R246K4359K1104O760j514Q03
121796B0619M458J885n664j3290j5882q004J0710K9186L1152J0868k0050m1927m1590k0860M559J6038P128j1406
121778d2070k3416k2456j3476m029K032N414J0447K0104K8584K4431O151j1529j4495o213J120O058J5965K9039L2709
121759D4370K1096K359j3321k2520k4147j7746r155p079j0028o365Q722K5700L3661L1220K0954M246j2987k0720
121741D8260j8494j8549k7217l3377k5129q528K129M818P636J2070J2800J1063J3468J7590J2856j381j1016o027N497
121722a531Q859K293k056N490J9218K2123L455k6556m2338k8183M240K9014L3837K6620J6826L624j3448k5004k2922
121703A3561j3119o304j117J1490K8808L4093J6934j3339l8591m8600m3140k6245n858O826O427q17o439j0780j7150
121684a13360k0292j2374J772Q762O701O768J1731R215n463j5884p784P455J0115L272N566J7657J9510L295j2792
121665g6130j1082L482J6933K5333K8655K0693L38j7527j8170p500j991l877j619Q168J5501J3857P568k9j1469k2496
121645c1362j7841R177L9592M3869J4956k1703l5045k0943k579L09o094l384J0082J6705O190r237j2525l466O621
121626a6678J2808J7423J9294J4937P786M368L146k037r211j0754p544q106j3232j4468r781p386j0605j2536j1247
121607e3823j5966k9309l5907k1275O546K6398K8971K0556P756p135j7013j0939J1441L5831M7948M5904L5367J9704
121589I5055M02j7296k5697k1702r761K355R462J1284J0657R959Q482K515j0891k8141l7610k8963o791J0187R762
121570a6732J740L782J4634J4828l876k4234k6806j5353p465q857j1092r129n547R41J5211L1037L1162R046j9006
121551b5716l0689k0115J811K2503L6045M1217L9043L2082K2207R430n720k0199k9507k9054j6441L024J4959P962
121533E2842j2190k7905l0144k4530j6036p94K0093L1194J9942l782j7799j3804k362M873O010L047l089j0009j4894
121514c9337j8467j9995j0941J4239M0759M2022J1610k4750l7424k4642q160m566j0730j3752o298P847J8150J7714
121496f6721J1481J1214K0485K9608K8212J6772J565j4553k9661l7016l0349j1966J0561L2033M7870N0896L9292
121479A09723K3847J6606J4612N566j1566k3671k2605j5978j5023k1016k7740k9631k3500j0003K662M033n071j1794
121461d0549q666l389m521n981L959K3232L6504L3846K0117O357k09J983Q653J0336J363r690o813J1463K4418J1518
121441A13931k0909m4127l8580j3747O383J0928Q765J1223J7306J8624J2348L477l044p343j2290j9663k8018l1977
121423a6713k5618j0291L065M165n144j4035j5569j1049l777M009Q490O864L230L849N997J533p091o955M210J0861
121403e9969L125n304K852J9997K2873O127j1962j7747j7888k1397k2259j0591R413K4067K7393K4953K4244K8065
121385B5992L4208L5830K5730N596j2870k1487k5314l1879l6093k6820o555P850O951M28J099N858J573j4465k9681
121366e4049l1503j9733j822J7171L5101M6861M4533K5345k680k5085l1753k3626r157M938J7535K7761K9728J7524
121348F7089m905k3968k8806k0321o226Q452K1952L0362K8134J4815j930j0983m926J4305L3755L6813J8139r702
121330A62049k9019l4374l1786k4517j0511N655J0847j84j5193j8715r740J600Q598J1046R204M439K677P273J0641
121311E9990L258r869j3499m773M84r948k5874k6833p285J8882L5470L6898K5730O962j2599k6043l1913l4685l6879
121292e2526l4596k5013j4417j2187j7689k0710j6356j1600j2330j1465J181K1464L3684L0073J7398L586j0793k3671
121274a55967k5717j2361N711J3542R375L445L383Q804J6440K1282J4944o258l0531l7100j7670J2975K9866J9593
121256a26244q593k9140k1216R781L4508L1077J1110M218J8733L2154K3176j256j8577j8179n654J1375K7507L3293
121238H073J9942n907k2181j3228J2169K9533K3909K927j4065j5451m461Q968J7734J8742J0588m942k0886k9152
121220B2312k6975j8228r854q107j4091j9799j3479N556K1870K1119Q705K133P169J2690R708L538L069Q030J2497
121201B7863J3154Q520k606j5844k0730j2449M85N908R94q993j9058k5201k2569j1238n62O20l344J29J4414K8191
121181d2316K8780J5695q96j1322j3445j0758o331j57P537J2896J1708N079k007p101j0891j2581j1021r957j3818
121162g0906j7470r996Q241K2988K5817K5302L0176L2343J9155m822k2265k5348k0541j4057o380n95j847o031j657
121143c7893J2759K4189K2774J3972P533M308J560K374R213J3561L635j8264l5735l7205k7600j8632j4184j0134m297
121124h8066J26Q43Q50M316J0898J5858J3717R60k0617m0344m3386k5408k79J3517J2664Q184P065N536J690K583
121104a19293J2568K4047K7471K3392J7378R985j8q168q429n95J2660K9612M3337M0426J7142r844k1597k0663k3495
121085D5916l3786l9292l3694k4774j8498r868N350K1414K9840K6747J1501j0857k4504j3704J6344M1052M3286K7848
121067F0321O586j5774l4225l7511k1921j173Q829Q158P167J0756J7014K3257K4412J4355j583n192J1089K8295K3555
121048A26415K104r801p47J3824J5717M353j0173k0943k5464k2954j6535j2001j0238n416O802K2896L4066L2268
121030A24173J5683p491k3748k8394l0584l7154l7741j8092J5188L7736L5786J7996j867j8762k8948k5308r788K134
121012a9181L86n747k989N931R808Q261Q954J0839O341r45K657J8280K7300J4619j0271k4130j6385K643J5777J4262
120992F6410J305j2732j8320j4211p374l597l79O640J2530N778j5594l6479l8607k0126K907J3719R528o75p970r943
120972f7190p940k834M500J0358R309M84q313o651O223J8104J6558L109r968j5419j6702j7072j1676L580K1132K7877
120952d2531K0341P046l461j0080j3993j3001m888P013J5419J5796J0327N473N237O330J832r182j8862k0104j4769
120933e6057q083K62J1600J8431J0221r970k5076k3631j1013J811J0612J3977Q801k77L318K8505N6903N7976K5310
120914A13620j3946k9244j6706M549J6433J5144O465l325j1364j7166j9812j7592j2379j1814k1510l5267l9570k9693
120896a23177j4877m619K990J3135K0640J4345n220k1227j7714K689K2014K6156J7427Q564Q324J5454K3728K7325
120878A5957K1805P247o257m178J4113K8904K2345K417q400n541o157j8181k5493j4226L142N996m041r092l637J999
120858A8722K958N507J1404J4111J2277J0797O537r430l1395l9436k7675j4666j5799k2210j9454j0811n516K414
120840a11665K3073M6691N2032L6054J6499N359l011j5853k9974l9468m2289l5698j7419M899J6625J2909L031m238
120822h2443q415p661M662K6213L9978L2736J2141l581p024m148o94L490P539N810n753k2554l2828k7072p377J3411
120802f3570K3886K3365J6169K208j8392l5004l3537j5322K313P320M642L801O378J0412J5663J8599J3575N101O161
120783f232J6379J6655k023j8385p223K3684M2611L4889J5204J57j1150k4259l3477k8310p990J6507L1189K9212
120765H7438J7252J0144J3506J5866N684j0410j8030j7174j8032j9218j0101N302Q732k827r393J024J3940J4239
120747H7942J1433K0493L2239K5746K633j4342j5194j3603k0774k8206k4919j6457j4761j8620j6926p395n25m178
120729a5414j2860j5871j0819m020K69N084J3564K1260K0044Q446n926j4297j4420j1022j1352j9123k9512l1749
120711a27718k0793m476N735Q319R513J1182J0645J0430J5590K0720J4092j334o455O327J8745J2510k779l653J3301
120692a0099K8879K8801J6839R14j7333l5096m3610l7433k1146l306J0119J5302J1410M106J135K182q21j1734k4086
120673h4977k7779j7185N704K9669L8438K5815N450l953j347J96k664M51J1751J7606J0411J673K239M204l217j2239
120653B46q576K934L877r338k0483j7809p568mM449R796J6181K2196K6949K6186J5533J477j547Q554J4445J860j9245
120632G0113k7883k0839j4143j6822j8353p569Q330J4023Q362M181P415Q849Q34q051m281R579J6063N459j2003k0183
120612C081j5784p533k537j312l776j1961k5393l8986m6643m3437k5324O542L9488N4253M2156J4957o609j2779r890
120593i1487p901q472p061k398Q32j124n084m890m32J442k608m517O889K9321M4649L7304J2413r126j3121n168j55
120572c0694l698q880r758j1132k0309l2516l2045j0709J9755L9027M0134L4329L3969L7032L2417J5888n259k1593
120554F5958k9249k8103j9212p484j477m452q328k724J0697J9344J5600M958m049j0787j8342k4169k2203j1588L028
120535g2582J7642K9228L2952K6889J7410J1290M585r499k2872j7940N200K2633J7084P71m929r95m877k0368l2637
120516a015l1816k3545j4141k094J0595J3781L929p604q788m54J0212J9570K4131J8247M778j401Q036J9693J3731
120497E5845j0530l5333m6090m0485k0798P307K8758K8081R789k550N267K0106J9875K250j4523j5372l158R891J6903
120478A5233J9095J8754J4645M721r059k0386k3583j8498j0276m809m817r761j8349k9927m2185m8276m0680k1445
120460b29603m949l449j0967j0095L876J6008J4184Q228J6104L7502N3756N2284L9267K7123K0544J8654K1564K7763
120442I7794L0107K1382L540j2405j6773j1239p547j4192k4831k4939j1474J820L628O22M179R557K998j3785k2804
120423A5638j4893j80R994J5927J8067Q900j1777k5949j6973O259J8524Q684j0305j9762j3143L389J8499K2665J5245
120404D8809O226O439J6161K6816L1132K6759J3808l563j5541j5140q200p462j6170k4566k3569j4717m166O376J7918
120385F7350K7241K7149J4244n336j9176j8668o374P585J5678J6347Q491r476l0976l9459k4622K153J7291J0295o913
120366E2824j6201j2276l901j200m976p213j553O919O206n702j3770k824K1079L4485K2366o311k9987l5644k6579
120347b4258j4179n901p86M622Q144M333m233n779M819J5785J3101N47o300l695m191j5629k8212k8301j5964k132
120327a08209N285N866J912l808o856k809Q411K0460K3596J2769m759j3498o066Q038J5881J8301K4150L1009K5343
120308E5016L345k0986l2884l1526k3771j3934n387k056j301N523J8201K2166O606j9281l7099l9743l2054j7792K413
120289a64544K3167L5591L6730L0842K2421J3827P650N086L815K189K126L403R29o202j0010o654o388j7998k9380
120270e3400k0115P630K7406K1360N08j3131j1930k781O808J2977J3189R133P201Q845N789p364k1101k1217p845N507
120250c2531J0255R394O053k196j3043j4830j771J3275J2828j061q409J953J8707K5553K1419J4377M584j2829l0976
120231B0752l2803j3330J1548K4886K7762L0311L1789K1704j089k1660k5126j3706l880q465k3579l3213k6551r366
120213d4016M154R575J5833K8857L9084L1887O429k2901m1836m6805m1658l0920j7818m504P742J7392K2640K3940
120195d2925K4380K5533K5892K4972K3949J9436L951k0925l8683l5034j6959m538o507j4838k1147k4540k1784m868
120177a04635K4103M6798M7416L1140J5397P841J802r416k2606k9264k4252r554O381J3534R045J024o68K526q08
120158E804j5422k9176k5344m309J3558J0236q855k1608j5307J039J1183J0895Q466J1907K1285L0070K9021J2756
120140D6199j1789k7726k5926j6847j7042k7437l4010k7395j1630M950J6157J5620J006j6834k1214j0108K418R198
120122a52410J9826L9263N1456L9076J0008j2441k0569k6246l4869l3392j0970K0979L8777L1220Q220j1403j5968
120105e9443p708K061N317N609J1553K2427K6351J5896m23q246n156p20k13K027J0013J6224J2119K477j725k086
120085D6354j0932k8210l5217k0736p33L369k042Q475L8213N7889M4776J3905m316m719p147k1958l5850l4112k0539
120066a3530q479l827n033j0857j7796j5260M567L1867M4310L1348O706q611j0479j1450j9365k6545k3086j2040m165
120047g1725k513m53O715J5919K2184K3624J9461R659j173n143nP017P530J588l169j13R781J8133J6332N181l855
120026G4975j144Q979J4224J1224Q721J3323K0344K1201J2550m570k6788m5759n1200m2145k9563k3590k3609k3997
120008h6824k1929j5313j861J3343J7763O807p961j4258j5242k0310k6602k2312n485J2252K0310J8691J3767J2206
119990a22958J7723K7064L1385K7128K0679J5909N504j4374k9385k2888j449J3099J4585J5982K2004K0730Q748K354
119972E1840J0638J5889j343k9999m0667k3980P26J2427P839n865k1315k9043j8815P817L2895L8411K5193R921N062
119953D7631P436P271K788Q90N160R494O442k413q885q605m246n2J659k54m275m821J325P806N584k376k368J0819
119931G6010K4315K2145L350j9664l4132l2499j2571J8032M0912M0541J9931l285j6435k1579k5728k8681k4955j4207
119913A1500l907l53j90N155J6665K4290J9398O342l772p038p232n751j666n07r654k2156j9534J327J6860M851k4066
119892E62l6200j2933L1227O5615O9244M3327Q960q819l734N725k14j7603k6997k1827j4444j4882j8528j7888j3341
119873A7250p301R10Q874J0095N224M792J4445K6245L0825K8774K2783R215j1507k4897j7075M179J6093P740j0763
119854A35901k4997l0396k8235j9149n970M784R706J1945J4223J3400N842n800j5030j7748j3487m378L346L38j7267
119835A7028l9839m9065l4002k916K2246K5727J3296N007J0986J9455J4500K47m404N268J0812k504k2253k5360j0599
119816d6370J028k655r103q93K0263L7082L6924K1194p5j5527j7859r073N37L329K205L219L984l192j7870k9145
119796b1997k8086j6158N21J8597L5108M2931L4750J0990j8813m1449m5925k8522K758K9882L6373K0007o193k5244
119778d70k8141j7575m073J503m161j3590j4593k463J3533J7802M201j6172k4911j5112J238O654k025j0705n853Q386
119758a06527J4511J886k1062l5471l0127r872J1229K2230K2020J7253J4832J4735R617n882k4010k6207k365L3240
119740i9970N2277M1355J5248j842j604P767J8826L0494L7875L0448O329k0533l4438l3675k6758j9274j1574m424
119722a3473J497Q414J5864J5686J929j6628k4881k1527j8295j7802p499J7021L7229L4048J5751O873J3239J6316
119704F3762M675o772J205K3269L5906K6865N479j4148k7351l3975l0801j6589P39R539O091l281r934q895M65J3366
119684C9615J9121Q772j2470k5076j4106J2157K8026J6943j1151l0788k6052k466K2028L2481K5447R336j712O0O880
119665I7045K923j5370l1415k7269p025O761j23j8211k7948k1473o803L907M665k318r108p767K055J1856J3460P838
119645b4320J879j112l090m925l868J572P890R450L653o856j6120j9928j9904k0453k0667j3721K059J6208J6629M668
119625i0956o833q846k867N743J2478J1858P14j3988j8978r917M431J6055K6096L4014K9072M079k7677m1545k7688J6
119605a04739K1086K6881K1615J3061O068J123m017j0639j7129k1544k3464k0808q860J2199L1875L8507L2639K4205
119587A8059J7286O207j1357k6059k6765j3640L110J3684J4542Q274K301M241J3209J7446N884j7562l4650k9016j368
119568c6174L0151M4018L2496P608j0714j3641q890p215q699o557j81L167j96l924J1R939J5056O866j1363k6502
119548A5256k7030j3765O42L478p142k2677l2034k7011n111K5885M7738M5390K3835M672K022Q528R806M677K031L767
119528F2957L573J264M954J5979K3287J8283N682o586j8501l0584l4532k3096l744R889J6317K3013K7791J9293k262
119509A12977k0635k5363k3895k4430k1018p547N463M016o469q452N91N363k328j2881j7679k2217l1014l2978j6307
119490a44803Q954J8480L513j8140k2704l592K7404N2959N9971M4011J2301j8480l2212k3324J351K7320L9641L2340
119472F4990J4650L257L795M796m395j6046j4923l255k65j4155k9264k9556k2477k6083m0145m5831l2320r145R825
119453a86547K1843L0633L6773L8623L5759K7338J3391m1n077l824o100j1885q360Q103K0053J1885n146o946R620
119434B0095K4119K2810J4028R453O078l873j6341k0839j7086j4948j8534j9978j2253j571m66r907j5428n158J3251
119415d6548K1416J4398N775O188Q365J532r208j0650l061L63n396j0414o610N67J682m266j0957j1077L06J9830
119395c7765L1531J9923p730k3903j3402P184J2975M194J365J1942J8953O087j8874l3396k6262p373N367L238q234
119376e4180j6522j2858J340J5687J8779Q078o429j1010l021N523K396j0015j9544k0444j6375q811O184K6351L9085
119357e5786L5875K3412J3241P058J85o508q310o735p582j0453j0033p553j0948k1733l0741l0032k1126p821J0592
119338a44998L2139M5070L7938J5630l053n550K548P975O400L433K481p41r735j9243k0700j3059k997M690J1331
119319e0441J8161K1251J5822K703j1963k1000j8855m236J6132K9032K4845O497j3388k3396k0629j0238q57J337k400
119300d1623m536O50J0527J7153J5888R731N843P952J1060N229j1327k4265j5921J1186L1498K3523n317k7993k8223
119281h965j3655j333O17m144p737n148J959O757N720N150J4249L1215M2074L5575J4768q296k4538l1419k9381k0352
119261C116q839j86L204K448n25m416p385o615r55O074P911J884n541l606J0369K5078K4729N057k1337l5983l0744
119240c6262j3847k79L984O943J8229L4363M1472L2543J5673L164j039M08N497J1828J3363N967o221j6357k3918
119221I5511l1357l4850k7310r787Q510K1394K8521K7417J3518q141k1184j4921K422J3502J0944J460n520p178o292
119202E6659n703m861q37P105J4615J6492J3169R404O767K174n896j5409k5666l7106m4029l6324j4359N365Q289R01
119182d9250J656J4596K3055J2320j0612k6117k5673j9623k1965l2714l7275k1904J0997M2575N2976L8664J5077K082
119164c1135P053K2064L4833L8525L1477J3914r706k8381l1919k1619q737j774l56j539m083m095L966J5976J6895J38
119144D1497j9141k1941j1370o574j3040j5625m607P251L222j2351j9164o792J3773K3855J7324P055J1850L4565
119126B9787N4718M9133J9358r991k0965j9532j9963k4478k6377k3130j6279n785N521Q376j310j2724j2756l928J559
119107b8766J451M140J1649J5727J2177O770L793l96p867j2503q686m57L166j717j1074j6605j1210M550K0429K5358
119087I929J8701Q539N35n228q101o338l095m473j0349j4931j6430j6882j2464L705K6193L7690L0327J4821K417q646
119067D5920j9734j9775j863J8697K0877O985k138K171Q222N881j893j2412k9397m8018n0677l0321n940l61j0037
119048a23813j1652M946K5031L0453J9750L248j0858j8493j5173J004K2835L7043L5836K2940P945k474o768n197J864
119029A8467J2198K1274K5081K2165J2259m221k2852l4163l1382j9738j3238j9768l2356l7307k8215r732Q820J9508
119011a13200J8291P880j182K263J8325L4160L6812K6954J7056J6500K1777K2582J4684L185n983j2871j9487k3088
118993F4658j9062r826n036j0471k0289k3362j5382k591M635K40j2760k3416k1232o498R560J7366J8542J9330J8720
118974a6874J0384n248j9016k4191k2395j6396n084R732J9018J6890J1121J4432K6430L2514K2417K788j1818j4895
118956B9809j0405l753K744O471L980l137o940k950J410n300k1890l2597k5219n918R248J3744J5021K1895L4434
118937B0647M5653M6133K7497r629m8577o6225n4916k9164p340N684J3134J3981O613j770k340Q75l995j6553k0972
118918h1264p015J5098K6672K1571J0023N370J1323J9972J9787P686o019q380k59L030r902l1851m4415l7156j6222
118899a01951L775J2845J1113M298l577j1134j4627q122P532K1620K6476K8955L9321N1792M8940K6602J126j2433
118881A32551j6774k0190k0321j0878M138J4766J8091J6340P595r598k5903k8088j5388J630J6792L0572L7111K4142
118863A56588q349m0448n0725l5823p808J9181L3786K8857R146o883m071J1019J7418O031r974j4131p871n439j1895
118844G8609j6223q540M429Q297Q67o722q148j0145j8100k3968j8103o321l102j0698j7488j6867j4384j2767l742
118825a03116J6529L4372L3410J7528O917J1934K1417J9102L139j4875k4511k4747k0216j4454p857p8P428J1937
118807b6141J1703O327m403j8771k9397k6349q838R348J3073M680K634J8798M2954N4457M4815K3222L314q498j3151
118788I9777j5702k3073l7235m8139m1341j7162N793J3059J2094J7341K5051J9185M96r675r76Q242k340k3275k7319
118769d5199o942J7416K5722J9175R972M243J318j89k642q971j6446j6893p833K914Q745J3303K1066K5716J7956J553
118749F3984r191p970k433M27M722J5406K5584K3778J0741j373p177j4507k7557l3776j9263P639K2485J5672L093K35
118729G0519l00j3395l3843m0977k7660q533J478K014k668j3083k5556k6257o760K0801L5539L1995K2824J8892J6664
118710B1694P725o526j5030j0292K279J0131Q154M032O139J0082M536j0906k3537k5535k3792k5449k2893l943K6821
118691f6310M7642M1689J3800j5196k6845j8420k002R127J3696J9559K8029K8319J1580j5795l7945m3187k8128K618
118673c7769L2656L8965J3939k1976m1354l9651l1738k4058q313J6333L3876L2071J8498P487K054k162n149n311o821
118654b8423j3721k1297k2336j7588j1372j121J8482M2628N7238N3312L3961Q109j5457k8337k5800j2876j435K006
118636A5973J507K985N259L694j020l362k234m249j4109k4563k2753q465J429n903j8698j3339J2136L1379K3612J874
118616a8847n079Q903K2988K1109J0876N865L558p520k5597l3200j7745J3002L8924M6917L9088K4501Q744n598j3307
118597A17582r887j544k978j9842m0061m9668n0524n2244n2297l9048j3977N330R062P551J2090J7114J3274P097
118579a42970J1917K5164L0828K2773J0509J389p364j5048j1365O930K4939K6939J7804J4646K0823K1519O702j3009
118561E3126j9283p961R009J9883K3702K4214K0560R552n379j4098j0994k339J006m209j2666j9537k4631k7169k2974
118542a0188j0829K042N700j845j2303j5138o762O617J3825Q516l313p700J840J4641J3738k512j5189o482J5977
118523i365K4511M456k5258l3176j4102N307K743j0921r312J2787L5847M4495M2386L6872K6811J2801L879L321L12
118504A54394j2203k3228k1369j5493j9146k3150p637K0528K8774M237k4891k6734o313P971N128j063J121P412J1176
118485E9514J4238J8485J7909O773r385j6728o601J5025L0469K4529r30k7326l6980k8666j3342R85J3883K4809K9592
118466A16253K5865J5749J218j7197l4452l9445k5479p91J6204J3988j179j2516j0192J78P028P316O839P483K370
118447G9240j1961k5132k3056o719O930M052j1811k6276l0080k5099j7307q278M666K0707L1077K6108P251j2176
118429a7864k0392j7766j1517m412O401K2003L7621M4529L4233O295k4012l3651j6440N740O890j2054k8187k8575
118411e1158k0608j0868N737K7792L7561K4608N932M293J4789J2983o765k2380j7320l753k863j5896k7132k6692
118393g1740j7187k894J4015K6901K6232J1034q878k4450l3929l6055k6074m375J8473L2929M0850M6322M2480K0910
118375E4564p849j9276n753J0938P516j0283j7092j920K0446L0602K4863J2087k40j1402k3057l2951l3039j7034P286
118356a1594J9400P877j3299k0629j0310J127M162P829J9435K8884K3572P575n501j0550j0958p861j356L041J331M56
118336C2631Q566J9098J7982N731j934K464P629J587j1135j7857j5183j0298r530j2045j2273n164P913J6937J2354
118317C7473j625r960o516k563q979j8194j4528J959J4141J0526j676r224r240p353o599o185q108j6426k8447l2926
118297a24450k1580l16J5446J7450J3608J7923L2954M5555M0692J7121j1916l1113l4351k5964j4784p456n057m665
118279h0903m211m708o452n059M776K0721L1599K7755J1834k520k956J0600K5700K7725J2756q060j8714j4767q089
118260A7027j2882k8893m2065m0591k5293l844J8677L9363N2637N3016M2229K7789J3337m394k6159m2598m2005k4819
118242b9468m736O327R886J4192J9809J8654P520m346n451M231J4544J7424J2820M779j892j933N609J1570L319j9256
118222H3602m0525m5610l4578j7166r88R898J2820J1192J4586K4380K5386M250k7298m1598k7505q13J8574K6283
118204e110K7254K4220J9431J6252J1438l863k7636m2347l6514k1222j3690j3438q559J618O867N726P055J0851M691
118185c6976j4570k9734k3508q37J8045K1088J2837L825L18L120R086J2464R239K134r69M588J3843J5684M413j1850
118165A2240j7062m528J3369J6975J118j9076k5805j8341j1503j5786k3775j9791j215J5909J6363N863L382J4471
118147e7192K3054J4221m421j2859m818N332j94k4897n4750o7075m7482o039K7456L3041K1670J7308K3741K4182
118129h9722J1959K780J0459K5860L0505K1111R830O188Q639J0893R131M288J180K976M782j957j6061k4320j7056n2
118109A1413J3782J8529J5642O671o740j9117k4533k2703j7838j3348r930n463M422K0302L2583K9327J3294J958N877
118090E4128J6476K0711J6889Q376n748k2195k7292j4855j579p092k4288k8535j3895l58l365j4997k0732j8335j2616
118071i9302n275J409J878l776p349n327m262o839l643J2039L0679L8103L3055K2963R819o983j8435j1406J2622
118052a0030L5459M1889L3538K0668P994n824j9223k5499k0919j1463p510j1807j7106j8166k0363k9072l4815k1219
118034a13468J0658L8359M4299L5755L0412L1025K5874R477r278j8972j6832p872K53J821j747k118N632J5344J8084
118015I6706J4552J1805J0772O247k286r549j3780j7408j8472j2233k876j445q007q500L028J0734k225k6490l4462
117996c889j4000J8123L7745L7500K5668J0579n148j8599k3863j8564r758q948j9608l1496l1027j7740n774n506q771
117977i3076n4J9644L0926K2000O248M169J3945J3376q642l5745m4561l1106q950R840K0503J8410J030k2271l4750
117958a19064l0174j7321m992O702J7123K0095J5346J3520J9917K3131J1881n013r536K53J0684J4602J6889J9026
117940C069J5485Q110P556J4739J6129N240n301k818P148J3010J5662K0546K0843O219j6305k7780k3459j7614j9939
117921D0540k1914j2049P421K6059L7565L8806K5050l496l4229n0586m7646l3716j7833k082J3694K6335L1762K9867
117903E3548K4153J7902J2317P223J915l976q633p551K572J8414L0651L2343K5758J8693J5180J2704P685p25j2517
117884B47656k7028l8987l9614k6416q753J191O94m322r012j1900r369K837J9786K6737J4866n504j3813j660J7817
117865A35206K4117J0447j0870k1857j5244J781J6590K1558J7318R016R21o087j2325j5528j1770j495Q393J1606R212
117846A70989N156j611j3417k4080k2378p436Q203J4685J5737J8236J9088J0877m260j4389r760R099L1617M2270
117828B48626L2101J0170l531k014O94p288j5843q620J1202K7042L3830L8161L7621K1488n810k1822j3585P082K1769
117809D11273K5176K1269J4326J1272J9957L6900M7865M7381M6256N3257O2207O4767O2656N8227M6574K8002J5475
117792A072840J7415K4491K5544K4533K8292K9855J9890L986p995j9495l5938m6097l6621j8464j5292k7742l1768
117775A007434j3381J5424L7540M8326M9508M3867L9824M5022N2341M8748L9451M4016O4953Q0940P8608P1646P8972
117758A833239J01369J29543J58815J85898K07740K33735K81383L47550M02796M30064M51079M94757N54901O03010
117744F415879O32147O63070P13355P86778Q92385J046616J245842J451192J608098J674227J633186J498958J306747
117731B1568480J076461P75198L36808k58395r25354j510443j892874k053201k053567j966292j826239j640394
117719I630188j423384j209421j030468q93481p83372o81560n77483m70405l68825k84821k22341j73989j33845
117706A376793j07103r9488j02941j01876r0646p5793o3664n4797m8328m2781l4384k3054j7557k4990l7377l9487
117690D12527k8578j5267n367O522K3216L6327L6384K3916P596k169K381J9891L7010M0914L5532L5693M4317M6585
117672G57430K9600l044l9820p3083r6893j03951r3243p4407n7959m5637l3972k1200p710M019P794j31j2024j5596
117654A20173j1752j2969k0464j8121K561K5683L1208K0355P487l068j5663k5710k1782m432J2201J9067J9836J8649
117636A43259J2694Q09j1134j8788k5552l4475l9625l2258j3818K577N440k171n858K943J6578K2074J8731J6465
117618E7891J8016J4542J764j1671j7974k0630k3166j9727p997J12m789j1724n382P455P339n642j0675J537J6033
117599a4688J8126J2068P567M731K197N617J6054K1706J3609M36m413k518m719j2305j7421j8159j9097j8241p640
117580a7090J0321J9985J2390o23r08J1813J9455R643p983j4356m822P606J1535R422P164K392o996j1298p97J4243
117560G1096J2517p396k1727j4070K120M556o929j5377j4715j5796k5617l5409l3575k0860p352P06O796J7632L2164
117541g1236L8927K8517Q928Q26J3309L1666L6107K5773J4777R783M079p091j7364j8817j2478n618l467n822p807
117522F2992l432P725J7755J8597J1623M240q58o158j0528q656p73M291j046j4368k5582k4693q691J3934K7134K2118
117502H5624P022m830j3038k6190m1563m3236k4591n8J3129J4897J5517J7296J4223N567j140r93J952J030m439q832
117482G347p457l120l259q897j0739k140Q149N897p805j7644j5982r802l831O056J6130J0673j1770k4640n041L1782
117462d6093N0700M2004K6229J7468O999j2658l0519l4127k6932j7664n758J0508K1706J6675mj0638m023J3005K2832
117443C9710J4180n180j3600P78K3033K7586J0543o864r019m142m833o657M96J1905J5016J0058P647R672P543j783
117423A26089j1879j9061k5840l0653k6136j0862O558J7737K0364J2918n301k5182l0363j6573l80j53j3726k3518
117405e5961j9845r217l62P181J5801J9205Q759j0878k2355j6226l048K623L501J2087K5735K7260J4321Q326K2107
117386B9014L6254K6640K175r000l105j848j0642p164J8285L9555L0351J569j8547k4436k8431k8542j1026J7508
117368E8610K9528J4393o130r762k347k646j3353k2037k1752j6425r962k292M920P478M041l139j1543j7884j7186
117349c7488q537k60k892j6427k8655k6698p946J8523L8161M0762K8611J3643L305p598k5519m2616m2303k1311L343
117330a21902J3722J0218O016Q322J2842J3967J2334J1323J1589J1188Q556M339J809M475J1082J4551R421o82p098
117311C6072o852m879o075j0592j6996k3449k3981j1635R947K4946K2717J2090R747J7213J9591P938p343j0464n47
117292C7448R003P685k541j4047k2853k8452k9112k2813j2611o168p253j0460p964L68Q226J2897J7183K0126J4321
117273c7017k103j7404j8322o743L676N707N281J0243K0061K7929K7482J6581n09j4614j9747j8305j3797l311J4318
117254b0594K8241K6950J7360J6013K0983J2570j1912k6156j2184Q815M070k4076m2493l2916j0188N074R594Q139O26
117235b2084j1579k0106k0159j6590j1870J484K6645M9228N0198K8949M257o593l047L345K907m256j1644j5600j8241
117216E244j9527j2317O307K2249J6239r409k8960k4291o091M081J692k092n34M181J1234K1198K7228K0054L086r147
117196C0425r650n490l553j298L773O045N53p622j0278p012k391L073J1207J8326J7145O620n797j2243j0347j318
117176B0168J2727K7474L5865L2053J6395l394j6245j5137k726J0918J7551J6601J1283K343j0767k4959l4547l6704
117158E8899l1915k0189k698J2489J3595j576j9771k4672j3073M320J5238J4919N921m798q840j846J1784K1882K0881
117139E0550Q734p609j6904j0271Q439K1797J6692J785k432Q864J9064J4709K206p587j7749l4566m8636m4943k7831
117120f5688j6939j6989j0698J1584L2495L0626J0932k936o86N415K515n601p489q76O180P074L977L481P633J0845
117100D855O402m908j5022j7752j4227q027K19R729J5395J2938O041J916P36l349r579p172J0153L1340L7190K2069
117080G8947N90r031l960M148N900M028N300P887K795j2165k5772k5232j2736m317r784j8640j2591Q758K3864J6195
117060B4184k442o308J0174K6891K7986K0876J7250J1418n752k2623j8660K497J4028L034j3864j8383j3673q670R45
117041D8908J8683K9138J6072q853j7481l600J0526Q154j074j838J728n345k3814l7311l3182j6676k002N114J0707
117022b146J9336K4318J7457N028K740J2518J6763L513j4188j6268m022M614K209k955o189j2108j9421j7951o149
117003G099M188P301J2635K6045L5774K8443Q503r908k2346l3884m5787n3269n2882m3950k6908p077N526P837R540
116984a43120J9268L0718L1113J8265O28j4233k1986j8196m059P887N057r829k3450k8449k5335j2554J1499L7053
116966a39723M7259L6950J7461J492p260q896l678L134L296l035o472k661J488Q4k255Q27O841R785J0846J6593K8769
116945A0845M0663M2523K9051M510j8424k8223k3770j1586L274J7048K1340R001j2600k5327k1457j1622p774r059
116927H413j0467j3974k1474k5208j6521P80J5299K2170K3994K2137J6108Q535K402l926j1303j3089k549J5406K8284
116908D5017L0187K4348J4181Q18j1562j6750j3441n265M814J4301J8449J5120R338N769J376n761p422J246N231
116889A29994j3973m6148n8014l6829q329n11p632n845R096J9219J3291M79m502L196J8317L0424K9266J4306j280
116870H4525l810M807J1608J0530O064M61j0836k8405m2888m4102l0328o922J7312L0919K5745O769r972j3502p149
116851H26Q94R125J9273K7161K4788R859j2110l3359m6442m3561k1295J1524L5648L5915J4303j2129k5707k0903n546
116832c1736P697J0831M202o147j3727j5554j2417n935L395J3646J8568J1874l708j6023j5841o880K79J309J60L37
116812e5670P74L59M40J902M762J0668J9500K2957J0089j6514l7029l3589r575J5123K4130J4965n263k5649l4386
116793i2006k5159l917J5230K2980K1145J6741J4662J6521K0834K2023J4551J710m452K822J4245J4249P27j1342p683
116774E3881R236K4849K8762K1924J0510j312j1955k0185k4201k1350r364Q769K1953J8938J789j3098j1427M707
116756I2426K2260L2788L6733L4995K4460M335j8003l1233k9663j8117p876o404r754p352M327J6756K0667J6805
116738A78150J0175Mj5366k8544l0291k4760k3750k5557j5662O681J9594P467j4983k2424j3000n441p757q142J746
116719a1860J2482J3173Q882J1289J9396K0639R603l303m647N076J1845N338q364j4505p306N904J6800K3545K4596
116700A38583J5933J014o556m40O154k299k0619l1554l2537l5873m2946l8849j9108k925o789j8380j2410J4282L8202
116681e7117L7783J5250r806j9683j0874N462J3303O000q103j5374j0048L309J5800J9680J3312M651M218J0023O837
116662B4623j2199l0813k7910n852J2563J3582M911k375r119j8668k4752j9171m522J0203K1963L2908M1257M2333
116644D8962L6766K8969J8541K354j4671k1310j5906j0587j3253j4186q34J9424K4464N905j9314l0280k5234j6490
116626C320j0314k830P042J1846N454q462k0464k2994j2622Q612L0329L7813K5099K436j3629j6745j4295j5807k1461
116607b7672k2154q881J7781M5907O0721N6297L8751J8072O9j2294j4771n602P538J1074r67k0408l4417l8506l6861
116588C3677l2518k2985o653J1188K2366K4121K0251J5318J0990P453M431L60n589r845p150J202O224J368r788j8580
116568D5841k0092j4480n184K66n323j6953j7299J793K3724K5893R939k203j262j047j1114j8210p533J1298J5899
116549A3953J831j3841j6904j0262l350J032N883J3051K0002K0220P761j4265l1963l3442k1988j0707n589j335O138
116530g3775J1385P501k365o160M930K6798M4545M5010K8161N721j0813j7994j7576j2476p759q794j3990j4999q622
116511b1272k194j838k711J189M737j22q745q704J496J0214R715N176M735Q810J1370O309p012j9279j5831N980K7718
116490I741K8923J2380j723m195l723n480j638J0592J8831J4201O698R339J7303J6587O391j247r10J19m744j2207
116470A15238j5507j3170q869o020l796K046J2743K1174J7881L700r769j4734j5087j6195j5369r180k776l183p787
116451C1340p606J003J4036K4992K6546J2898j1705l2171l8520l7089l7024l3341j6941M490J3382R171R228J9038
116433d8273K0941L378j5116q136K1101M2543L7605J8431O255N002M498q7l973n014q906j9081k8565k7509j5571j867
116413b2344N826P033M755J668J448Q151K0374K9244K6229J1513p275k1798k5915j6121M806K5441L2602K2750M695
116394A13082r414j3941j1400p448n919p687j2976k2928l6778m7993m7205l1693r892O235J2539J4533J8755K4184
116376g5946K3253J1920j875l815R690K4338K4655J4716J2006K0549K2703L306k8492n0035n0718l8576k7235k4285
116358a33841k7335k4178l159K8648M5752L4211J3292J1649K7443L1995J2671r954j4823r861j4552k7950l2600k3413
116340a16005j3794j3028j3513n596O875J4374J7855K6565M0719M6249L1665M720j4797j7038r968n471o223r007
116322c5418j1588r716L845K6994M1337L0743M260j3083j2135p807j2439j6540n173J7587L2346K7349Q469j0480
116304E8551j9516j6821q406l298m922p857n177L547J3053J7596J3825L879k592L617J7574K2042Q506j0868j9204
116285F3529j5251q336k16J3944K8467K6592K303k7464l9725k9389j0987n89j430n648m784K614J1201J4187Q357m144
116265B3231j6751k2171j8486j1441o588J10J6140L4851L4739N819l0400m0476j7450J2428K2673J3937L827J623L719
116246I334O884J2324J6312Q619j3447l5552l8690k0566J493J0831R431J0485J6577J4641m218k7822l4196j7515M967
116227g0108J2730K436j3222k1234j8555j0094k070J800N58m408q592m894J0515L0396L8780K6627L648j1246j0931
116208d7864n456o295j2781j7106j5732j0402k944M879R754J0770J2048J6057J7989J3630Q824J1136J4617O062j1504
116189d318j6517J562K3110K2597L958n089Q236K6663K9970K0390J1349M272q615k4971l1324k1771o139K975K831
116170C9169k013p066r031n689Q46M359J465m337p846q715j0583j5377j9967j7712m334J5466K9096K7847J5990L477
116150B5045p267j9247k7897k2468l390J3687J7277J3043R776L695j0659k2709j5953O061K0006J1738q337k2870
116132d0469k7558k6247j7650P44K0601K6917J5465j165o734L695K2299L7097M0217L1200J5668O58r884j5889j8949
116113E0016k0539k1485k1287j7938j0105L09R264J4332J5384J1589J377j2125j9614j5300o417n440j1754j0175P003
116094f2905K5303K5298R096k876L65R000J0011K552q165j8907k3859j5839j760l016k6199m5582l3823k269J2198
116075a51377j490j4643j321K7853M5557M3038L0532J6421L423k921P56N567kj2010j5006k960J5049K8231L0981
116056D5678J8590q476l4333l7850j9271k450k454n071Q988L1869L8475K2480K716o758j3588k6843l6068k4473M996
116037d3843L0672L7350K9765K0698J5045Q710k428j5925k3206j7031j359Q883L867p403p900L336R115m18j2647
116018C5281j2117n147j0249k8215l7950k4859J98J6772J9322J7240J7737J9312J9717K0281K0797J6976N835j0074
116000H0857k5368l5370l5960k4421l796J6094K6021K5474K0936J6364Q569o336k4279l4722l1880k2005j6111j5428
115982h1361q405J3568L9550M5554K1811j1719k4530r204J2017J5625K947p563o042Q73M480M727M860M768L509J795
115962B7260j539r231j8082j8639p680M975Q489M413R81p80n494j0685o697Q934K5750L2317K7524J7219N879m131
115942H0783j0008j0940j1019j4709j9415j6390j238J7911K5800J5830j019p228O39P549m80j7728k6439k0669j4109
115923b2879k2022m1351n3038m2209j3213J5410K9380L0290K7887K4639J4870q35j0121l578J2208K3278K3971J6458
115905I145J892j6681k7515k0061r28J1855J0247P28j0551k2094k5930r937K1692M4794M1304J8068p399k7086l8852
115886d7309l6199j7107M522J1160K490p030p425L65J2464K4483K8926K2022J1763Q903J1962J1501O204K411k35q196
115866C5675j8578j9575j0361n933j4615k3206j5048N372J7400J0257n269j0455K311K4102L9358M1175L7074L6929
115848A26613L6347K0440j2603m0951m1601j9055j187o505k4354l0835j7567J286Q367L203r2P147J6514J4799L679
115829D3645j752M611R127k675k3951l4413k6914j3246l291O669J8598K0348K768j9180j9821L279K4387K2040K940
115810A3169j2331j4629q194J957J2160J6184J1495N780O576Q480K222q000j0627p198r660j6649j1936P560K0943
115791G302J2039o445j2062m445j548j1361k4211l0379l0076k5596j6434m553M898R986J2305J1522P056L931Q398
115772h9673J7826K2532J7480N500r129k1982k5436j4716K630J2710J1681P384M662k33q575j3405r494o41P377J3783
115752f9719J8689J9538J6653J5873K0282K3791J7873J930j5743k5105k2278j3428r151j0633n947J1620K6994J9222
115734B0461p840k7624k5894j5393r798l380J0562J9695J0552o147r856k629m528j8891k5380j1872O946J1677L495
115715h5844l221k147J901L369m09j0006j9371j5869M978K7867L1250J2696p543r619O191K4397L1676K5755J3013
115696B9064L220L875J3924K3052K0794O479j1627k4932k9149k3297j0324J717N628L309K433M563M153P65K032R794
115676C5473J3981Q425K473N630J0125L833o623m426Q433J0813o828l0039m2738m3471l3707j0359J9551L6063L2321
115657H930K6794L3819L8751K2333n147j8645j7012j9411k8670k7725j3797o649j4861k0202q296P647R351J217k230
115638c3803j700o159j0892l311J3802K3230J6617K196j0007j7043j7234r109J437M155k292q765q979n489j398L334
115618g1410M748m512k1271k8189j2813J5118L3263L0176J3127l582j0513n268Q768K3125K8163J9835L071j1445
115600A0391j4701o549L563N880J070k443k480p080k0003k9977k3507m340J0352J2305J0287J4235K1342K2696J6329
115581A7370P786K376J590L187J176r771k5461l2491k2925n267M932K925k178k88R179J8767K0292J1198k694j1479
115561a1776j0709n367k682m590r770j7546k4445k2063o276J3930K4308K0814J1017K344l612o367m273K193J0661
115542d4209K0160K8991L1295K2617P830l205o874p045p887j2093k1829l2820l2518j5523L823P728j63k099N043Q201
115522e0577N073R583K5136L5186L0164K2354K1414J6024l332k2467k4998k0289k6538l7403l0859n615J5759J9104
115504b2281J2477O800K590n14J941J0241J8057K1854K2184J5920n89k0674l2022l1869k5714j3838N193J9265J0718
115485b61j6090l3076k2434J401J1937J466j6247k4955j9628o822L194P294J1695J9040J9684O636p589n512Q249
115466f2018J4147R494R145J3317L240k2118l3780j4448J1902J4072k558j0891m963K55K123J3188L2409M0936L1253
115447D4705J8345J5044J4404N077j0115k0020j9672j2033l284j554j2238k9240l7626l0033j4926m686j459N26M015
115428i4770O220M860J498j048j660n88K515Q901J8081K5428K5336J8077J1196J1790J8702K3712J9758Q555J511R931
115408A18005K9233L6538J3905k6357n1134m4098k2007q972q080p626k674K773N968L823j1317l9115o0011n3311
115390a24457k4574L54P348M676K658J141J044J0111K7638L7207K6332M861o439L18J6326L0254L6541L2527J7325
115371A01191m303k1859k5832j5155Q78Q810K466j1538k2415k7552l1056l2133k4248p855N538P503L746M460R427
115352g9927J0612O019K454N213J2156J8699K2623K2804J8946J4892J6602K2706K2110P655j0887j6487p934k652
115334H5604j1443k1305j5005m64l532l0660n5539n0291j7772J5764K9769K1570k93k1309k5571r018J3352K3468
115316g2675K0607J6484J5638J3952J2886J8815K7993K8673K1433K0637K8583K4204r233n5230p8023o2855l0729
115299e8840j2499j6947k7342k4131n902J2481J8899J5538J0073K664j0024k1595j8182L503K8551L8383K8361R500
115281b7509k357J259J3958J8806O468j1649j6545o987l68o716j5430j3979o816n199p668l515R141K0872K5030K3970
115261e234K0880J4436M109n601r958r815r848j1915j2013m693R124J9928J7563J818j6291k3693j5402J779J3541
115242b1285R763m338j2703q362k560o748j3268p108Q189J3719M382l282K757J3038J4087P636J308o883k1201l4132
115222f6991l3352j8271J42J1414J0386k265j5530j2641Q715K7712K3459R30j7461j9734j1209L54J1120J5603J0060
115203g7559J921K975J2392J7859J3700O230P75m364r280r779o414n474p283l509R467K3160K7518K1718J0954o3o416
115182A8528l164Q260J8379J8802J0354M22m350k097L278M962J235o86N548J3923J2722J836o305m575J10p71n595
115161I0816q775j1005j6113k1984k1253j0242N864J6358J3688J049r700j0303l350O102J9164L4120L5769J0126
115143A20331l0097n1520l7080l749K2080L2498L3343K7103J5045O211P956J1937L831j4974k8432k8275k2932k1559
115125D1717k0051r272Q395J7496N486k1172l9150l0070k58K5837L2162K3885J2848K050q506j2310n796Op378j9757
115105c838j4921J2896M2206M8291K8677J809j1289k332J7721K5321P182k1492l2705k1463j1267j8305k7628j7836
115087A027N458J9778J9896J9832K4075J9894K487j2841j2960n353l157n093l327p29n227j3175j3221l744O301J1412
115067E1333J1765M592j1362k3350j4261J0695K3555Q462j7106k6778j8484r154n568J669J7138K9673K6209P009
115049F6037j5994k9506k6784j2232N44Q33q159j4592j2548n581J595O529N441l906j4248j3075J652J7228K0909
115030c5857J2640R63o400n009N224J6581J8253J0029M936J1897K1709J8408O50j7052k2772j8130j0299j932O405
115011A0244R936L664p744j0961R15J7696K2492J2002n52m387m434r854j7501j7694j2350j4282k7529l9789l7986
114992a28114k2695m167P694O669o540j9533j5827O378L0458M1922M4106M6177M4876L0315N467j2278r997P280K1924
114973G4115J8444m059k8932l4769j6808P673J9774J8893J5690J2821M467r077j9925k5638l1109l5233k7848n746
114955f7267J7372K4356J3417j809p711k512M617L564n472j0121J109K3273L7411L0481Q784j0411j6323j1350m357
114936B7051j182p71Q49K844j485j4222k4817k0690n632K325n308j5822j4019l585O09m472p637k738K736J376l023
114915h7613m199m170o837p294J768J5467J9582R517l068o822o033j2482k6469l3821k1752P109L6789N1129M5846
114896c3353L0677J9268J5555J2479N483J167O585J4768J0568r665l2898m4897m2974l1880j6133r45O632M499M81
114877h4583N481K2190M1530M8374L2477o94l0111l7141k4518j1131p921q030k357O155R141M767l005r974j1823o285
114857f7458R72J563j143N342K0729K7669J7824N780M119J702j4286k9491k0773M956J7373O016r506j4384j7197
114838f0193k5981k9868j7796J936J4407J7659J8148J7836J6041J4280J0588p25j5559j7890j134J9344K6058K1245
114820H396J6857J3020K449j0024r603O796K4311K8053J8199N643m05J274N376O533N341N603N317k660j7676k7240
114800H5560k2632j1729q096j2932j6633j3965q131k168M352J0519J3535J3579J3917J5950J7647J6175J0102J260
114782A06310m901n583p486j9358l5997m0238k5450m591R185J7600K3597J8032l886k4961k4973j0327m319j2048
114764d9394j6686r974l592n431n111P637K5819L5956L4235K4331J0036l094r004j0002j3907j7835q230J5585L2034
114745C3373K2949k117j9483k0411j3662o071M713J9629L1801L2263J7249p805k8165l0233j7480q204j0669j0538
114727a2861O346K8949L4674K1669R006O110J358j4588l1575l5667k9620k5955k6798k2467q156P448J2341N102m166
114708g8850n354J574R354J4006J7318J8147R824p203j7518o797J7356L2763L0623K3731K4673K8705K4257R971o458
114689A40122j8508k2626j7073o681k469q364j3659o921P393J4974J0374Q05n991q955j0904j6107k7896m1254m2247
114670g5987k4542j985P490O531J1777K4662K8107J6328P709J6847L0071K4453Q26j8273j7962l899J0664J7127J2249
114651G2193j129j3183j5658j1172p242m646p47l9r027k2383k6891j9256p969K348J4398K4436K0663J781j5571j5771
114631c4865j050J6451K8867L2505K4748J0162P57J845N881P177J1370K0853K3382R504q872j4373j1464j9018l8770
114612F5090n0778m1806k0698j772J0803J6074Q753j1551l3543m5524m6347l8641j9877J0282L9406M9837L7108J4845
114594e8339N42l77L735L059j261K86R830J5480P291n525n050R044J7182O970j0466j7703j3042o221j462L313N999
114573c6715J746n843n334Q264K6300L5915L2995K4133J8115J6807J4729P814J35j970n69l662j1657j4928q499j003
114553I6773l325j4652k5688k9769k4833j0721P623J9167J7297Q255K578K163K216O87k331q900j7091j6084K16J8438
114533B2019J8985L224p665k862M525k66j2238j7202j3122r656j2607j8976k3691k2679j2102P684K8856M2629M6792
114514B1648M2008K5498k879l0930m1075k9231r253L913Q513R991Q396r6j1950j5678n565R373J4866P740j582k423
114494A284N034J2996J5770J3142P722K964J273K57o159j7960k4260j5821M32R302Q511R490J5277J3083l075j7368
114474C1894j4468n898j4852l9478n2332l8331j3212K259P772J1727J0576k509j7994j7946p72J7875K7650L1711
114456g6328L2168K3995Q612r21L337J2593J4535R274L672j890j0741j9455k0459j2172J177J6110K8143K8272J1881
114437E1803j0886k3847k3067j7295j2000m472M858Q852N850N292J4984K9521L6665L0509J5243N91m953k033j883
114418A03732j2628k4848k1766n105L071j0261l1254l9153l1616j9354p272M915J2103R805N595R385J5422R280q701
114399c8650k1828j9501p799L113Q926P777J193N91J7268M1243M5856K1797p687j6131n980J809k88j909K323L609
114379C5732m333j3021j1105j036L865l029j3084j3470m233M37r263k2936k0285K422K4746K5783Q892m357q54J1758
114359g371J8569J4626N608k752r647j4184j1620M68J3798J4015k591k1973k7513j8580p145L36P237J3867J3100L196
114339a8556n873n906j798j535k478K630J1188J3390P594K542L026K496n907j7232j9678j0066R99J823n667r010l119
114318f1137K423j441q781r256o749j2474k1629j5627Q232K7697K5808J3903J1231J5937J3090J288p532q908q813
114299d2738r280p198m521l887K208J9795L3512J9843j6916m2797l5421r675O118L353p410j5244j4410j893J7803
114280a08758L1825L1911K2095Q256r774k8258l3500j7346R319K8889L5465L1888J8563k065j8085j9565j2303p345
114262c8788l006Q403K1707K3676J4000M368k044j1827k1234j5511M927J7013N802j2146j1159P724J9533R514j0706
114243A0246k1287j6356m524M165O642N660M321K187k844q898r626k150P120Q939K494m008l978M40L213K598J467
114222a4179J251l92m755q027n307K062O591L225m816j0203r156l385K996O508O843Q567J6913K8764L1839J7840n980
114201F7199k3313k4469j1382Q282K4166K4419N758j6978k2447p688P870P355m200j1371r892p234p934r271r708
114182b0838j1924j6024j6177o525J1617K8727L2948K0959N065L545J8720L0085J7385j2928l3511k7848p267N340
114164B1349J097r282j0696m98Q715K863j6099k9832k5158j1650r384k1489l0404k2899o560N017J2391K4322L7711
114145h0486L6821J3983j7872l6856l1710q367J7638L2096K9548J5346R89n349n252o181j0510j0601J816K2079L4506
114126h362L0912K1244J8913K0587J1386j0803k9131k9948j9349j0274l701O407J7342K0739J7963J8586K3305K1278
114108A17094P610p661j3057r749p045j0545j9350k8948l2621k5789j2994m687l413l58R895J9715K0693J6933J5791
114089C1514J2222l785k6626l6588k4813n383K391m780j5480j8837j2401J9J2348K0089K3465K4678K1668J0172n875
114070C998j3429n695O812P805n152j9456k4040j9572j2432o207j862l49q22L37M453O307o02j3957k1205j1193J2639
114049a13622L2720L2773J3047j0352k0485j2904M213J9064K4302J9919J1447M562n9n393j1670j4643j1790o257j546
114030d6674L637J0347J2988N356p816j3234n042P794J2980Q411O11n416r607j3013j5257j4363o277J1746L2745
114011c0084L9843K3601j553r107P664K5469J9896l630j8924j4155l155l94k41R630K5454L1901K4465J2808J811
113992A41299j6100m4071o7754o8984m7149j8869RN119O8q466j2530p805J337O767P402R565J5796J9684J5079N431
113972f4172j91K361R356J4675J5098J1075M974j427q455j6687k3670k5018j9825j2391o688j435O651J6571K3455
113953g5743K4763K2668J9367J3092J580j1785j9179j7157j1306r054j0143r167o269p466j1880p461J2650L5290
113935f7200L9757K3587N046j462j053m320q270j677J5236K7407K2184L154j5005k0923j3944j124R612J3621R738l95
113915C3969j1547j6163j1048k724j190p011r640j266J2395J8892J2821j050j4341j9883j3872j37R316M754r470
113896b7195j8574j3580R7J0473J0825K412j0021k2168l0887l3459k7376j2569N240J5927J3202J213r175j0665n088
113877a61368l31l084j2117j6725n059K2260M9417O0181N3046L7837K1504M505j0909j8496j6387j0580o467k036O913
113858g896J8902K8120L1069K8151J9876N034j5685l4684l8610j9380J3215L4288K5463o355l5504m1732k4698J436
113840a8990K0239K1549P385q113j1021j905P226R476Q436P020K273m643m756M257R052k879k2911k9083j3115R908
113820a0595J9802J1805k993j1731j0766m982O36O262J2633J4501O053o735r025K405J0776M79k0389l0040k1435q299
113800e1638m009p479j1804j4541j4137o293Q578K0980K2797J7775J5152J6438J5225Q365O91j712J998Q695J5013
113781D0094J7503J1800m354k6223m2808m5615l6703k5175j5456l720J1803K3048K1140R617r1n296j4166k8359l3600
113762a46561j5904J7494M1838L9282J4546j3028k7335k4737j1256M470J6163K1283K0090J4467P436K577K119M762
113744c2294O147L316o02J622J1886K0913J6700n66j7407k3028k0120j5516p593P755K2893K2629M633j4166j6112
113725b8910j409J5116J9977J0223p095j9750j9040q122J195K225p91k925p379j8233l0235l3573k5900j2924O44
113706a66906J4097K6229L3991L5063K7141P242k1758m5772m8908k9749k904J6465K4727K7003K8765L1480L1217
113689a2577K0879p13k1871k7460j7068o092n673r641o438L895J2383J4697J2606N701p479k0476k1811r865L623R108
113669h4272J0603J5486J9446J1301q783k5107k3410o560J0094J5338J0577M368L215P593J3181J4234P889k484q394
113650a5685k589J4136L2375M1121L6232K2571Q454r01m648m225k779m817j1914j8808j8727j3891j4889k5811l5633
113631b0428l1201j5420m182n532r996m347J1261K4171K4259J4677P877J1124J6201Q190j2391k4156j1552R450Q745
113612c250j5790l3478k3872l704J964l897l077L291j160j6140k3895j9572j6174j6176n655J4631J9973o4j8471q416
113592a72932J4842J6561n230j9547r640Q919J9114K3763K8139K5667J3732M651O609Q761N8j0506r043j228k464
113573e9774j0390p759Q766K2400K2000J6221J5220J3764L344j0020j2795l020Q782J4549J4345R200q41r977p792
113554B6223P416K2022J9943P88j8651k1170n922J1010J1996n463k6835l5408k7964j4108k691N748J2713J4839Q232
113535a7282l938j3663j6467j3196n703L172O886P85p810l818J5784L3241K9193O813j2087j3797o324m917j3310
113516c6438k3888k8969k5026j1193P495J7829R482r722j8263n539J3834J6706j237k2020k7947j9647r537m636j595
113497a80311M806J4737K4484K9818K7950K0248J3507J4062J9045J7802M595j3646k5106k5225j7581o293O747J8742
113479e1619K5923K6897K2057J0435p568k4798l1533k6999k0794k0239k1805j8171p929N927K0553L0188K4859J886
113461f2730k4281l4025k4440j0111j648N625J7658K7480K4323J0774N85J157O561P730J954q761k0935k7759k0704
113442a31547K71K0825K3666P209j1696j5755m450R311J5888J6201J3396N589p939j8635j4973K958K1448K7394K0238
113423b0601Q579K9k733n87K942L534N55j791J06M929R390J1890J0862M132n916j1118p167m90J001j05L453R309Q464
113400B8667K062J555Q538Q174q185k4581j7637J2724M2041M9146L4733J2695n657j5549j6429j1906p939p436r406
113381G5610j3886k1874k8919k6495j4445n298r080j8495j7778l851J0764J6260J6692J8906J9653J2424K181K134
113363A4503J4641K4679J7901n16j2439r964m124q770k2631l2276k9290j8687j0756r272r394m856M169J0453P975
113344g8654J029J101J1714K1076J6399K141n792l185k029q101q207Q898K9753L0933J2102l500k420K864k775j4233
113324I114j8080j4654j3268j3345p250R79k729j9192k9434j8834L019J5530J2570N196L617P344J2873K0933L1406
113305a4205L7170L0598J5741P316J3213K1533J2353j6604m3560m6595k8421j0688q321j7954k8507l2199k5076q073
113287a42279Q929J3451M894m810p257m355L483K1967M7426N9865M5131J5825l587o370m232l858L24J0506J8628
113268G3681J8359J1992K768q580j7464j7064r404m668p067j1712j6597k4486l0185k1125K675K3324K8139K4569
113250A7155K2598J6392k323k3860l0478k0630p969k96N761J1370J1192K948r361k1222k7536k0325J948K5892L6591
113231a2153L6645L7623L5713J5319k0652m4295l6108r475R087J1234O055p32j0688k0860k3520j8229j3215j2980
113213g1231j2830p604J020R025J7115K9033M3898N3256M8237L0402J2695O032O747K694r282j9281j8791j0941k881
113194A07313L842R373Q859j978j7942k8437k8905k2823j4202m052O321J3291J2755K707j4001k8341l1398k4741
113176e2359j9028j8631j4954j693J1101R072n083j5006j3714r625q472l819P790J5116P153p141o934J3404L5660
113157g7163L8928K2808N335J631R544J5905J2616L458l062k656M148J5017K4347K2549M750j9266l1527k5616j4089
113138G657j1778j6770j4546J868K2846L3006K5313M513j6969k5065j3506P451J6921M971j4387j9373q074k6q108
113119b4056j9933j5572M037J8458J4951J961o182o530m460k545J24L390P517J4667K2656K2159P582j2892k5564
113100b32k6645k1842j4295k975Q174J0880M620j286q84J299Ok054k34M196P828J1046J4368J4068P860J089Q27O436
113078B2250J1451J2165Q967K233o798j3343j4077j3688j9716l0884l6722k9803j3371L684J4504J6649J2110O779
113060f7610O014R490J2830J3285J0054J797r174j2083K750K7452L9683K7160J104j9754k9500l2187k8509j7660o725
113041g1583m178n842n32J0479J3899O459J105M601M572q895k1430j2011J3626K7119J6195J180N541K4590L4693
113022C9588K3927N57k3283m1885n0223m1678j7507R650K7578L4800L4535K5008M065k0064l2873l0228k3097k2219
113004a03349k4544k0278q251L016P370O641M457K049K494J1819L0599M8370N2283L9991K0356L187p640j2379j2118
112985D4073q344k962J969L140l383j6584k6674k2436m119J4584J9683R811m897j3536j2315m816K238M528L631M706
112965a1703R796J4770J4232P940L21n684j1756k0210k8431k9328j8277J012J8582K5848K0811P818m496o438N318
112946i875K0823K2691L905k2820l7794l3807j9082n106K252L007K328P624J8543K2277Q998r620j0528R269K5565
112927a350J8209l050j4670j0688l524M02Q513K4156L5549K9696R135j2060k4365k8888k9810k6575j5068N435K7953
112908a1000M1012L6969J7966n502k1923k6393k3177k0122j9106j3974p23J3949K0575K1134K5908L5311L5720J8605
112890A25229n534k0299k3555k5290l0089l2132k6806j8168j2487r487k967J0857K5930K8891J3000j0796k2936j6217
112872e2856o66J2595K1200K2914J2330n265j1172K042J5465R538n631n972P644R830j0205l2925l7024k4350q732
112853h1240L408J1881J5440J5714J8834K5480K7827K2124J4694R862K472j0593k1714k3612k0436j9430j8858j2181
112835d0328J425J6967K8154K8083J3609o299j6376j4753j5830k6196l0420j2512J8861M0907M5336M2044L8620L1449
112817A42741J7075q1j3850k2024k4637k2750j9221j6007j1826o206l193o863j6246k7600l7022l8382k6397o109R419
112798a29179J6203K3732L5368L7547K0840J18k964J0055J9166J5119N953k401j2524k1818k0905r660P17O028J4556
112779E951K8663L5029K1748n030k8999m0475l9603l0571j8227n007J1782L3312M9626M6575K4964K337q289j1247
112761G2539j5443k0204k0968j9191j7846j4784r053o736j1357j4558o714O753J0392m79j2828j1859K010J4816J4556
112742f0954K695r013j1299n242K294O560N151m286j8985k6899j7577K635J6207J6723J5521K2787L2665L3536K5017
112723B7536J6807J5491J8596J8800J0522m065j4342j2497n978r666k3429k8894j4253Q802K1229J9768J4072R422
112705F7921M537O41J96n98p034j5713j8511j4628r753n806j013K353N61k746p53M627N585K506L145O727J993j4100
112683A0137k7595k5280j2915p260j4919k6664k9706j9623k321J0678J0866J140n811j269R102J2469M866m621n006
112664a23732N943K2521L7308M3865L8001K1965N927n91M70j209r027j4717j3441j5085k9679m6607m3355j6036J3543
112645a23936K6346K6995K7419K4685J1480j549M785K7337L8682K1110j1884l4242l5267k2155o487K243j825j4944
112627d1207k3679j8914n867O092J6728K8676L4578K4254L337q934k908J1283J9408J7729Q097q753k6579l1400j8072
112608a6131j889n66r640j0366O35O739j479j1728j0230j761J653Q11M870J4377K2028K5667K8156K7922K1806J4491
112588A05365J2716J2326M060q978j3609o909k90j331n029o018n812m557M19L999l517j7243j9020o022L7j4896l2614
112567f923k6996M57K7361M1351M4044L3669P810j9173k4870q566N712J25j7880l1060l2562k5513j4509l938K886
112548d8575O266O214k006j9552l4051l0164q993J4584L1536M2042M2747K8999J0148L362Q781R552M0o947o774j2812
112528C4397k8364l3100j4929N967O979j243M723J8576J3276j2897l0883k4463j1105r779j1724J733K8087M6656
112510a8093M4709K7981R335l477j0241j4381j6909j4313n854l42p226k1092k5472j4715j313K789Q56J34k414j1552
112490h1590j9178j2970L168J1608N293k756J328J3486J8636R562p784k3012k8248k0044k714J0921J0210M67p95
112471a14412J4244L0846K7521K786k1252k3865q387M675L427l809l573L603N989p75p426n599L09K315K395O849
112451h4139J2045R041J046P41P336L457j6521l1912k3917m090M632M296J4428L3071L4363J0559j0472l721J7695
112432b2062K3404P360j0673j6153j2987r142n725j530L138Q375J2988J2260M266m296n837k031O92J649M313Q936
112412c055J4553K2300K7806J8346r186l4098l2512r398P207L410p728j3072j8516l1651m2089l3766q055J7740K9651
112393a02113K5544R912r724k3639k5356j6086p73J6432K9433K9506J4558m732j4944j3853q703l490M632J6378K4459
112374e2559K0002K971j6089k5484k3502j8302j5824j1975j140J2335J9407K0171K1354K1056R851r542j8854r147
112356g5271L773N87j4890k3757j9067r591j452P267J4344J2311L254J058J2938K8980L5909L2255K3538J0852o804
112337C6234k3607k9373k1079p025R60k135j0559j2997l687J0881J8990J7494J4492J7479K3758K4963J7086L416q865
112318F6426j3054p925n80k09o835j0927o458J563N978P084P872O199m86p993j1617j4875k1533k2941p608J6648
112298b1271K6014J1985m804j955J4793K2354J3469K953K242L698m639k0126k9412k5178j1715L124J4863K1378J9625
112279C7398O535j5872l7214m4241l3113j4472k407j62j198j725m612j1241j8030k2693k6043k5469j5264K846J8301
112260b08676K5412K9356L2962K8674J3395J087O681K3595L1506K2685O412r433k4128l1961k3543n237m63k1089
112242a02765m8842n5684l4617j562K5299L7947L6460K6079J5533J1314J3323J7903K1374J9549J0738J950L381J2866
112224A0246J5910O847j460K211R467P042p33J33R721J5398J2888R333O796l16j0553j4556j1798j2672j9300j9256
112204A5348n246J2143J9464J7331J3962J1432P105J206n140j3140k1033k2036j3870l922P89J555M15o123j7754
112185g514k3396j3909L896J5696J7026J2984O003n309j7872k4494k1457r819O741J9405J7099J119j0830o983J12
112166d1502o997k0072j5057Q798K2845Q544j6816k4901j1364O479J4941J3127M805m964q623k584O443Q709K585o181
112146f1785j1224o595J1256L4407M3795K9390N173o862l299J694j37l351l997o688j1898j0191K504J3858R725n787
112126A9988j4643p141P902J5184R244k387q750o360j421j748p287j0807q105m324p838j9487l0465l1350k2237j2426
112106a44458q600m857R780L2455M3298K8937K920r412l579J829k825k486J6128L8143L8477J7876J043N55K534p193
112086E0565k0369k0241n896R389J6282J4352N002p818j2719k38K1649L2589K3646O561l995p256r534j0633p269l769
112066G0298p390j5028j6061r138n183j0277j5437r850K906R491L356r959k0663k1353r375R476K1295J6568K582m272
112046a8014O43N279q70j2328j6824j2086o166m848o106n967m003k314k283k384J940J3719K7841L3325K6139J5250
112026B9943J0079O719m534k0316k4787j1808M084N435o526j6159j4971r973j0921j6930j8903j1630l54M316k395
112007a09631j3456j6603p593N261J1246R110O083P960J4235K1064K3968J8657N109q802j3439q949n272q659j4287
111988h3998j5739j4707j4482r675P019K9362L9915L0643J2254j084p791j2883j3433j099K2121M0416L9616K1264l91
111969F7328j1798j0020l297k608r560j3276l772J2646J8233N277j4608k5531k4437j8671j3888j2097j6374k7522
111951a03975l7090l2461j0789J7454L9044M7219M1473K5737Q652n65m2M070N602K842m596j6089k5348k3504j1828
111932g4194m498j1710k4954k7048j3807L111J3603J9436K4622K4738J3131o272k0159k0385j2002m391J725J3499
111914a05555L2703M8716M8646L1929J0301n454j3185j4174q215J995P810K710r564k0504k7539l2852l4622k8181
111896a15035j5801o835n991q500q881o931k347P767K0325K3468J0887o614j3181p625j095J997Q133J8619K2746
111877h4894J3796K108K340J2590J6173L340j6764k7381k1691o636O947J4285J7357J8297J5036N772l930m356M931
111858c2680R869l209k8398m2677k9691K996L2852M5118M2909L6565K8730J3780r137k8309k9885j5236j846m011
111840a2260j6972k4105j6205J261J6861K2604J6471L265o401n023J717R4j3233k3601j3921J5121M4239N3308L8317
111821H1537J3555q36L865J7780K3454J3188p414l0148m9996n9742m9743k0223J2320K8023K0401k553k7445m1124
111803g5101l5273j4206O147J4442J5057J6980J8707J4103P049O828J1508R767l13p179l136N595R508O336k555j6194
111783a1930k9320l2264k1705o093L382K472o141j5234j5008k210J1531J1480K016L396K1538L6287K9223R200k905
111764a2285l344l706q102r659o445m601n341k693M347R143R130J0127J6357K4251K7696K2612O840j5718l0697k3265
111744D647L804K8702L0507P186k4835m3348l5403q518J3658J4812L603n18M958N649l496r392k638Q144J2078J2254
111724B1854J5311J6660Q971k442n938l60N912Q611R100N633m890j7187k0815j4385p528o866p884l116P613J7036
111704B5290J5952r67k8623m9980m7866k1614J1457L2281L4326K2591N502r022j4639r394K318J2374J4199P359j287
111685B57l008L412J0049J1170J2180K0149K8469K1838j700k4354k9503k0125r219k27J1725K3185K0931O37k2647
111666E3219k9402j6982o03N046L55l506K31O069L932p487j7984j7057n161P985J3672R907n05j2699k1107k2673
111646e4750j9437j4636p016O125K0680K7548K4574J9656J8297J5404N664m563m772L872R711O318j807q767j3300
111627B8801j4193q845K68M871j92j2895k9306m4466m7425k7992N775K8686K6463J3087R302J2979N723j6030l3384
111608i8773k9932j1010N799R715K619o512r289m762Q6R4q66J567J891n956j2761k278K4386M7632N4766N0651L9261
111587E6328J4046k2518m7096m0524j4266M578O988M067J898n348j7216k1102j0686L531R528R423J2358J8785J9614
111568a7612Q097j1885k7258k4310n65K9252M3361L2538P718j2808k0163j8066j4467j4000j6332j8075j6095j0419
111550a01089m063p7J135J971N082R159Q158j384j2226j1981M80J1322R875L169M205J2387J7209J6908J8954K2638
111530A1832J7393K924m284N770J8569J2841j0759l1807l7412l3921l0492k3943o883J6108K9418K3492N909o708n711
111511d7664K850P616M585j445n285p362j1647k0369l0508l3684k2000J560K0675K0347M378q430o773J543L269k557
111491a30901o004o0J3124K6400L2584K7970J5952N381J372K49l069o744o180k474k56R6J159J702r61l093K302J3622
111469a7829J9950J4398J287j1800k1517k5260j8488j866J4460K0280J5665O994k696j2946j9472j7090p816J776
111451f1970J1109K5386M3224N2613M3886K1578j274j6810k5713k9949k8088j8604m670O218P778N26r318j7701k6537
111432b8316l5647l5187j5915J3281L0226K6460J7497J8484K2123J3747k593j1512j3598k3445m0226m3185k3844k585
111414a34235r01j2946j8785j3218n887k491k134o485j5375j7867l656J9167L2220L0426K3284J5969O373mP893K5293
111394g3359L0579J4090o695j0523J083J0861R774L308J26L585J0424J2179K836j1195j6076r210l348o817j1208p357
111374e6943k079o382j5241j3627J204J6440K0929J4996N345M74Q521K7797M0876L0861M973j0409j936J4435J5166
111355I5400k154k0198k6112k3995k3307k3597j6773j848J0151R482Q66l213O31N263P194J0606J4971J1862Q55l888
111335B2196O294J8004J2167j0092l0679l7452l0985j5232K862R462k275j6167r320J4804K8101J5484q094k3474
111317e4396l0179l3791k8945j0129J2988K6143K8432K7628K5576K0337J5228J3031P641n847j8644j9324j2107r397
111299d5755j0111k416J2529J7689N721q362q319J394M802k830j1760j2767o193J904N345N76r975j7420j4330l445
111279a03723N132N406M34l656l948l89N837J1321J2172R754J0336J5175J6248R054M486J5944L5602L8613J6232
111260A00030j0131j8595j6865k5836m2566m1907j4096K0998M1799M7318M3449K6537m747l5220m7757m4133l7358
111243e9080l0995k0956j0812q175r257l949N062N395k233k032J1808K4943K4952J8477J6424J5302O232o903j2602
111224c8399r868p732r181q285l132M09L0J297O158O556l582j6607j9556j0608Q46Q515J4579J9925J8550P116o463
111203d9432j1330p169k208j69K328N855N651K139M277J5199K1549P528k2143m2931l6736j1253J0837J8147K0550
111184f9311L2024M8499M9818K5559q297k6234k2724j4271j3097j2844n069M113M611k14M47P351J2084J1498R352
111165C3295O434J098k326K010R392Q991L47o787r257j3901k2237k5395j8493p621K155J3556K6301L1637K4611J1479
111145F5289j281j3956k2880j6215Q329L2310L5698J9890J048j1087j5770j1099L483J8785K3684J9011J2416L844
111127A51499j0703k4708k5829j4562m131j165m8K526J956j721M05J1592K1542J9633P672n513j3764j3557l324J1262
111107A09062J8828J4516M393n666j7093l0478l9841m1579m0646m0879l7072k4510q758K360R810J7528K2547K0918
111089f6560J7359J7906J8274J1900N243J0503K4321K8727J5525l685j5363j8987j8868j3909m318J319l714j2983
111071g310j5281r632l486k84K126M139M734O280Q842K796j9548m4386m4017j0763K9396M6769M1017L2000K7103
111052E0495J5953m361j8585j4513l93Q085P120R80j0923k9110m2245l6056j3297Q811K1574L1078L9088L4478J2828
111033F1007r009j1794O43Q819N676K404P270J3489J2332O921O530J4014K3875K8041K1166O307k981N251K3333K7529
111013B50823O592k1627l1179j8767k880K203j587p098j0118n732Q538K1565J4858j2139l5551l6222k4589k3109
110995G3981l2473l2443j3432J0312K1792K0697J6285J3085J1100J0884J0251L128j0507j9523j4608j782N250K902
110977G4899l67J802N442K725q655k2687k8572j9155L08J4814J5291P900K758r96j0345k2808k6887j8249o070j588
110957d0440p314j7968k5310k2737j2580o815j1157j1723Q380L9664N1518L2192N881m03R014J2117L624l485l687
110938a229n752j4085k0395j7439q324J357J0239J6869J8159J5637J5484J9314K1509J7739R864J584m158l597L867
110919G6643R844M322r757j8373j4524n070J670M225J981n872j1150j072K0390L0225J6834p80O76J4636J5826j425
110899A29249j7278j7730j1260j0100j3095j4871j7158k0724j7375j507J7351K4137J6767O649L365N958P879M901
110881G5158j429m881l91R494J6690J6623J0076m197k9339n8439p2929o2085l7055j5368J826K4198M8512N6990M1222
110862A4676J3647r081k1739k4511j5002L414J5582J0144l511o037O276J8070J7091Q661M513O229O192M14o121o363
110842C2544L01P570Q986L871m097j2333j9397k0083p775J3833K8126K3073P519M4L590L255r029k0857j7667m394
110822A7080J939m270j2348j2440p252m805p009r131o897j334J940k105j1577j7248j1481K669J4197J5755R798L595
110802d0924J808M397Q133Q706M049k450m059J967J0107J1556L794n852p266J539J1721J3088N230l321o318o284r076
110781E45j6134k4134k8722k6208j5089J630J8838L5370N2060O1840N1163J8930j3780k4140j3630k209L70L191J3551
110762I3442K3100K1060R574k326j1528j9199k3103k0418j4047q634l671K917Q212Q447O384O935P917L471m224n175
110742G9134M726J7052K0789J4504N757J539K120L107J469j207j738o76k043p036j1139r461k484N151Q615M195q975
110721A23399k5027l3281k8473j6543o803j659K114N942Q486Q922O184j880j3296j9496j4298k583N843P275K989p158
110701F57k0325k5120j3519L584O979l855r333R09J2542Q634n908j3248o322Q372K4543L9015M4324L1874M407k3056
110681F5154l6133l0061q727J6788L0118K0638l914k2750k3502j3559p642r604j1106n430K623J970j0542k2997j8814
110662h7490M022K7876L3916K2793J1035Q985J0905Q057K168o7L26m150j5048k4003k2626j1478K807J5376K4274
110643G678K5967J5734m893k4801l2492k8132k1706j8707j3656j026J3802K1420K2203K4462K9729K9475J8657L908
110625F7622o153j1187j4219j3619q171m885j1455k2792k5552j7075r499j1057j2652p57K1613L5868K8833O294j4778
110606b3621k1917j3930K758K0241L2865L7949L4719K3853Q738m407j0270q807m811l044m477o629o605m584m769
110587D3252j0827j9365k1656j5003q020q382q674N304L0910M4557K8548n244k7942k6375j3397o614q225j0405j1113
110568d8671j4490j8673j4572p64Q893J518j4346j6236J713J7930J2369l666k371J9788L5577K5441L594n580j617
110549a4163j700j0185j4024n815O464J3880J5417J0191m371k1917k7759j6588N02J1502J5802J6527J2769O439N031
110530a998Q356L329j6740l6839l7477k1226q545j0483j8378j9482j1007K351J5134K3284K6170K7347K8703K5988
110512b1513J5923M344k77J356J844j372n099p635p979j759J1173J9011J1207l175o046R37l552k7163m8720m5797
110492a14292k2499J801J8506L0544L6724L1855J9116Q727M303J5r241k2000l2647l3374j7917Q195K4816J5299j2823
110473f4892l4212l3206j7066j920N510R407J5114K2178K4203J4421n751k4036k7308j4603K816J3728J6187J5897
110455h3533J8754K3435J9383k893l4945n0716l3690K34J8976J2851M241J5842M1571N6550M7440K3659K553p945
110437G1767j1791j5672k0391k1444j7107j2150j0393p639J689J3865K0339K1621K6171L4225L3749J7095p607k6983
110419H9344l6078l6155k7614j2814P44P846J1131J3267J0144q66j2415j5821j2772r635n469M423J7399K6375L0469
110400D1503L2370K8677J4468m612j7185k1995k6532l0491k4870r862Q89n90n617l941R02o63r623j9407k4703k2306
110380a03588j0033P569J8164J4452M527K970J4301K9721L6678K8313Q658p733p544N701J4357Q989o71k640j12k482
110360E9597q331r508n475p99O167J8210K6687J9083j858k0651l0402l7029m1554l4878j5354L759J2661J7914K7259
110341a4502L3014K3716N016n411k199Q01r933l0022m3145l9241k2371l329J0526J7027J5278N689n611q271K303
110322g0665J9650L4260M2608M4559L8325K5387J4485J1233Q873N03n066M627K0539J8289p574l4115m1248l4298
110304I0372k6149j5598J149J2531N080j3020k0258r958N294J4163J6281J3410O055k54J700R485J3405J0222M112
110285A18022m692j9131l2737l2323j7391l969k885n294K313J7497K5508J8669L950o622p273j031N254Q236J1034
110266G7135J7878K7211L3389L3840K9892K1974J0066j714q295j2546k3749m3874o0780n8996l4815O52L0379M2663
110248H0310L7189K1877L408j6827l6022m5252l8093k0313l694P108J4623J9514K0417J9404J7745J0131m955j3543
110230G3027j078K2067K8546J0688r075j0703p12O221J1459K2131L0272K1879Q67j3335j0504J359J0416J2308P172
110211B13005l394j3712j5729o511Q676K0576K1844J2218p9o530r452j7796k9508k8704p156K1220L6792L7214L3584
110192B66558L0395K1514L372j7855l1444k9228j1861P162J1031o75j0599q713o567j5850k6468k2217p077L568R204
110173A64250J9827L1096K7693J0461l031o183r152j4348j0044M990J3469O266k754M18J0456J7118K1162K3354J5522
110154C20570k152j1013J931K3259L3530L5197M1149M7560M0727K3627J2645J0945O443m820j3821j7615k3102k9073
110136D95987k4705j1391o218j4288j5711N737L4570M1106K0332k536l578J5706L6854M6002M2299L1556J8569N967
110118G16258k492r72J3025L1956M0776L0166P234r331n974J3753L3320L8518K9244J7702J6509K8402M5382N5754
110100A099230N2967M0532K8957K6278L1628L9215M6152N2609N6749N6055N3218N3319N4393M9390M0013L8604N0477
110083A869786O3565O4199N5994N3235O1289P4868R2038J17333J50798J85120K16044K47485K84519L28468L79782
110068D244523M37681M95307N43583N83518O27773O85820P53085Q19656Q86893R72007J096700J269510J473028
110055A4889084J665549J799019J841006J784984J645722J443770J180986Q22185L15973l40434j053403j670277
110043B4324164k078927k268312k296274k220607k072381j874203j654589j440226j246808j079265r33068p97168
110031D362336o64291n37560m21688l14192k15690j41959j08968j06448j03694q5872o8248o6428o8997n5016k7778
110016A375507j1352j5780k4578k1231j1663j0394j6239j5921o359J631J911J429N645P558n76j3150j8769j6115
109998A211554j1874p050K907J6334K6112L1985L8892M1795K8484L825n559J6154M9302O2621N2778M1812M1177M0969
109980A682218L6266M0635O2349Q4876Q7464P5374P3226R2448J20950J45515J70405K08067K60687L18850L74644
109965C833974M29144M86439N44289N93734O28833O55867O90261P43566Q17052R10894J034625J199450J398060
109952A3966188J597779J756650J843324J842817J753882J587031J353908J043154O12290K8484o67749j350933
109940B5366825j881745k194927k316155k305450k203547k031816j817528j596569j393520j210886j038614q68878
109928D507190p04294n58096m44366l62777k95878k27406j59914j07327p4037n1322l2563j9961j4110q181K211J2040
109912A461209J5799J6487J9318K2194J9165Q789p232k8835n3234o9759o9159n7927n4079o6200q3752r1708q8763
109895H92313q5648q8861r2382q5971o7500m4882k7793k0255k1028k7713l7672m6706n0811m9560m4779l6464k4537
109878C9751j4560j4748k4014k9677k2955j1273p196r065l068J5252L1984L1738J6685L477N439K1977M1903N2287
109860A23937M6375K7763O961q271j8203k5770k9624k6701j9403j4384j3604j1692m825K058J643l884l584P426J9095
109841E5313J7798M314o542m964K534M518L17k674k315k920n147m880k829m927j0064q035L843J1265j11k3715l8329
109820a7550l2764j4898K071J2220J5041J1510O106N317R578J2081R042N116M552L592j881o671l034N487O499m410
109800B7004j7648k3107k2127k1148j9617j2002L99P985N191j778l767j127j113m084l61J5072L0823L0469J4439J027
109780D530K267P792P74j6336k4245j4442j466k328j3722j8213o703J4421L3902M3362L7447J8087q85m750L436N166
109760F8094q733k6199l2398k8716k4030j7464l556J1928J7284J3839J3942J8923J5328j485j5215j0397M638R199
109742D982j531j2006p713R514K7419L5594L0296J4342m462j8022k2840j9158p376J0609K7655L3868K4597M792j3670
109723A16890j8514n544J4889K3328R601j4990k9111k4476j2252o924j0027j1733l896J1248K3065K2072R246m221
109705H8651q150l115L260O905R672J2703J2677N040j1634l2428m4377l3850l518K2447K1345n09j4494m602J6590
109686D2613K9301K9451K3076J1816l352j3342j0920m922j0168k4563l0147j8602l007O92o374j1161o312M871J6317
109667A5267K4458K7235K3949J6291O334n426j6987k2339j7573q771p123j4212j8886j3258n260o765j3408q772J0101
109648c5145K5045K2069J2475J6068L0999L6256K1773l71j6448k6184l1672k7129j0714N200Q536M635O566J4632
109630E6591J8744J6911J7301K2716K5799K0758R171o713k5734m1233m3319l1193j4919k858M149N425r85r026o474
109611A5111P234J6242R736k317n527l405r157k1246k3771j0891M306Q680M527R99N71R19J958L130m72j0801j9427
109590c3601j5715o09J5124K4877K9853K8900J5496r380k9140k5614L84K8905M0735L2335J2555p556j9449j8713q142
109571F1245L007P101M740J449N02K273P761J7318K6184K6446J5278j540j5636k3382k6329k7003k6223k3504j8212
109552A1475j0144N29J3533K7769L9703M3494L4786J5113p812k4645l0033k5266j5933o409K633R987R774k966k2317
109533F3271l3786l0074j9235j2677j0710o596l22Q77n511j3331j6243j3239n925K142L754m602j2220k126K5473
109514i1080M8336M8597L4525K5297K2288J1100j0427k4013j6751j178J431j0040j7176r279K955M645k359m077M808
109495A7602J4422J4666Q813P601J4215K0849J9075Q854l537j2709j6957j5671p364P510K1958K4033P507j8600l5363
109476G6904l1475j3212L974R697K704j2346k5727k5207p441J3654J8229K357j7412k2813j1802L507J1023Q513L801
109457a3072O793J7549K2738J0327j2304k3563j3684L071P155l113j3425j2070M95J5455K1766J2879n071j5455q987
109438b516M400R519O946Q590J4703J0199j1813l5277l8807k1075m81O391j255j2770j6379n626J6861L8934M6100
109419A6644L2862P097j6732k8169k6515j9387j5621j6535j3742J072K3168L6116K9629J2413J623J708J611n937
109401B1305j1672l193J4619K2533J0734q375j4738l360J1923J5454O084m925r769j3059k2027l1783k8775j0367Q249
109382e1142J3028R442J3007K7055M0897M6376M3566L1644R141j4391k2381j3553p058j6479l0301k9137j2766K508
109364C9456O116k24j2368k5435k8486j3025J1921K6389K3848J7120J6857J6795P314p018j3269p136N000J6596K4201
109345A04652K2841Q996r842j7338n743J3162J9795P567j2396k5651k7601k1681j1354O90Q614N467r211k6397l3035
109326h465k0734P392L5587M5183L0978O066j3597k4933l2006l1680j8150Q59Q477K612R40J5372L4434L9947L0743
109307A09025J9789J5713J6554J5222L726k0217m3672m5685k3331m2L227n909p497J66M427L603O264R469P90j7098
109287D4524k5298j6313l780M08L67J047k928j3197j8019r282J976j093j9158l6544l6900j4190K2982N2854N6413
109268a6131L7862J9774J3610Q618l800j2000l685J1409J6114J2548J4185J8045P291j8122l4373k3967K322K1662
109250G1362K5463K0559J3442M698m605j1195j5051j9533k3855k0821o638J0329J7266J3331J0602J5265J6556K850
109232A20025j8103k7494k0895j1365p616n156k352p553k1326k7552j5756J48R83r156j0856K03R427Q296M916O925
109212c4257R794P983M868M005L72j1067k3903k5060q820J7811M1035M9080L8825J7075n978k4960l8258m0786k5879
109193d8120K420K6029K9277J6418O176Q569J3240M394j6589k9972k0165N987K7530L2410K6274K0316J8751K0360
109175A43305K4686L0712L3230K6264R823r088k1509k2842j7027j3634j6426j6629n197R629R014r364k4104j7725O02
109156A13720J0804R919J0123J6154K1430K3805K8088L1454K2197j253k2368k5485j4908p915j4021k7380l6435l5536
109138A02393k7790j9955j5591j3084r534l454O876K2056L4974L2930J4425j928K850K1118K4521l11l3408m5200
109120I1888l0568j1326q843k1805l1238k2929k413J2187J0922K557K789J5358K8957L0820J9145L366m247Q90R824
109101I5334P667q523k3145j9447j57J6608J9345J2440M882l15l747n016l859q25M929J4109K3372K7758K6866K3973
109081B12249K0411J6440J5417J9661K3995K2101J8210K2070L1145K9243P656k1113l7378l6390l0134k9811l2040
109064B51732k3728J77K5845L2387J6519j549k545R115J6651J7551K3865L8140M5866L6072J6450K414L60O183J2090
109045E23595J1515M714J175Q360J8259J5857J344r190p151j082J025L389Q811Q350m512k0985k9641l2004l3704
109026D68125k9022p954K5548N4067O3921N4876L6205J9325J0250M471n649j5991j3226K649J1759J301j2729o310
109008F61616J7607L2540K4880J0153R680K4223L7326L7124K7582J9793J7107J2418R70r281p427L349R841J0139
108990I39640J6459L2164M1711L3600J9804J8783K8985L3420K3404N070j1087j4892R05K8247M1629K5228l032j2109
108972A247929J232J1338K536j1243j0394M155J6545J5873L497j0887j5467n568J0677K1733K6645L1880L7633L9298
108954A417412M0317M8578N9115N6128L6137J4965O915J0611J9895L2530M0621K9992K523j5360l891K0358K5280P978
108936A850104l008Q974K5315K2117O180L659K0832L5423K8569R154j315M142J7032L1029M6040N8292O1417N7891
108918B281847N5319N0445L3161J0252N934K8673N5478O3820O2908P4154R4263J02196R5682R4488J07198J18535
108902C334353J14746J01978R2568Q9106Q9105R1989R4854R2317Q5615Q1720Q0645P4973O4551N9325O4256P3310
108886D685411Q1182Q8647R3935R3061R2240J05018J31339J53706J60717J61306J69124J85689K05721K26020K41725
108871F874841K46279K42689K43385K53121K64608K75541K93677L18299L35267L41427L56225L95123M47155M94077
108857A1381714N37431N89746O51700P16660P88884Q79420R90429J119179J271741J458634J682091J938624K226729
108844B6232982K541623K871821L210841L559975L910411M242718M562279M917393N361095N912591O578464P383290
108832H1285483Q328813R320349J0169894J0683056J0732074J0267703R305661P893693O035382L640909O30082
108821A68293099k854318o363660r336715j1403807j2518381j2846857j2589943j1902380j0914524r768307q610477
108810E9183730p548455o612155n764844m959302m184497l463159k823919k288838j873398j577704j380059j252242
108798A5455158j176558j136364j099771j033792r34478q26442p31437o51960n85426n35680n03067m76514m44621
108785E319048m07379l71567l41328l17086k96813k74972k46982k16940j93325j75564j55063j32904j24164j36486
108771A928475j54251j54378j31420r7891o7672n0608n5411q0004j01136r3594o4795n2035p5016j07038j08973p9804
108755D54449n2503m4899l8988j4180K0182L8879L4241K0687J3161J4852K2603L1238L2842K2975R156M435J0799
108738E79929J6591J2222J238o776p688l866J405O285Q943N802q120l3854o0878p0416n3649k3849k345M990P931
108719C73895J1405Q821j847r714o618o76m749j8319l0219l4800l6070l7436l5052k2808j242J8429K0284q54k9131
108700A63299m0374k8259j0208l297m021L38R593J2425O185K128R742K4776L5100L3127K1277Q828L672N335Q006
108681B57672J0509J6975K5650K6919J8688J3266J8658K3217J3308j877j754J3582K3401J8580J1990J2335J0823M784
108663E16726J2722M7474R0297J12975J15585J19990J32137J35305J20749J00501Q2911N7376J5901k7652n6293p5812
108647A500892j03143j34965j47790j30615j00891q2276p8991p9571p5761o7608n6292m3367l5344l8273m5727m1437
108631B38841j9632K937L417j9388m0628l6061q893J4851J6217K635m531L887J6948J9767J0611j31l090J558O192
108612B05507L359p281j7871k0044j4655j0525j2074j3295p683J711R111J7976L5280N4399N6251L2980J201j6832
108594B97515j9540k3604l7765m9936m3760k0133L685J2620N621q755k1323k5485j8311m158N778L569o061j1144o605
108575C2208K823J2857K4041L3365L1816J7330K049k573j510o088j3871j2823l340J67p483j2843m333J1069K0742
108556A23603K4731K9822L3775K8607J5414L416m330j3537k6934l9407m6135m7000m0758k3228L559K5713K7842R003
108538H4156j5500k9440l0274k6073k0319p641J1441K0302L284k8898m5195l0111j528J3866J1384N627P454J5996
108520f1469K6451L2981K8339J2707q95j796J723n747k1582k7100j4557L309J3191J6317J9040K1219K0236J6868
108502G9235J2332P966R829K2312L4948K9877P683r488r058o608k0340m0543m2615k3164m640n400k0140l1146k7372
108483c6332j1003O012J1538N934K401P697R290n679k4618k1091P646L3825L5373K1358J2142J0900R159P737J3579
108464I5868K1823J9567O877j826R19P590J2345K0463L3352L7663K1997l987k0643k3610k4462k8979l0289k5200
108446A19468k1755k4376k5426k1108k3118m0278n7404n0265j9119R827J7941J2854R246P829L846K832J2472K5491
108428f1043K6098J2470K31J939J2829J9405J4573J668j0238j2386l074R079J2944P922M831J2232K6750L8883M2636
108409A57749L5931J8083n970k2905k2140j0839r502k7637m9336m9968k5029N251K0687K2043K2304K4450J8252j652
108391I9772k4288l2906k1523J741K2529K8750J7516j509j4063j7017k1346l4802m7945m5299k5594j667J6484K8000
108373g3167L2564K8030J8225J1154N678q319l0281m1344k6789K008K0396K0139J3154P949k232k3092m3349m4495
108355a33771k1394J3658M3579N6563M7389J8963j4772l4715l2261j8271j2345k2471l7508m0219k5028j499J7013
108338a97089K4684K4096K0432J7378J6724J8859K2924K6719K6209J6376l601k4414l0404j4749J0360K4634K1402
108321E40J2644J0884J3591J1180M060J624O016P831Q86p828q437j585M734N803L34j4413l7377n6130n5834l6632
108301a38109j2794O032K1794L4403L5044K0937N244R05K479l547j6164k1634j5010n094K347J1039J9981J7832O43
108282c3672j6314j6489m679R63m153n874N549J9652K0065P106l140j76R023J1766O509J704J105q24o458o568P798
108261g107K8818L6678K1833m351k2979k5690j7553q212l569j839M765J9815L2574K5762j543k6043k4000O61K0651
108242D8671J6499m644k1657k2875j3695o500q048j5349k0818k0304j5645r782k344P773J7826K2812K0682J3392M028
108223i978m191p407l155O961J7833K3039J6842j051k0624k7628j9359q839p487j0405p472j857m013j1210r465K870
108203h6596J0115L429m770N78J6268K8543L1612K7804J8335N878j378j133n556k4115m3337m0529j5591P932J4249
108184e8262J0178N448k851j6947k5827k0120r538j1184k5527l6072l0046r587J4768L2232L5213K3729P133l836n473
108165a26569J528J6669L4085L9453K4615K270o771j09N448L99m643K542J7470K7021K6012J7523M940p332j1698n101
108145E7752N240J1035J2817J3593R444l197j6287j9054j5845k0987l4663l8195j9880N682J3900L9j6677j6642K35
108126g1690J8727K6202K3061J7673J4943J2134N573k396o360o144p929j6491k8750l5521k8614p954J5780K7819
108108d9937K2681R623J149j134l659p248n517K577Q417N938P49J940J0011J7829J9786J5794R407N226N293O051K273
108087G7249n084r932j0694j1873j4260j2536o457m284q178n883J2567L6889M6958L6948J8040J020j1587j7962j4890
108068I6051n241K666N347N931N716L014R8M88j129j3451l0042k9994m690K6776L7966K3375j569k1052k9898k9905
108048D0457k6154k5343k9318l0569k0287n22J6602K1193J3988M046M03L683M985k387j0012k567J7752K7463J2097
108029A5510j0713j3224M498J6647R278l745n998r62L06j140J799O459N296J272M117J2694J4488M691n607m940L397
108008E4123P614K966n386j1397j3517j2090p153j66N329O601M127O02j733k754l920n881p049o052m818n143j659
107987g356J4737M0905N5175L8014j710l2309l4151j9037r787j1047r681L572K4685M4625N5403M9334K3981j0519
107969B14834l7851n0444n0932m0896j9766M463J7092J4661R975J2882J6187Q470q207k2718l0023l2060k8631j7417
107951d0381j404J1272J4218O019r239k0991j8553m745L327n136j9173k0018n276J0544J5976J3008R144P806O378
107932d7224j091j6321k8602k1983K849K3191K0921N158l277K62P420J7464L3162M1962K5953q525l3755l6265k8503
107913d7204k1504r854P753J6214O258q958j3708j0832r329n778N918J7694J6423K357j3440k1852j6454O564L7132
107894f2600N1912M0275J9369J0288J1210Q739K669R26R64l280m633O299K0431K1062Q965l751j6693l4329m3967
107875C3856k9283k569P156j097P07K1447L5465K6379J2834J2616J1480p387k7045j9658Q948K6148J6698l807j5226
107856A07662j1966J431J5897K0473J3170N863O642M522j3620l8731m9980m3597l2467k1646n704J0625J2218j429
107838b0637j0664k202J5254K8674L7375M2991L8204J8516m783j6048j3832q671q060j2087j8853k5370k6390j9542
107820f125r295j027N148J0439J2893J2496J4468K0171K0483Q067p881j0708Q26J0441O938k759q467j3160k3723
107801C9225l1893j9512J4783M6196M9107K5731J000p257k475N602J6513L1969M3088L8184K1570J2363K0842L4800
107783C39836L5029J8796K012J095J8076M1552N7005N6473M3475L0925L0993M3586N4813M9242K5107l515k0920k5042
107765G98538k6137l1252l5735l3018k7221k8758l8958m6975m3869l3798k7964l1889m2041n1135n2732m3873k8432
107748A74751j6756j7114k6986l5768l6078k9187j9648r432L60N923L859l081p588n827k98O339J5393K6312L1007
107729E6181K1427K759q600l489Q744J1604J72j5792k3954j9690o883N616Q968P97j2587k2723k6551k5099j8327o340
107709g3767O754J5908K0367K0483J2623m806k2464k7221j8862j0033q336q836o666m717l027O930K7137M1795L4109
107690b629R272j1369j6020j1350q430j1771k1517l3890l7599k1339J0908M1244N7634O2929O1292M8686K5421O431
107672A47903N312J3969J2895j01o447N066K0400J8455k228k4476l4410l1982k2550r656J528K912q240k4226l4546
107653B9578l5265k7441j1049J2893L6750N0109N0059M2494L2947K1841R545n96p609j5254k4135k6324j4482N841
107635A29902J9978K0370J3274P936M344m371j9806l2954l2575j7950j976m52j7467m1058n2695m1425j1414K1187
107617e7152L9680L9191K9024K1072J7203J1752M010P0J279K22p324j4809j5480j2631j1227p066M940J7650J9701
107598H0105J3027Q732P564m70j6262k7192k5890j8192p680J0824L3866M2546K7126N219p62N829N208o929j6566
107579A20103j6596j4646j5189j2946p647p817j4007j4145l354O094M090q42M061J4861J6741M083j5976l4171m2834
107560c0137l4963j2123R443J2509p48j0570j926K1247M2315M5732K7580R58j1031L014K8167L8063K3663q88j9365
107541A30940k9389l5905l9833l8230k8878j1185J1611K9638L3134K4194J4323Q632J923o575o225R247K8027L2271
107523A27720J8834o56j5558k2660k0670r884J870K866q345j7525q296J9610M7432N3497L3701O167o414J080J4689
107504B17458K0424J7772J3180R608Q282J2781K2660K8466K2626J2016J0041J7648K1798J2979m456k0756l1185l5235
107486C56107l2621k4695j5841r873p329q179j4329k6669m0630m7176m0531k5913j6826k0004k5180j8047l103j050
107468b1889j8106l1587j8323J2691L1551K5234P631m789r007o541L215J5081J7938R283j013o075r907j5627j8334
107449c8574j5248j1059p262J348J3150J6239P119m07M693J4606J7915J7538J9212J5378j019j6524j2206O711J7455
107430D9065J3755J1457J8797K3362J5892P554J1400K0286J6610l898k9132m5736m7794l5012j2256J0073K2637K5250
107412G2310K4517K3978K0455J0572k633j2131j5414j7871k5170l3773l4007k3513j1600o642n148P59R969J4006R258
107393b078K81p530j2164j3619j4141j7541k2572k0656p052R990J9858K4621L2408L9196L1135N640k2260l7201l6527
107374e0212k4477n085J5017K6772K6819J9387R122m96l168M192J1761O540p138j2258o580p196k0968l0085j9504
107355f7557j502M100O32N621J9355K3486R468r188j5440o831O655J2977N446j1544k3395j8956k999J0303J3649
107336d5720J0284N751L836P063J3027J3926P159J223K385K786o531j7778j7192q643q027j5398j3096M282J7818
107317d2845J1706l173n632O649J7346J4382J162j1915j7927j6331j1054n144M040K0134L6893L9345K0486q815l1289
107298A8018l9640l7537l0441k1516j2422k982P110J3712J1419M550O770K2771L7888L5498J9460P995Q229R187J059
107279E9128j0525j4491r938m374j053M352J4707K4772K6115J7013M926j571k312n087j5626l0183l9410l8088k9297
107260e0942j9875j3590q589r77R099J5607J2952L790k384N96R465J6233J5673O939p581k1754k7921k4185j6933
107241a04377j2057o972K398R767L509j4365k4391j2277J0583J9169N735j1575j3502k933L765J600J895J3610L0333
107222a00085L8852L2988J5758m503j5626p790J3665K7445J8129m468j6937j0934M67M125K064J755K826J081j451P96
107202a843P295J1122P101l791j6179k2984j8614l691J3975K5553K7666K2154J2478K415m484p452r525j4185k1603
107183E408k8707l1444k6965j5760j840J0657J9886K3971K0539J3270J3765K7962M3433M1146J9541m552j9191k7593
107165H3526l2583k8019j4491p473j5581k2846r251J9405L9948M4103M2637L9327K2844r503l8041m2165k4799n573
107147D1465L349N700R973J7888K3280J8957N657n734m649O560J5408J4223O027l739j2258j4731n536J1171K1269
107128A54280J7695R559P277P187J197n678j870Q635O318j6608m0849m1628j9733n31k439j5833j8068l692Q889J460
107108E5568k0692l5110k8481r770K962K611l222m077K516J1137J5498J3726P624j052j1108j8965j9524j3121p673
107089f1153q421q483K608K1487L1411K3221P576Q79N379R994O168m513j5748k1941j9429r346M64K529p47l98N803
107068c2660J0209P806M740R093J8014K0715J2099k515j5144k1292j8618o573J0016K2733K8099K9120K5415R655
107050A10912j8652m2571m3163k3760o502l734o048k794K6p622k0334k4094j6567p541k496J775O713R411J0629J4290
107030g2122J8182J5765Q177L857M728L521l470j2298k1825l4909m5429l8908j3778J1176K0137J9057K0756K3530
107012i3853J8663R471O606J0209J2595J4403K1841K9873K5161P124r259j4438j3885j3293r347j867j094j1965k1336
106993c4391j3300P779K0748J2725p651k1765j9464n174R784J8698K3447K7387K7233J6970j182j6731k3415k4555
106975b857k3341j6499l461O514O271M551J5979L8000M9483L5906P047j5929k4464k6229k8418k6727j3882O616K1248
106956I808K1298J2828Q747J2298J2994J439j5662k1556j1448j496r431k9322l5678j5764J1349J7216M36j2235k172
106937d6351J7214K0510L648j4961k0860j7106j1951o889p75N517J4385L1379N1859N6716L2963n885l1806l3252
106919D4355k3045j5452r068J711J0479O487o709j3622q536l070p489j4542j0875J694Q176K919j714O571K2123K8717
106899A9110J9161L80j6716k4132j6895K705J9883J7380l576j9900j1677J3909L1180K5854Q078m213o080n478r078
106880C9895j6027k4197l4219m3527m1969k0792J3718M1511M7080L3941J8360J1478J1338J0598O532J541k801q687
106862D3773j8233k7764k8278j4791M618J3573M552j1458j6569n507J0556J8095J3894L660o217j2832j5868j5664
106844f0460j2127n515J425M358K432N40L683J1254J9711K7441L2389K8790J3647n389j6232j5899j1120p447o481
106825E000j1758k4739l3611k0708J2384L9430L8811J8940M499N659J2563J4141Q833j208j4110k5662l1735l3562
106807c6833l2996k4543k269K5816M1540L7279K3207J1241K501m325l241J0105K5886K7677J1821q581j9006j6205
106789F9074n446P416J7679K1161J7399J1517Q402O193M05o126m802L799L970j7209m8684o2510m4748j1381J0803
106770b3088J2581N992M641P760L306j6976m5664o2291n1445j9518J1066K5377K7257K5897K2038J3731M981j664
106752e6019j2121k7476l1721r827K5289M2149K8695M559p596o376j496M216J2103J8859K1228K1002J7484N351j1045
106733C7258j3652N618K7132K5836N029r237l876R148J6147J8133J9039J4615K664q033r752q276j3101k1501k2564
106714G0627j3211j037O467P325J736q419j7202j9257j7056j6981j8478j4538l836N719Q327P777R786J3462J5116
106695A6327J4193J0328J667o951k366J8653L5326K2879j3398l9844l4572j1270M081N482L935M406K875L90K551N564
106675D0256j384j7244k6284j9243o211k361r208j6165j4271l241R530J3265L157j0682j0353Q722K9660L2230J4174
106656A4347j0040k5917k8587k0739q125M138J4375K2192K3662J5047K602j99J0401K2687K6258K5047K5854K3614
106638A36617R780j1168k6088l0092k8137k3866j8508j6848k0884k0719o594J1419J2520m292j6078p698Q616J3799
106620c8221P416J177q48j701J93P502J3080O681q066j5192o219J0384K0673J8271M661j4934l1554l3960j6327J4750
106600f2234M2388M9772L1483k282l3153m8124m5979l2065j2397N148J1034K886q975j1754m314N177J2841K1059
106582g9489K7266K2114M062j2740j2999J558J5435J7982J1719L826k593p162q884p981o933o193k401N308J0737P907
106562a9461R08j42P010J3792J3209Q099L580j410q584j2404o665L843P543J321o812j0498j1554j2265j0288n050
106542d5828j275j496j751P14K266N78P71P043J3810J2597L795n148r484r063n110j778n810j6786k2588j3655K805
106521i5393J2638J3808J3767J2547M033o955n875J0055K6748L3569L3437K7316O672k7391n3064n1486l1360j5236
106503i2170r965o507j704j698o440q427p304r888j4251r536M892J5337J4428J1771J6185K0444J4732N527P854K2735
106483c3985L3327K3568n248l5031m4655k7505K31J3677O603j459Q131K6480K8564P820j3958j4075M448J9902J8835
106464A5670P792l74m271j3275l0884m4976l9400j3501J5607L0478K7814J5477K986j819N218J8853K5519J6537k721
106445C0730k0582l0300k8871j3216J2718L2990L2987J5348n773k1296k8354k2215k939J3473Q761j1790k4262j8792
106427h1383r118n491O14J4817K3418J4748J023L01Q809J1191Q820J5251K8111K8791J1720o761j3423j4213j8751
106408A8474k4186k3342j7779j4544j7558k6516l5959l3667j2091J5864K7340K0822J9232L2228L6236J1081k0636
106391d5001j8837J6371M2506L2952Q793J650J0472J4890J2941J9329L3515L5783J7787m191j4071j7316k6047l5279
106373H6247k9096n953J5550J7116r76k2330k8916j3805J3054L0928K6457P409o509o442j280j166l302O78R880J3925
106353A01469N159j3677l2003l8395k8316q816O686J1210R146O980M815J041j171J037L531J655n3O372J8196K2448
106333G7314J1330r338k7098l2272k1880j766J5221K0452J8823J9815K1351J3313k781j0982k920Q762O919q395k2704
106314G3164k4867j4270K958J5671J0936j3028l8543m3337k5178m337j80j1917k4351k6217j8735r929n465m747l167
106295a65539K981J3221K3414K9066K8898K6053K4678K4049J8183M129j1882k1278k3677k3485j7802J490L0418M8818
106277A1735M1753J8022j373q019j0029j4809j9177j7801j2527r188r564r694m557O242J6642J9366J4246Q434O747
106258B6449O429M647M886R541J1872M407p886j2781p767j825n45o37j065p515j9984k6408j7586j547O530M452K975
106237b3358P358R586J925r736j1859N13J8342K8647K6517J6644N969k700j0269j7525k3640k7369k7311k1034o957
106218f6257J1181K4228K5548J9013J5521K0042K5234K1249R671K161M900J0456Q714Q49l461m66K585k634j5193
106199A13341k5595k4690j2672q71r83r614r919M714J6531N781j8123k5718q139J1200J1492J258j554K124J942K274
106179C2779J4805L3469L8387K3918M570p413j3033j3441l915J2974K3041J7603M783k643j861K506O355O329K94p556
106159A71951r891q275j2586k3556k6456j0466J3666K4873J6095n96j0030q100j657K28m734r606o401L150R087N465
106139A12161m538j5737k5516k9778k3245q108M782P797L815r90m476n792l509n15k888r802j2755q575l869k288J400
106118c2426Q541J0324L013k844K20J753r434k2858j8747K248J9489K0998J5074J2177J0785N797r59m325k497L054
106098A9383Q432P878O32l738M225J8550K3321J4649O060Q596J5866J4901L789q827j6564j9971k0215j4743j890
106079F0334J2149J4822j94k2054l0467j7691K675J3202J2388J0334J1577J2619J2393J3441J3530O467p874k2024
106061I5627k8903k4894q701J3540K5935J7684j538j2796j2538j2819j8927k2800j9486j3530o256O239J8032J4461
106043H330m091j6795j0530K467N879J858j064o298j7513k1671m722K2846L5622K4516K038j8481l1143k9744j2628
106024g1124M769K331j6346k5852j3788L796Q438L964M720J2560J8182J6851J1229M245j200J18R593J9645K2010
106005A4141J8119J4745J2948Q633J309n555j1760k0002k7413k5079r989P381J3186P106L623J3485K7417K4801p50
105986F6346l1495m5280l8957k5470j4037m292K771K111m383o465l89N305M878N584J4324K3775K2743J3132N234K081
105966b484N42K481J0487J6045Q168o385q395N509J6726J2783M479M860O848l093k0167k7389k0326r172M37J2125
105946D079K4708K9206K2231R218p061k6564l8153k3870J3476M2203L5110J747k5719l1124k4639k0272j9813j9399
105928e4636j7275j0533N260K7629M5008M7170L3824J2102q564j8852j4889m458j218q947j6722j3082N10J4008K0974
105909C7309K1084J4773K453j1588k0133j9826j5153j4150j9783k5926k3737j2817k582L98J797R683J9117J7121L119
105890c8841p288l559N340N640m00N54J0839J6405N542j4727k5475j6312M008J7336J5065N606K255P250J2194J1235
105870A2667N958j771j2071k0203j8086p488j718p162j2450m753J1231K0636J7640O664q393k2820k4855o987J7730
105851e6231K6164J3604j344j672J1240K7352L9530M1184K7393N621p425p448q573j9371k6805j6861J114P409J153
105832E6034j876L200M363m620j3701j4880j5662k4297l2423k4667j026K0828K4993J2375l409r617l357Q154J4115
105813e473R001k856j1476j0685l903n75o085j5341j8251j2177n618o949j3297j5762j2751j0261r663n079L910O990
105793a46301j848j1553p037R081J9671J7497J3635J7840K2631J5687n3r763o961j70O85l642m833L100J7638K7620
105773b7076K1546K320r519K558K7104L5042J6584o082r708N27M446k036o157k276K001K740N031Q546M170q706j5983
105752D5072q821J739N91r773j4428o897N695J4315J5108P408n938j7043j9191j4429r913q454p750n960k225M998
105732c5896J3572J5185N278p300r359p25N973K004r075j8474j8975o612J4113K7683K2245P407M236J5681K2038
105713D8999J1131l162k762Q260J3331R139N597N697J825q954j9490k3146j9113p490J0154K5117K7133J6670K463
105694A01399j2388l0238m4758m1945k0441J924R443O102M142N379M128Q01O70K884J242n658j2983j6636j5035p161
105674f9129L785P888j310j5491j9030p538Q474J7637J7196R016l812j3842j1850K542J8511K6432K7816K9544L2947
105655E9786L2862K4956J0959j842o182k891k463j3270k8757l3639k3648j0607m926k519M685J3535J4170N142n129
105636C0222j0068j0388q940o936n178l649k75N568R754Q466M326J813j272j0432k3673l2000l1078k4510j4638P09
105616a22179J8755K8431K3443J2537R180J5055K1322K2782K1676J8633J0197j691o966n60P922N735n012r923k575
105597F6762O944O714k179j0908j5493j5961r192N200J4248J799k6493m1818k5211P479K4742J6894J116p315j2029
105578a4701j9747k2387p335K0265L8165L1926J1337k632k933j654r912k0090j5468N046K1606J6265o458k7584l5731
105559d2022l3144k4414j0399O213J8593K2586K0480J6270J1857Q892R138J1920J5536K0931K8215L0280J8105n678
105541A23359k5892l0135j8977j85J8235K7126J9544J655q614j505J3269K1702K2503J9346O727k0278m7291n0427
105523G0162k7135j864M390k475l555O570J6821J6488N731p630j4918j2166m045p0l345o709m002L97j68j944M033
105502C4566J5987K1302J4049L258n78J82m691j8691l4409m0707l0063k770L0320N1827N0726L1157N896j5524k7947
105483H3890k6015q822J1954J9474J0135l046p358k167Q026K0823L0480K6711R285m760p80J2114J2475l864j9368
105464A69187j9563q337L692J2473J6576J1626k681j7097k2270j9485j6768j8640k4184l0346l2458k6228j3919l934
105446d2356J09M490J4062K1695J7213L366o103l849L429O350N385P929J5686J9565R486j1589k7603k6976j7285
105427f996j5735k5686l1343j8540P247K8758L6006L1322K0924R351j48o295j0301j2364j0159m030n7l686j3129
105408b4861k2380k7115k4698j3731J826J2778J3880R056M145J01l252m074l718o671r972l245J2938K1154J1554K3
105388e6262N438J8829J6397k119j1975j204J3340J4387Q476J1188K3593L5458M0551L7195K1974n699l6620n6824
105370G6123n7395l7769o549J8677K2320P346o731o824J104O390R697J6656K4327K4094J3922M83q009o979K207J1914
105350A05004J4524R874R84j4407l6415n0064l8278j0377L758m134p741J0306K6204J0722k1285k8624k721K3127
105332i543K3165P872k596o280q931p675o56K075p328j9181j8035l228J2488J8932J4719L724o126n510O633J9420
105312A3939K2293J7148J2875J2709J3608J3862J3650J0474J264j1496k1018k3379k0163j5721j5155k1764l1144
105295b8018l0322j0398J8832L3592K0113q860k5782j6391P098K1122J5509K96q975o867J298P944Q582L045l773m794
105275f749J638R125J1587J1086J3072J7270J9084J7661J6542J7403J8127J5658P126p983k1883k0568l47K2152K6931
105256A66932J4586K456n76k048q473j4085j1056Q1J4026K4661K2923K636k6814m4840m2459l1280k5390k5029k3142
105237f891j6434m049J2781K3632J5202o980j7841m879J3287J4364M415N102K0243L5154M1573M2626L7926K4663
105219B33894J1649J1936K0869K0203N203r992j4684j0372L847L2363O3799P2711N1622K4300J6482K8522M6223O1061
105201F69636O7521N8597M0646L7671O2088R3493J05839J03915J10244J25474J29431J18450J12069J17171J12750
105186B064995Q2802M2326J4160l655k8623o3462r5508j20817j47875j75720j87122j71643j42812j21761j11352
105171H33933r7760p4517n3051m6669n3182n9307n7108m9412m1998l7865l8431m2482m2580l0384r079O599Q064M221
105153A18992P973J6664J5648m32j9193k4589j2643P482K1634J9412K291j4958j7830r289o157j5128k1175p165K1426
105134H2963M1008L6695J5601o583k3125l6722m9357n7971n8077m7054k5139K337K4247L1072K5786K2835L1635M4095
105116E4246M4783L1734J8518J4055J0419k501j8238k0764p636N050K497j2335k4632k3407q928R308J8869J3965J707
105097A06710n277l866k873r527k0197k6524k3425r111J3165K8951J9944j3103m3974m9105l5023k4561k2268j1458
105079a31522J4696L8601M2010K9666J8833J5676J4018J1146J1464J5323J5091N374r169j9081j9600j3051m613K375
105061C7237Q091J4110J9172J8223P805p845j9016k0285j6229j4937j6694j3171l4J3715J5261O266L406J6433L2675
105042H4183L1504J0535j1999k0242j6421j1698j0752j0723q717m071K737Q091N781n313j7074k0752j7010j2255p846
105023c2042L57J3021K4708L0793L1322K7268J8690Q354J742K71r45m728n016N840K3871L3138K0962q257l5620m3089
105003A10640k6711K127K6367L5550L1308K1821J1742j72j3503k1596j9294j1407n865m52J2976K9281K8292J029
104985B12133l2413m3883l0059j1336l018l747j0110k2238l0225j5408K2453N4163N2049K2207p142j9535j7412n231
104967A11248J4021K8739K6122J2455Q364J9249K6473J4582p624k2021k4080k0179j3289m294M26l078n315N681K3744
104948A91224K8468J2070r508j7355j2494j0909k1482l6802m4240l9058k5106p793R387K2724K7227K0209N096j0088
104930H1570j8238j7136r611j405K341P63l106p952j7150l2261m5152m2726k1493P383L0297M4432N4771O1395N6466
104911A23188L5496P083j3050j7740j4898j6521k3836k7571k1899j1646l406M002J4980K7874L6491L7296K8968R505
104893A74316j7261l5836l1110o661J8476L0922L0614J9241l370k7470l4092j7326N239J3634P516j388p124q159P64
104874A10925J9636L2874K4745K114j3156j2732q222r887j4057j3629p753J647J1349J3166J299j4600j6826l505Q175
104855A11563O326k301q332j2535j3537R6L0146N3635M5728J1538k1043l5135l5162k7621j1908P042J5649R867L546
104836A27562Q944J8214J4834k303j6838j5449k235P955N000q443j9997j7639o11J7660K0510N134j2582j4058J272
104817A16930J5876J6524J0511J3289K4649K8370J6013j032q951j0354j5900k4599k5435j6278q360r818j4714j2710
104799I4011k777O992Q905J955q541j5959j9034k2374k7167k5287j0051R783J7056Q268j820m45Q355J3663J2260O190
104779E3983n295k1929l5799l7560k6686r758P626K1889K9893L3055L7926M5841M7645L6207J7623Q99j5858l6308
104761A43394m9570l9703r730J9745L6238M4172M7587M2274K9498J9272J2378l246k7737l8662k0515R346K2028J3689
104743B50458K125m305j2309k2055k2649j1504R38R688K0362L0325K3234o520l8012m5879l0023j1870o961j1942
104725A13101j5029r651J396R160O637k867p893j720J1017K2566L0568L4768L2510K3718J4799J1422J1763J1843
104707B98108J1770J1087M727q658k0300k1739j6391j1946p395Q88N178o687l0683m6961m3759k9492j7743j1535p803
104688E0666p054j0523j3970j1624l065P999J7860K2583J8821Q809r4m584r221j6877k0645j1438R130K8902L7382
104669I3057L4933L1321L6260M8221N2024L3636k96k4835k3833p807J983M17q41M521Q091J755q686j1110k608Q120
104649B74323J1200M722m713q387m232m68p595k5061l9279l8065k4327j1496p451q488r155j0897j6308j9925j3112
104630D1286K355J4160J6166J7140K5987L5161K9795J0666m750o028j979l304n082K746J5665J9130J0167J182J044
104611B21507L961J164n809r423o884m64P414J2573O915j3037l5592m0356j9422J1991K9881K4455O150q437j1773
104592A74814p273k040p77l140l317N185K0530L0930K6697J1131o436k4243m4275n7038m6512j6418M066n777k9419
104573B6688l4706j7236k052l721p566J984J5115J4462N764J0893L4583N6274N7324M1852K4851J0724o966k9573
104555A98694m6572m5444k4103O674L0124L3690J7428m926j6035j0078K395P144K722M36Q069J9545K3281J5474J100
104536B19618j2919j9804j3774K625J5681J4660O072K896K448r182k9245l3778j0149K1882L4808K6207J1768k289
104518B27525j9164l1242k4490l788Q842O674P477K0913K7797Q421k3834l7519k3441k62J5493K4149K7264J8914J004
104499B30733r346n64J5559J9850J2677J0712J9814K6554J9507N100n667j5465l3085n2594n4547l0657L317K4836
104481A86734K7390K0441J3264O681k762j7863l8003n5518n8402m4258k8095k6159l3892l1681j2652Q869K0005K5410
104463d0491L2188L2234J3995j5259l3574k8927q768J3174K8865L5520L3877K8517K2588J2701l204j5014q793J2971
104445A12600L0539L0085J8504J1112J2962J7526J7301J0462J354k645J189O033M293P7L128J0864J0202L44k350R704
104425C03284K0370J3900M85O82J3955K2422K0606K0631K7991L2100K5261J3916M667n951j9591k6871j9940n318M912
104406D47511P870Q529J0106J2614J4785J1616k873k3947l4924k5417m035J4283K4863K8151J9042k732j8255n628
104388D81559K8140M8840L4371j000k7488l2281k3553j3948j0948j5779k0515j1190J5846M4253N3967M3947K8888
104371F23109J7359O604j839K501K2437M5042N8657O7322P8426Q6122Q0909O9346O7518P5430P3520M8062P175l2676
104353A395024o2824p8658p3373m7658j7599j278k051j3131l0603n0649o2153n7680m7539m6882n1646m5062k7130
104336F79108j6661j9875j8737q34J8548J9005M214q127j2594j3163m280K2066N3572O4343M7603K4382J5576K0427
104318H74573K6935K8898K5868J8369J0480Q126R799Q287M873R269K0210K0989M658r902j949K0792L3126K8479K5148
104299A167028L5897M9231M7940L3108J9788J6617K0079K5397L3008M2988N0506N1278M8003M6144M4261L5046J9029
104282A785348J0882K3773M9669O5250N9301M4780L9360M3594M5875M0405K9429J3801n045j5334j216L7452Q1037
104265B348361J09016J14865J00815O9957L0988J754k959J4297L7192N1269N2491M4813L5205K8472K2397J1043l339
104248C066637p406P217K9803M2182M2029M3325N3111O0120N2228L5801K8601L7530N1257N4218M2941K8653K6537
104231C694784M1264O1248O9769O3568N6302O0317P0729P4483P0778P2105Q4542R7214R5688P8728N6354L7172K4406
104214D809451K0307K5319L2643L1922K2744J9664L7547P2473J02662J10948J02856R7903J04793J12291J06671R0391
104198E900585P6387O9497O4457O0624O5146P7308Q2564P2115N9618O6086R2680J21232J39755J53540J69309J82930
104182G453833J90516K00810K25417K61356K93143L10884L19012L27599L41316L57080L67524L66521L56353L49900
104168A1721264L60085L84068M01568L93053L59073L19887K97165K98185L16312L41762L68126L90773M05802M14648
104154A6771771M25993M46577M69768M79221M66748M42539M24412M20792M28597M44034M67633M98515N31736N66313
104140B3284649O11639O79743P71649Q76159R82908J091765J206789J326503J448237J581431J746435J953305
104128C7561212K187462K425801K666017K931611L248062L625042M066742M588248N208913N931366O735785P592892
104116H8769153Q473233R345728J0184118J0988553J1799935J2688221J3728915J4990637J6526192J8339924
104106B15834609K0332164K2263798K3785400K4533200K4248075K2849910K0406617J6995160J2559757O936272
104096D10744962J04341p515932j5032868k1430490k6039911k8748227k9827903k9632758k8455071k6571990
104086A97594153k4296837k1921344j9622094j7444197j5364127j3357500j1430945r627099q010349o633205n505157
104075D4381299m594880l861099l275464k818939k469598k200827j985736j798958j620472j444127j278616j133714
104063A5898869j007396q91390p85537o97530o28122n66047n02307m42518l98404l71602l54001l42290l42752l59000
104049H209973l82241l99279m06630m10995m16792m18458m07161l82612l55151l35444l23959l12846k97492k81999
104035C078914k71174k61564k45379k20670j91777j61598j30701j03140q3827o8143m3952q984K2249L5614L4093
104020A379961K9927K7426K4139K3876L5010N5541P1054P0237N4506L0891M151k1244l9876n1180o0935p2734q2489
104003A478261q4914q0785p4166o6771n8948n2495m8053m2454l3192k4403k4565l7538n7150p1122p1249o0643m9710
103986E40103m3896l8849l0675k5957l4218n2924o8535p2041o5206n2062l4450j7573q910p234k274R914K0802K4043
103968D0058K6015L4155M4142M7749M5265M0412L1041J6164N275P673J7178J9762J2068k56j7054m0052n7908n4485
103950B17202l4429k1851k7543l4831k7203j3943j4880l1476m8238n5591n6235n2514m1724k4288n676J1132K7006
103933b35082M0606M9089N4762O2168O7311N9014L4891Q333n949p862p511r342q700l504p83p206j7851k1063j4158
103914C7163p855j1725j9870j7021K408K7423M3282M5461L8693K8099J6801R322J0833K1297L2860L4699K1564l78
103896C13056j6324j5557l474L060m362j4296r378J0863K8017K6376J0518j542J007J1933J7422J1697J668k398K347
103877C70633J1604K2354L5692N0288N8636N4431M0463K4147P653j1018k7652l0905j6473K466N636j3033l8219m8788
103859D97915l8440j9177o303m475r859k0574l7307n3872n6599l9839j7106q067j5275k1925j4187K622J5072K1335
103841A73939L0465M4509N2952M9146M2533M4716M8679L5971O465j4125o354J4703J8824J645j3536j4787j8956l9920
103823D56869o0109n3129k2426M644J5274K0618K7288K4197O579p300J004K2307L0320J4320j1358k7235k6931j6659
103805C98273o419l036n503n867J161R650P826p570k5637l1410k1011o774o115k3065m2343m5641l1797j4540k672
103786A37510P035J6725K0231J4428O343J772k422o661j558J5740K9517K5051J1369P327J2136R759j551o791k127
103767B93833j998j1956j6074k685J5278J9665J2758Q451Q363K956r632k0650k3793j9544q814P003K1037K5146J8986
103748C18330R049Q73k590O55Q033J1394O911J779L835R445J0404Q062J0191J6695J9029J2844K255p437j3437j4099
103728D12221j2125j5767k7594l6063k9515j4817q368j1046q296M408J3898J1571O247O517N077q152k8489m3404
103710B16303m8329m5208l3740j5939k985m913j6416k3019j8608p753N619K0864L3453L6317K9994K3245K1812K2690
103692A93387K0708J5303R816Q199J1990J6819J4273K672o881k969Q817R990p838l1939m3599l7846k4186j3371r016
103673A34329r482j1958j3414j0612k206Q041J1843M079q930j3047j876J4188J8781P605q492j6339j1579J101J2780
103654A04812J5404P725k439n081K759J6756L0938L8161K8945J39l4113n0165l8845j5210N51N891J3046K8211M2807
103635A90292M6131L9281L2147K9645K6041J3793n692k3438l2877l3494k5473r111P053O759j5975m4542n6361m9361
103617I4818m0177l6863k8283n939J7329K1779P046p271n268R046J8506J0037j4361l9309m8825l9688k1131j476
103599a10030J9325M1295N5997N4017L8086K2104J7575K4205L1188K4549j779l6399n6188m8770k6625j2155j2163
103582B4232j5335j1914m349K767J2105K7288M3796N2332M8818L7859K7682K2473J8384Q757m595r989j848P300J674
103563B87437j3623j7718n045M532n628k4284k8608j4964J252J0320J6277K1586J9787Q006m700p769j233O918R630
103544B62173M225o772j4640j0340M469J6969J7218P722l766j3764j9973j6175J94J8667K4141J5057N091N203J1130
103525C06829J1611L198p409j2303r668l292K946J0051K2240L8042M5564L3134N670j6500j9078q967l367q201j3848
103506C76652j0205P01Q052M113q595k0397k4733k5391l0390l8219l6739k0273j027M929j496n789j081O170J1057
103487A87339J6588K1620J6731K59j3386j1876k134J784n14n63J37p288j9913k3454j4072m794n655j0858j1580q908
103467A09463o129J88J1123J6840R195l345n814J731M980l266j3613j3186M38J9584L2947L0990J3553n398q328O585
103447A98538K2422K2902R089o440j5468j8011j4802m067J3158K9189L4015K3700M650j0978j5662j2330q861q458
103429B42586q346n893p92Q046K1193L3163L4975K5227J2625M264k133r460j1985l478R297J1230k146j7701j9434
103410C21238o104P827O793j0577k9244l1988j7288n0P285Q492J2937J7730J1823m006j4320r884k90J303k646r1
103390B68940J0304J6459J1165L057M245J3043J6345P655m464q292l348K544O535J2504J9920K1062J3479O064N524
103371D22741M674n861k0499k5806k1607k0906k8324l2745k5399j2686m436L76Q512K0440L0493L3891K9308K0131
103353C72297J5508K1645K9684K3474L604j0010o832j782j0599k3801k2250p683J929L03m146q423j6294k0795q177
103334C27652J7046L1662K4745J0980O036O780N123L971O711N970j996l578J4272L9489M5678K6012K134k677J0758
103315E76768K2134J6381l16r303l032N455J891o925l175J2600K0264J1534L348J0868K5266L1223K9982K8786K2282
103296G96031M310j3143j4397n703m568r369l023J5801K9626L1704L4978M6677N5998N4730N0454M9960M7868M2608
103278A210542M7059O9585R6818J08683J01887Q8670Q1328Q6880J06707J31279J44855J45774J52810J80882K20169
103263B973928K51137K71009K91963L21179L58015M05232M66729N35287N95281O36878O58257O58570O40476O13694
103249I677635N79859N16069L90922J99613k9546k62745m78302o56575p75527q29689q39426q27068p92320p24232
103235E148668o30292n37763m66005m09619l52736k91956k38915k02652j75671j41895r7772n8926m0651l7202l0135
103220A436478j4658m480q140j4824j1912m578n670j3969j6649r878l177l200n096j988O798J8951L1392L7243L0505
103201A443148J6941J0377J3736J4455N316j742O295K1146K4310J6095J6551L5946N9616O7967N9438M5982L5585
103184A891162K8511K4100K1559J7680J1824J0108J7564K9563L8377M4356N1758N6824N0912L4540J7084J896j6259
103167B331559l5744m2486k7119J166K5555L9261M4829M3590L6313K9819L1686L8915M1253L6509L4367M2678N6361
103150B728512O3180N6734M1385K7279K2282K6709L4163L7539L3946K4450J2728N840J1757L0922N1970O0428N1617
103133C321441L3554K0365K5150N2756R1857J17776J12751Q4002N5240M1770M1834N0321O7524Q9542J01916R3286
103117D401085P0461N0988M3100M0797L7531L6218M2960N6860P1039Q1588R0751J00891J09574J13662J15307J18925
103101E581737J23329J23659J22294J29182J45660J55899J44635J19524J04457J11029J27376J36904J37369J37213
103087G400267J42501J54176J72287J96333K24060K52430K76018K84559K70790K43591K23695K20699K23263K18456
103073A0503125K10288K09276K14329K20009K34558K71350L22802L62321L79009L95247M39232N10010N81034O32668
103059A5485258O70555P13856P73905Q45121R12683R70113J032246J127737J275375J472448J710941J997264K344040
103046C1331542K744784L169652L588869L989895M369923M726903N069343N426477N838737O346459O997907P850535
103034I1451026Q926224J0143022J1297473J2131696J2441121J2154801J1342160J0121208Q499679O290536L261199
103023A98060145n36232m569807q031453j0306587j1284119j1257160j0590568r501628q083081o425555m662400
103012A12811555k906381j167983O45544K625212M725718O722191Q304239R228836R417274Q945520P938815O420068
103000A73710608M232454J177130k674006o789552j0379221j2852662j4105285j4397441j4039267j3225948j2091239
102989G8565571j0792198r495049q312381p276456o355450n488892m635001l807058l061041k444043j962695j597997
102977A3337310j329017j132828r79201q43345p20146o16968n36567m73237m19939l71738l25458k81372k41820
102964E065674k04051j59489j05645n4043j8995q20J2943L0596M7630N6050N5367M9010L3060l574o3165j26463
102948D614085j63305j59668j30983j04956r3979q9358q0361p1111p5972j03234j47040j93404k31372k58707k77905
102933B432730k87781k81662k55713k16117j74189j36165j01727p0159m2289j7979J768J1206O586k787L79K0956
102917H87057M3277M8445L3410P403k3302n7120q6491r6740q0447m8795k4593k3451m1167n8331n7450l6683p961
102900C77061J5381K6382K3848J2577N723J7952M9653Q2310R5269Q3861N7022K3147j3155m4087n9972o0450n7474
102883F35048o3317p8304r1068q7907o3400k7438j476o31j7090k7471j9953p917j1112k8465l8523k6656l020J1121
102865E2421R303M353P926J4677J2221N36q345q827q627j3411j5620q056m35q149k6494l1557j1715J4253J9740L288
102845b518j1695o631J3370L0139L2026J9416q88j9325k4969j1628J4935L9901N1987N1112M2585K8574J0425m153
102827B52663n448M460J0278J785j1950j3975j656J1284J4159J1237J1330J3836J1754M713J738J0158K5529L4380
102809C86275K6428L735k1253l5112l0164n568L1310O3561P3670O0981M4333L8635L4576J4176j7232l2539k0285k711
102791F12816n129k1183k4965j0224J300q747l1475m4415l8781k5391j8388k0211k2325j6731m572O793J3224J6488
102773C58084J7702J4223O468J580M245Q720P532M060O989J4245J3464j45j6250k3370k1988j8939j5872j0037k498
102754C48213J243j866r087j5349j7579j5547r707Q82J6828L3648M1906L6234K2820J3741J4829K3215L4318M4760
102736E63502M9428M3439K8160R575r122k6324l5035k8176j2750o600j5470k4267j8809n787l00k038K247J6178K7410
102717E55261K4482R435p889j8995j8038k639K1956M4189N5076N3940M5874L7724L5839M2249N2065N8815O2308O6747
102699A118399P1985P3353P1482P5813R4852J26372J59231J81959J89469J86364J85597J99679K30620K70613L12416
102684C548204L55140M00142M47376M97658N52667O09023O56134O82796O82683O51868N85891M82792L45405J78105
102670A0675884j4205k20205m19486n90471p19026p97787q23636q02567p52895o94584o34577n68178m94767m25465
102656B718035l72413l34925l00135k56040k01926j47402j03829p7121o6492o6612o9431o7020n6940m4548l6244
102641E16957l1434k6496k5683l8190o0101o9087m7450o344K3563K5123R530j901o92P628J5993K1179K0339J0659
102623C43593n179j7034j4761J098J7429K0036P791p090j3539j2234r957r733j1978j9324l1310l8108l0603j5598
102605A53499r008j3095j3821m529K446l208j0580l520J2747J7620M899r342j0192j334N343O239N486N688N999M876
102585A46213O5j0089k1623k6049k0575j3023j2224j7342k1305k1138j9217j6648j1381k782O294J2375J3678J0503
102567b4268O343P145J5000K2668J8995J918j6890k3143j4828l807k345j0227j7047j6023j1254r499r359l842Q793
102548h1670K3124L4227L9905L5831J8835j950q678L059J5486J2157J251J241R852O542j3667k9158k2696o304j452
102529C5935o576k482J4948K6649J8229M56o806j387J807n383j2452n176J4855L1806L4059K4555J2205L02j1589
102510A63955j9611j8559j2210j1607k0282k9053k9890k7322k9082l1885k6036j0658O139K1077L8301N5754O0080
102493G9111M2114J1009j4114k2633j7245n355O209J0213K175j3011k3384k1630j1030J145J0798J5051R280p262
102475E1441k5336l2211k5472j5667j4090k2066l3360m1598m1498k7889n26L0742N1386N4419M4596L1128K0199J4549
102457A8747J4826J8582K0615J6406M327j4103l2150l7857k3983K40J5070J2265L877M005J0247J2340J1475J7313
102439G2242K8667L2654K5394J9031K1748K3421J1168j0142k5261l0538l4855m0313l6234j6352Q813K3265K2343
102422I5051J2549J134o783n842M533J3362O166j6957l8163m1035k7540j1403l42P698J4503J7521J6023J2078K998
102403E5551j7655m5773o1751m9771j7996J0482K5049L5032M8600N6827M6996K3940O837N760J0780O931o921j9043
102385A13875k0681j4986j0718j2561j9321k6913k9467k1354m248R536Q488k147l915J1370K9412L1456J7914M500k95
102366E9945j261j248N259J8457K6011J9246P722N880R863O79k8547n8957o4286l7392M606L7055M6599L7625K5035
102347A12291J9998K0404J5527K87j7559k6046k2104j3076p093n954o899o644k259P443J8334K2328J6332P041J960
102328A34311j609j1793k7491l6954l2441j8019l32J8413L2628K9886P096j6647j7597L628K2624K0544J138k1767
102310H5618l9657m7297l8304j2704J7378L7495M3072L8191K8091J7798J2279J1625R411N75j1637j9030j5383J55
102292A17676K0006K8270J4199j1085k2381j0586O219R318L877M404P465k705k5881m1637l5313j4676K654Q532Q404
102273F6760J3156K7723M2693M0340J5934j2089k2827j7942j3403j2215l378J3180K0919J1255l380r132r087j2418
102255A36089j7227j5553q231m752j1996k8354m4785m9321l7145j8005n994k141K282O465P76j0615p798J5265L7444
102236f3596L8550K3824P384j0145k9642l6738k0505L731J4415J5872K4533L3165K1039m173r710J2616L3528L2494
102218H6642K4638K6861K8211J5832L742Q506J6475N352j5310j6283O048K6292K8620K0009N822j7624m0807m0659
102200A72367j4576R173R069k519n171k844r670j9648j6054k749m01j3087k2153j6728r466j4103k4181k4855j4379
102181b1975k941K432K682J367K018P253J5386K1630K5658L1657L7034K9908N567k1673l2570k4367r239L380J1757
102162H4964J3092M239p522p724O368K0195K0941J3253R330J1235J2143R799Q344P956K671q543j5553p509J2672
102143A90351K9155K9432J6786M607O38J211O55j2K820Q101J2685J6909K0658J7684L553j2212j3321J860J6796J9000
102123C67356J5883K1720L7244N0733N3741M6924L3759J7333K667m724l782J415N122K697o512j6661k0339j8601
102105E85975k0131k6603k6818j2895M358O344j0629l3287m9876o0250o7188o7534n6333l5076j2602R52J945l697
102087A16655p739j0724j9413l0880k9782r936J1113J2156k991j1335j942J3328J9178J2212l389k0512k7028j3744
102069d773J0945K6825K6311K1182K1712K3287J9001J0899J021j4755l4689m5625l9702k5184j1054N920K6720L6606
102051E4647K3311r22j3601j1934j0793j5794j7877j3509j1205j4923j7333j4366j2718j6964k0163j3247M130K5450
102033i7811M2482M7150L7406K3152J7007J7706J3003O73o059J298J3061J5270O978l832j2325j6572j3618m956O99
102014H0712j251l605J78L234l231j1352m288J7777L3194K4407j800k4152k8909j7252K126K0112K9749K8580J9889
101995A64118R270l44r501j8979k6774k8129j9115j731J5216K3308K3469K4723L2242L9624L6647K3200J0823R402
101977C07469J6657K3600K7160L2565M4514O1285P8258R1748R7309Q9963P0881M9657L4393K2258N557j5795l5319
101960A002160n1462o8348q3716q6184o9952m5152k7497k2562k5769l2154l7804l4826j5045J8961N2516P1355P2425
101943F16946O1756M6179K9709J4953M075k006m004l603k902m651j2100k6618m4349n7217o0438n8273n8623o2081
101925C76753o1266n2408m2114l8744m0955l9413k8194j1246Q23j172j6205l0062k6657p013R003O438n361o880L208
101906a1465Q082O56m938L933J8054J9883P828o077j7073l0855m6123m8844l0791m118J1182J0112N337R146J9980
101887h6091K7858K7168K0622J3602Q902O675N948M920K387O86M480J3023J5892K755k1521l7974l4218j9248j1639
101868e5773j6127j9937j2026K686J1490R283N27q993j5569j5520p419L041O515Q80n250k486Q337J7817J9426J6710
101848f2388J8083K5119K8080J6326o608k3226k1108p475J108j8j741Q86J229m501p434J57J0183R776J859J080J0569
101827a0044J6388Q103o955j5222j3099n440L524R716O413q350k4804l0743k5887j8942j2094J493K3017M0505M1561
101808b0860K7743J0408l553j4922k3190k2880j1580M354J7092K6617L6260M0672K7602l874l4019l9644j8844P979
101790E361K0459J5042J363q572o137Q782K3603K2442N937n890J999J9448K4867J3454l52o039r160j7963k9213l3074
101770D6357k5492j1294M71K169n969j3170q242N257J1098J377j1721j0453Q035L1346M5836M4336K6380J109j3290
101751A24140n139J3799J6994o435l6765m4911k4321M056J5877O287j0793j9822j6771q375k690j338J98N191R099
101732A8281K847j4667k9198k2133Q265M0694N0773L5552J3669K642K354J764m997j3730j7572j4146o306J094N339
101713F0525Q042J2020J5334J1463k531k0775l4341l9819l9102l3614k3910j4011r808j0711o959J0329L7024N7171
101695b3673N7975M2444K5047J5536J0821M718M96O269J8840K1216J110l3270o0624o5874m8012j4880K0885M2874
101677B1898L8993J3438j4138k5486j8033j918J2445K0918K3617K1860J7812J4354J3287J3438J1090L339q350j8463
101659A40101k2026j8619j1971o706n336o547o554m580n990j4915k3837j8890L96J5354J0251o780j5413j0283l044
101640a5389l08L696J0306J0148J787Q72J7550L6564L5835J7540L591L812O265k74j1573k0048k5816k7831j7776N897
101620C4848K7304K8662J1375q067j7932j7277q317M355J0380L847l640M914K4196K7243J688k8873l2455q427J4789
101601F8613J7319Q376Q485K3177L8797L8038J6846j0388k3100j6560q642j7499l5896l9052j7339J1615K5877K0968
101583A09635L848k0024m2838m9521l2145m630J0026N153p172j5299j7168j2520p03J1155J0699l320j6932j9190
101565i0946j6396k1122l3180l9192k8498l476K4795M6706N9574O5073O2814M9897K9466J4840J6475K5830K2152j942
101547A82870l0192m1722l2524j3762K688J0331P330j778q359j0710j7513l2718m3696l5782j4640r95l536j0431
101529i5139j0208p446j0694j6042j3742m713J319J787L836R763J1012K366o025K35J9916L6342L7216K6233J3639
101510c45L975k591n415p469j7154l5217m4322k5499J4313M4394M4357K4871Q698K626j830q480j0741l806P997J6879
101490E241J8185J1517P69p582j0407j0485j0057o499N61L900r55m802M633K3176L3162K6658J4531R511J0907J0917
101470A22881O858Q53n406r138n984J874K576j1748l1049l6304k2449m168L454K176L049P474N573o380j6823j3363
101450f044j42P806M232m060j1028j7296k0503j3719p9M314p181j7994j0804N691R502j726r969o866l643q076j0991
101429a18576l355Q990J6261J7641J5454Q787J091J986J2533J9902J5569P028J915n739j9733k5501q588J8446K7677
101410h212J1854q834j5714j0373k630L963Q765Q816M475K218N709R690P232j192q790r428k390O940J1496J0211Q902
101389C2708J0498R643K905j877M270J6301K0703J3376J819p346j1749p972L013P444p663l2028m0655k7918j4450
101370b8978j3703j1280J0016M0580N5215M3435J4593j7511m0071l9952j5196J4724K5576J5251K559R62N855P231
101352F9306K506m742q879m505O338J0424k470k2629k9730j9410p184m372n309l454m069j0548j1709K539K0836K1382
101332e679J217j8459j7139M131K7732L7234K8958J2470J415l73k854j5134k9657k9460j0784J1332K2027K1383J5780
101313E4140N108j2162k7859k9832j7695l511L765O095P034L618o888j8159k0032j1067l06L790K124J429M627O945
101293d8836J731j0709k1722k3118j6298r817q266p701l296L564R569J6352K6851L7059L8669L0164J8245O437j0029
101274B8849l2669m9227m3605j5337J8148L9397M4361L6304J5683j5276m2474m7002k6654k443L671o195j0606K955
101256a02120K3240L0959K1680P213j257l745n575p852p392k963K538O167Q288R916Q348o31j4812k3721j9037n003
101236g5759O580J0637J2159J5431J7774J6431J3868J1325M110j0023k3486k7577k4370k1773k0301j4085l050N679
101218a06430Q552Q689P676L416k357l770r36j468p632j0416k422R876J4064Q069J862M385J3207J6987P004j2002
101198d3646k3095j3898P932K2257K0274J2814J2540J7460J8265J3577Q750M793j522q601j0188n170m52k261q483
101179B1346j1185n078O823J5528J5096Q350Q57p946k0743l1459k9287j5276k836K569J0278K2899K3526k5k9439
101160b6002l4158j0936J3647J9092J0996L440J75N5N528J5379J9302R706p268j9507k1816j5200r6K1319L8822L7871
101140F0349J2441k6002n3187n0824k5729n595p848j7729q680K0164M2687M0566K0399n717l4068n5001m8516j2228
101122a54518K3611L0459J8393J6723K8671L2669K3480K0914L2291L5316J2815j7193k5042r360N605N022k250k475
101104G5131M897J0422O286p408k1967k5684j5761l864l927j5355k4538k2150j1545L9R929J6298J3493j863k2567
101085d0134l4309k8297r035R542J4817M818j0725j9292j6385o499N399J8182K8980L0117J8143K397l251L248J0744
101066b1540R889K307n978j1639j1213k09J7932K8907K2466O198m078m307l230o152r138r409r376p644J919J6071
101046A776J8479k24k5848l4576j9497N279K2979K6828J7391m37j5646j6551l761P784M838q880j7370j0955L053Q914
101026c6424L17j2690j6661j2235j2012j9851k1495l465K5390M2464L9515L0742L1468L9301M0928K9535R856q666
101008A46017j8929j9951j6785j3632o975P885K2982K0830k903k8860l4510j9299j256N666J398p988j6113j5984n074
100989c481Q032J1077L230n148p840q512j0535j1834j2835j8323k5960k3341m510J8789L0778L0019K5408K0447J2198
100970B7659J661o231j1304j6202j6633m555J7283L3967L4654K2427N998r806k1672k4297j5598j196J0006J1760K089
100951D0010j4213k4247j7557j041O736L39m875K811J2059O441q220j1671jR666O517R88O337J8819K5399K2224J5852
100930I2373J0694L951p612k1135k9071k6429j7329j2698j8509k8111l0188k1310n207J5206L4700L8967J6706j9605
100912b4607m0801l4675j7840o916M730K7452M8083M4060J8308k204l036K156l048j4113j5794l822J2685K2358J8335
100893C1311J791j4040j1322J1715L3063K9366L223k0674k4672j4018l573J014L662O194M537l694j3438j6862j2500
100874h917p730j1008k1569k7902j8896K518J9720J9918R783P618J8861K7583J8572N73m131Q700J8078O114j8484
100855C9401l2604k5207k962K2226M0052M1697K5697L328j1074j4492j3226j0771p653q939j8897k9659k8943j9111
100837e1137j4143j6568j4037k950K484o340j6703j4884p576p685j0838m556P556J1243P170J0201K2362K6711J3805
100818f5885k980p286j515J423k140o236q063j0208j2512j0283r70J1570J9262J5110p9j4721j5192q59J3753J4698
100798h3113K284j2977k1765k0150r800L50l15r601j0257Q012K9698K9268M577j8451j7165L374K2532L0230L1629T
100778a0011K6674J3416k321j0729j0264r794j6449k4265k0493l877J0275Q372l514q193n83P960P804J749n109j3541
100758f2893k1072j6502M441K5391K5518P246n766M84J3608J2901n941k9917m4461m3028k6879m000J3218J6067O804
100739a34781m486r488o096M051J7703K9088L0974J9875O72j5174j7770o508R981K1441K2722J4408J288q040n906
100720c6046M633Q931k783k0762k6136j4491Q31Q769J1502J2727Q902K91j259J2280K9670L2886K0348N845j768m877
100700D9493n360j040M312M64j4613k8944l0395j9164l476R181J3081N267q613j6208j1829k576L034N682R090J0818
100680c1796P438L468N767J1785J2125L483q778j9732k8545l2972k9161j9421j2977j4878j8770j4488M47J9441L3457
100661a34107L6721K9774K0111J6418J8725J7368N141j3090k7179l3563l3779k5839q263Q185O830j1544k4151j4227
100643a66469O916J8079J8679K3361L1772K6629N333r160o70J5075J3510l749j5400j3351q963r550p858K414J5519
100624e7883K1505J4575o163l2030m1936k0707J6823L6407K4860M423q28L877m77j3901j8044m037J6438K7284K3400
100605f414R805m997j2920j0194j02R944J3439P806k578o225M073J7620J4728n470j8791p560J3602J7917L425p829
100585B9279l600M234J107j0264j6982j2771k482L541k475j7284k6610k0559p096j071k393K477J7826L1546L3596
100566A9K7678J9545P314q689j8560j5882r047q606j0747n218N467Q189n84q820n606N170J1670Q433j07o565p035
100545a1981k293M039P685M984n864k2014l3993l0514r502J6271K8479K0215K760n813J644J5751K2232J6701O403j30
100525B5060m72M239J2549K0188J9712Q279p179j7351k0241j9076j4677o569J676N901P870J0739J0908L853m699n453
100505C5257k700j0465k8317l5976j9624Q576K6777K8613K1279Q516r382k3763k2293o849N354J746j2925k5751k8993
100486i0920k1746o728R421J8289J7483J3291J2137J2497Q811M75p419j0690r531o088k526j323l264m305Q25R239
100466f2072R675k221j2467k960K2332L7435K6974Q095Q021K6195L4298J4211j8832l6883l1653j7747j0876j3102
100448b1577j7349j7763j3659p665k735m23j075m163p402p641m770k213n17N303J6746K4903K1039J0758P161J1914
100428a1128J5152J3563J4135J7490J3217j617j3665j2337n240m178p055n885k926m700p392k932M795M307n031j1495
100408a2922o990N876K0763L0925K8165J0639q465j1721J479J3895J1747r16r971o188P867J9988J8272L548j1161
100389A04830j7406j9852k1932j5257L308J5442K458k4034l5161k6070j9495k5898k6399n305K3344L6436L1409J9881
100371B99O306r897k1121j8163n604K466k82p652r170K356K3735L6468K0591j7532m3557l3447k717J6208J4714Q746
100351c7253P632L821p578j8590k1302j7203j0710m277r35j181K145J4931K9094L0973K0764R646r00j9332m1691
100332f1946m8513l1914r110J550L963J1664K4089L0287K8386K6482K7860K8027K4369J7736O104j2369l0110l4271
100314B284k2101m310Q599J6118K1599K3402J6868J931j4797k4772k3711j4685n279p18q91m860j4059k6839l3427
100295i9648k3876j602J6920J8315M972r308j3316p539j877m012q236M77K6212N0403N0423K8397Q881N654O096l221
100275D4115j1092Q98K4851L2572J5019n758j0828j1019k5508m8145n3852l2887j130K2327L1458K5733L887k6022
100257b5381m3500l5213j2053L692L890k325o825j0612j2796n058J5282L5215L8985K7494J5634J1296O744o417k2291
100238b4239k7142j6241K445J8597K7037K6878K1430J9154K6346L6337L4340J7434J456R84R364Q226p465k4272k8584
100219A22085j9914o045N173P557n02j1372j3877o755k4q69n843r375j1260j1875r006m444m947j0559j1281l088K431
100198c790n217j7131j5989M44J9570L3193M2098M3866L1872Q564j3253k5359k9805k9024k3104j8505k4098l3793
100180e9461k9000o755J0469N686n718K627K9081M6294L9093K0139N835m188j5470k1613j2237Q288K1718J5255o280
100161D3763k7062l4594k7772j4484l313K344K908p33n714n255N351K1087L1672L3727L1626K6271J3212m658j3950
100142G4426q864l083j1941k8519l1388j3972P745J7896J7183J2408K953j3054k7920l0143j7614J301J6139J9279
100124a7168R032n779j0692l129J094j1846l2581l9536k7050r346J525O657Q540M624j719J928K0022L9213M4332
100105b1879L5980K4170J3091J827o824q903o432l733j130M04m610j6210k2583j5489n488p739j7525j6409o92J4208
100085f5966J8608J8866J7922N484k0596l9097k8645J761K1462J4698m719j5317j3314j2270k3513m1146m6281k7280
100067b39343M641K4785K1953R717O793J3771J7720J4286J3313K1956L2341L0881J5062l358j0517l949N869P155q87
100048a7811r558j3461j6144k0866k1971j1323R985L1416M2210L7125J7781n771j8556j4068l364m297k1498m1504
100030h1675m6304k7917O419L6927M3441K4191L72o813n20J502l082J119J6954K2650K402k5819l0453p140J7581
100011e6165K1316Q939j602l765n973j7016l3264l9476k3203Q551L0735K5413L333q398Q93J5602J8162J0876P264
99992c7778J1626J6642J5372O502q501k4810l3257k8315j5938o129Q45J2549K9418M0955L8713K5035P047r272j6260
99973B4444o601J4400K7057J8176r79p606M423J9452K2041J3233K888l828p378q901j0761j6993k7067l2284k4336
99954f20o259R593J3781O802m731j4798k0359k0036j2898J95J3784J9015J1857j60m168M067J6881K5910K9616K7316
99934I4788J4541q436k9902l7613l2846k5376j8822j1560q522j6865k8268k1779P141L3451L1165P420o248O662L0737
99915b0332M1397L0983Q339j4681k7787k3336n419O344m588k8768l8710k3852n472p846k4411k7500q041J1981J1121
99896a50578k907p048M920J8266K0879J6442J3332J3311J5490K1533L0187L3512K5817J2574M052J949k169j4886
99878E4676l0864l6136k1939L943K1248J6393l084j7335j6456p951k823l272o811j2898j9372j9822j1911k472K465
99859a14421O389J2984J5233N385q342q347R238K9237L6359K9357J5445J565n860k755O268J0933P980L567J412j875
99839D9752p032r143q961j4733k4906k2002L801L4475M2433K3720r85j4811j8966j9625j6490r260l763n149j1084
99820c2729j5411j3767m907P471J4341J0161J750J38M175K876n187p473L277J7388K2182J7055P270o682k3836l5492
99800c7400l4394k5362j6807p335Q730K7989M1624M8096N0122M3282K2327k881j4142r748o925j4432j8629o161J3042
99781F0996J9283J1061M140O074O792l085j7208k3439k1163k0243k5485k9884k4894j1590K272J2609K0222K3177
99763a0365J6650L621k967L504J0973L516j4376k0793n139J8050K8378K2441J1285L987J700J506j647j1767k3833
99744C4724k4995j1727Q59k421j4077j3397K973J4846O420j2824k2479j6207k924J0057K2899L3547L3417J7983l525
99725E3149j4858r200M002R521K257q327q331P548L1790M9682M9389L0748O300r269j2722j3197j9127k9480l9883
99706G9992n0004n8454n6942l9722j6383m297p264j0961k079J6345L1837L6598L0265J5911o8r103q004l021k082o299
99686f3735j2672k0043k6232k4240j0130P323J4218R543O507J3019J9737J4298P66m992K474J1067Q924N62j187O846
99666d7947J6766K3027K6909K7658K0212N885m640n584m355p018m687J2008L0927K8327J239k6646l5766l1619k7159
99647b463k0126k328J8590K4382J0986o356j3724j2145p912n86J2418K5549K6947J0213j8410m3966n3121m2692k0054
99628a14798M023K2250L1643L1716K4894J6266R361L360l244q651j0600j0564j0721q578N14J5538K8036K8264J2051
99609F0760j5170l8135m0270j9218P849K0748J6891R508P705P424L117j549J60P675J4820J7902J6588R217o792k9009
99589E0221m7809n2417l9745j7643J391J1036J5315K1345K9895L5271L1817J7456n783k9207l8686k7228o494L133
99571d8132l436j0456l816J0049J5525J0829Q197J3339J6853R287m710j4007j7058k1657k9726l1132j6861O685K2809
99552h7418K3052J5107J1439J4662J6902J0709k145j1472p681P532K0054J7834O506L102J1909J6780M187j5630k1685
99533C3744r610O883J7012K0000J3321p743l4374m4775k9762n973N660M304J820Q49n930j9120k8667k6781j5630j866
99513a26638Q671J0723J850j2599k1831j9471q654L165J1733J7452K1387K1783J5919O151J471Q980K4242L4499L1585
99494C0418J8094K218q073p950o50J730q476k1468k1613j1064o480j0639p068R102J5873l886l2070l7525j7771L097
99474a14201J1273J4853K0987K4663K4034K7027L5429L7154K2280l327k5369l3689k5758p913M839O38j5083k5805
99456b7968k4077j5372m434P473J2434Q57j9481k6576j2823N003J1008R102Q384O758J344j33O928J1765N655O40
99436d3513J2815L4498M2162K9081J2469P756J1236J1265M639k779m193J782P931K527j6952l5587l4378j2352J0675
99417C9082J4428k654k3883l0719k0032o733o260j4843j5408m527l09j5125l3048k8517J86L0896M6164M6733L9533
99398A4964K8428J8252J4068J2921O660m853j2756j2644r305p088n390n000q621j2983j0379n66Q222J2466J7491
99379D3887K5324K8610K1479P918n562j7516k6738k7368j5398M300K1425K7122J6727p034l1171m0771l4286k4070
99361c3122j8741j3612l446M437p69j5939k4907j6707K784J8194K0721J6121J6932K6845L5151K9155Q897j4697l2033
99342E264l8407k9849o402K1034L7556L8877L1011J7786P89j0354m421J1602J6030K492r733m225R447J3571R183R343
99322A20594J5305J6024O373p904j9056j9741l023K6815M9299M8553L4792L0218L7276L8409K5906J2618R164Q540
99304D30162J730n955m815L103R090J2372J8556K6348K5978J2823l453p522L946J5857R682j3986l3129k9061q192
99285D63534Q972J6115K5624M3768N5433M2233P874k4685l8287l5279k7076j8765q108N017J4705J5883J1262Q112
99267E66332R372J1825J3019J4977J9313K3247K3742K1798J9449J6545J3875J4532J7011J2024o332k9220m0802l6579
99249F84128k6981k2669k2735j9218r135P1k897j8801l0582j8263J4727L9100L1801L148j8255k0300j3654r689r934
99230E29862j5886k9308l8528k3793J3410M1497L2977j962k9196l1341k0904j5752j6021r833O683K2253K2295M199
99212D40652k0853m0011m8969m9039m0320k4221q705j766j026J290L919k038j6567k7605k7668k1885j4853k436J5076
99193A12975K3701J2181r521k1032j7720j4623k4538m1147m6234k9376M76K1914K1648Q176M05L772P254M922O040
99174A9273J5806K0046L777k3308l6031k5233n631O573R799R235O018k86o669r620r457r810j4794k4685l1180k1969
99154a28146L418K7404L2617K1696R122k23r759j3415J47K2537K5991o53l2286l7591j7627L31l89j0540j2758l47
99134a20471K1156L8984L9011J7856q431j7073k784J8303K9515K8261J7465l937l2567n3118n2735l8238k6142j8493
99116a63438l641J8777L1122K3439J0702J1762K2022K2600J0139K62L186J2703K0921K7569L0055K0235l31j4995
99098H3089j2271j384K548p67k169k54K07O91N544J0173O430k678p214p698j3894k5965l1328k3087q432M784J6452
99077g223K4213J9287J659j1637n423J2819K2104J4174L40o700q106j3575k6639l9033l8729k2267J265J9231K7284
99058c6956K9614K8895K1496M859j4581k4766j9136m153M072o348k8947m1627k9364k144J6468J6673R318O209N508
99039f4910N55p392j2232j1869p802j923R96n458j8967k5712j5882K887J5310J7381J7274K1031K6835L1926L5637
99020b315L5035K6005J1138j52k504n75j381m650m572J017O867O051k034j0499j1987n986J852O553P576O700N810
98999F7949O605Q531O951j380j0503r713J645J0846P691k709q533o504j834J378J453m370j4939j9797j0100N576Q180
98978C6423o210j8532j0299J2952K8873K3811M264j3249j6548m197J4355K3887J4964o647k5658l3697l5370l5968
98960d6846l1149j7084m939j0859k9798l4797j1720J8088K4868J1727Q971K8860M8240M3041K0464L459j808n749
98942A2969j1959j3088p463k839j825K709J4098K4442K5318J8175J0175N505L428j08j0172k6742l9800l6632j6154
98923d9963Q495K2245J8502j339l0065n3895n7798l8083p191J7622K8775L0497L0238L1039L1136K8633K4786K1000
98905E4634J3889j067j9051k6566j8308o331l945o898k267Q483J0107l046j8897k5774k5334k2890j7883j0524o685
98886a28353q284q180j983M575P695J4695L0830M5852M6043L3451K0753J1555q69j7042k6653k2610j0537j926l058
98867a4046r851q594J3558M9940P0733N1123K728l5853m1336k5636j1166k914N519J2424J0673L371P42K185m365
98848F9235k2397l8036l7149k2603p857k94J530l73m366l840Q210K7128L8035L3221K0776J1272L717p740j9913k3866
98828B4690j8853j1757l631J1023K9237L5998K2587L68j1496p056L859R262M585p612k0300k5390k0081r922l177l380
98808a046q302j2511r528L193J8521K4412J7446N674m427j4782k4737k4741j1019L125M042r59N969K5301L8423L3080
98788F7134J5760j760j3472j5066m735P435N900p893j3554J2J8241K2982J7475J5735J7972J3294N50j0675j7637
98769A17698k6585l6283l4872j8242R8M517n299j8179k5603k5103j4908N506K8893M0741L0857M610j9449k5656j6022
98750c3281p168j1297k2696k5878j4290L735J6213J9100J6383J4041J6077K2084K5782J9264K337j4308j9160j2586
98732e648n818o512r040k294J4665K9528L0492J9038O063r91k060J650R136J3718M475j9833m2680m3238j8203J3724
98712a3828K9368K1269J899r509m782P370J4078J4474J7164K2305J7429k696k2510k3932j1795o357j2644j3810J167
98693B4660J8596J8393Q63j6065k0172j4567p200j812K02j824m198L17J4123L0107L8151L4460K2366O373j0559k3359
98673A08855k3143n080K1469L6544K8385N938j2646k1523k9357m0688m5876l5116j4579o4J933r33M31O026R460O101
98653c863k658j0406j0974m961O74K150M903J4978K6916K7616J3325l621p642M414K1946L0833K3362K812j8118k6179
98633H5507j8512m394M900O247M160L339M396N530N979P393J1603J6417J5200L552j4369k9789l9081m4771m6950
98614b3643m0840k6148j2044o449m895K335J4257J9195J1707J294p8O443R713M542k463m239m016r163j6993j5232j33
98593i6850J3132P248j2376k0847n401J6539J8884q76k1303k4467j1548P526K6120L8502L7778K4567R938J491p056
98574A001k3521m0055l9571j8063R395K5563K5880J6105M226k689j287M476P272N407K064m141j7654l2471l2791
98555a10854j5367J16m231j7266j2164J6026M2901M6425L0313J0607n863j9097k3778j4366J600Q177r7j2183j4282
98536i3383l440J2993K5730L0140K8403K5706K2458J2768n353k1500k1657n317J2282J5907L790j4164k5750k3470
98518b3857q693Q262J6424J4556J0117Q031O093K414N37L361P165O191J15o182p628k325N965P310o500l0417m8239
98497c7300n0207m2421l4244k4155o569J3046K1395J4866M370J750Q351J7345K0295J1402p000k1856k0017m254Q049
98478a27154N276n467q776J561J9253L4057L8959L3012K1476J0477j56j3734k5226k2288l967J0722M372j3527j6496
98459e7626L683K4912K2833N69j7416j4513L936K2245L0270K6276J2015q517k7014l3414k4568r982n327j6931l3372
98440a01941l5462j5287J6467M1650M9800M2226K6668J2236O298J0226J7412J9137J3238M698j753n906q746r708r411
98421G1842j0811j4291j5233j0867o375p964j1190l940J7118L9486M8021M0404K5430J0674k130j2632k0186k6176
98403A11180l1447l1001j8419J937J4149P884p757j3887m212P863N154j4133l4516l8134k0929L980J8631J7446J1735
98384a4476J5104K6143L0425J9820L190n845n851n164o255k739O870J2707P167k309k891N098R074K708o583j0768
98364G5425j2079j5582j8607j5041n494M104J0927J5638J6931J2917O363J632k471r534j6155j4779p147n650j7057
98345D341l1922l5180k2094J65K1080L2238L0072J9716J1981J0568O785n787j6094o728J9254L4789J9150j5316l6043
98326D0975k7735p328J214k112K480K2695M0526L6817J8113N981N434O56j7252l5731m0719l5682k9601j9361K65
98307d0365J8026J6245l298k0348k2999j7780j1959l104Q375J2511N335j276L687J3389J4428P357L110L525q23j3610
98287b9574k5295k6003j7980j1108j0559j2351r277O61J1974J8478K1448K7118L5533L7880K8435J3095O73q736j9240
98268B5172k7590k5665j3187R09R869J3728J2194K637j1405j8337j1461J300O723K079m228n577l827k538l10M410
98248d5104O129k042j4552j4314N376K6085K3316j002j8867j2468M537J0346N326M364R716J0703N703M035N740l42
98228A2685j4115j8961p090O777P722J860K685Q923J0232M782l340j5195k9673l3073j4407J3157K4726J6113N788
98209b0404M529L105n383j0745l482P725Q552j116j0550j3044p470O810K5323L4988K7165J0622Q57n30m569j4629
98189C7754j9990j2873j795j540j4758k9297l2170k2263q907M0O075J4537K3498K3996J3167J209l45O057O749n440
98169a6296k1457k5351j0742J2550K7279K4850J3129O379Q077Q815J931o484q034n375p322j4974k1116k0959j5739
98150g0839p591J365O491N242L267P842J6306J9751J7407J7123K0826K0400J1216l02o807q629p525q11J1964K3238
98130G9934K4218J2381j0278l7961n6545n0163k0691Q685J8738J4656J1641J0559K669q790r842K605J6750K4860
98112C3426L0904L5886L0337Q590k0063m1545n0463m8387l7398k1566p507K781J3589K5263K9734K2140R825L059L114
98093B1719O025J0915J6594J6819Q929J817M582J1319Q795l467j3162j4306j3128j3797j2265r091j4779l2834m7145
98074f6460l8088p306K3317L5372K8698J4421K685j061M506J5531K4025K3617J4095l65j5408k7149l0419k0762p59
98055b1510J7809K2829J4139K880l339r191k0322k9150k2447j937J4404J4619N840nk609o623p950N23J4161K0696
98035B817J8161J6739K1723K5614K0079O540q442k0022k4149j8607r452q223j6834k2317j3272M291J4494J0382j357
98016a835j0185r410J886J6873K3308J5042l01j0851j4602j6766j6559p426Q772J8744J3893K160k664P46N87j0638
97996G74k3959k3577p876M901k735k4209l5103k3915n518K110L061J2976L1355M1027L3390J7709L553r847k1404
97977b7287k1019m673J4653K1963J7900J1688N210l568q486k041P626K247k0613l9639l4305r159J3479J9645J4742
97958d1637J0740J0677Q942J972p463j6437k6047l5419l6186k0339P200L1045M1263M0207L2752J9218K293q018m609
97939A0154O562J3676J2247M788p354k2888l4574l4177k3484j2858q185n231K677J6313K9467L2579K0293K94r829
97920i530k145R342N969r082j4514j327J4804J6452O634o47j613k798o272p787p884j2250j8601j4468M985K4359
97900b6373K3460L595j1646n008J3333J9798O391j3812k6901l1593l0891k3074q076N936J1085R441P136M491m73m150
97880g7331j519N835J3548K1488K9031K9255J7945L381l372k827p97N131J8063K6987J8390J2p303j448r19j1733
97860H1817j6493n138O625L990k070M670J5684R824j3385l3128l6138k8696k1323j6445j2079o449J879J1013J4704
97841d1138J0778O214O865Q203M320j140k620l201n748j816J5571L3933L3014J1658j2623k8314l6843l6140j7998
97822e7025J2487L2314K5223K29k1313k7502j9503m320Q492J1222O689O712J6283K5063J9908J069j8393k5694j8372
97803b6431n279J194k034m658K907J4836J8806J6408K0670L2574L5809K0255l405j9699k6155k6687k0087o107P301
97784C0218J4522K0838K8697K5517Q89l0836m3338l2008j8198j8567k6078k6273j8283j1022p876m805O82O039P512
97765a02370L172n765j3476j2065N51J6504K4719K1470J2862Q048J1350J9381K3687J7365K106j1009j0960Q74J0382
97746A6826O526m012m166J0238K2164J4258p887k2461j8482n466L462N717K964o697k1310k8700j8913Q94J3848J3135
97726b8062N493k480j0619j7246j6314p447p49m776j4194j5811m738J1035K1138K2182J6162N756m832q902m002J288
97706e7118m795k0146k7195j4194Q161J9703J5639P730L486j705r731j1887l868K995l423j7068k0863q513J0997
97687a31795K7435L7387L9660L3392K2638J5097J3773J4580J2848P763P25o088r937j0311j0148j0951j0058p214q345
97668B0451j5421j8235p182R516J4229M613l927j719L780M311M003Q123J0902N108n124j1383j3542j5268j4148p557
97648b8470k378n979j1391m994J2400K5376K4831J5922M212j0713k3093j8572M789K4847J9166n706k2815j9427q387
97629c0382m559n119K38J1020J7876J6877J2595R333O941M498J748k993j0866j8103j8233r162N498K0681L0164K4964
97609F3016J359k7321l7445k1153J529N839o866j2264M287K9785M1417L2339J3222m404j6443k0278j1306R842L1764
97590G6919L9975L0039J0146q751k1686k8465k9503k7325k8463l6702m4894m0959k3782n798L645R407J8677K5623
97572h1897J8374k426k2967l3166l3367k4274l041K5807M6917M9825M1181L3590K8575J9076M158q966j6041j9839
97554B1519k2577k1959j6559r404m055j494k152o687j3012j6187j3237n619L634J2214J7556J7602J4142J2348J5066
97535a8861J9867K2443K0103J1316l963k1099l1381k9130j6707j001J2318J9156J5879K759j2887k1623k0260j2787
97517f5858l887M678J1151J1803M955m427p219J033J3996J9238J1282j085m037M662J3091J0810J054o804j0664j4030
97497a0258j5601j0757j993L000M722J1830K4212K7896J4589l456q150J574J2029J4268R688M26j2047j9590j2905
97478B9477K584Q869j357j4169j3531j757O471K845r545k3175k9684k2186l662J0263O078j1433k4729k3057r791O048
97458a15441J6668J6447O531j676K530J4322J9620J6805J9231L1818L8558K3244o488k7026k5514r113P358J2518J437
97439D1829j9705l2619k3052L67J4597J1801P824J6237K7907K7026J5695P072J202j3215l3029l6059j0523K4725
97421B8080M0443K9048O171j2320k2443k5183k1353j5224j3273j5683j5529q691Q88P312Q791O805M719P370J5792
97402E720K2449J9743J3545J7792L2811M0544K7829M089j2696j8047j8251j4273l355P230M047j3022k8041k9391
97384E8723k2204j5805q600O642K7745M1206L5398J2603j2254k5003k5303k4825l1243l8742l8501l2042k5369j5318
97366a32892M992K8643L7782K7067J0844K281j008l949j572Q591J4054L011j5044k0287j0061L08K225K846P756J0644
97346b3769N951j270n775j1618k1996k7966j8142M315K4032L1082K8236K1344J1004l331j6667k0989j3554n3J1321
97327b7845J7834K2677K7027K4593Q377j7463l7485l9159k4306m723R571J4743R956m125k2945l7367l7280j7895
97309a35815J3871L9437M1933K4022P143P267J6568J6958O261j590r65l628j8151l3669l4131j9882l963O951J6102
97290e5281K4568K7882K4499J7333O337j0554k7761l3319k3048n536Q994J6058J1830o641k9906l6597j6208J5518
97272i1832L3487K9941J5535R92j0373j6289j5327j2422j3177j2768j621J7571L0521L0999K7867K8315K5623J0440
97254G7482j4555l8064n1387n0772l6572j6953n158n102n336N479K3243L6561M2969M6039M2089K3791m050k5765
97236D3939l3619l3938l2495k6410j5327q057r326r833m21J0980R259m789j4660j1314k998J414O054J7101K8171
97217h6269K8092J8303J0684R467O932j127o845k634O709J1774J2273J4378J8029J6125N624q344j9806k6376k6067
97198a9078j7650o565k992r567j6478j3686l933J401l544j3756k0224j8010q842J116P301J2396K3012L8043M4930
97179b6126L3083Q318j2471j9308j4872l420J6003M0926N7656N0677J9378j8893m2384m0333j8769M037R984m134
97161C9352k2336k4245o377J4394K0115J0348j598o750q685j4537k3782k8249k0979l812J2473J6437O822n709j0316
97142e7434p416m370k922J156O734N868k955r532n858K221M272j40l921l852j040N352J5143K1249J6637N524j504
97121a6788j957j716k790j904j270q801k4351l5445l1183j3653O657J9966K0519R184m821j1651j1615j1531j1673
97102a34823o639J072J261p437j3753j0759m297L05O916J7191K3379K0992J7089J7244J6086J0322Q763J7346K5867
97083F125K3257J5533J3490J2476K443r484p242O134R124p456k7907l4503k8397k1413j8419j5341q394J01K971m775
97063i1677j7136j9247l964J8059L1491L3474K9283J9003J537j4062j6909j1226j0212j5007j5150q528m192m713k667
97044a01843L336N690L892O847J4793J5826O435q52K494Q835J0079J0089J2213R419k384j4358j8653j9720k1575
97025f9437j7786o287j8p669j5838p227J2905K5278K3599J6054O956m431j1286m458J0820K0036K0363K0386K0191
97006C2151J0166p958j7312r527L152O714K589k508j0627k3957l1640k0191N708K5496K6649J6171N782m441k0049
96987a3632l5736l6642j8746J522N542m974j3241j1717q492q661m057J0832K4641K2518P267m016j044J1139K1921
96968e5576K5041K0673J4245J1243R052n54j6035k2522j2528l91k539j1371o036J5018L1241K9793J9347J0312m93
96949E7920j6922k9699k7093j1355M287R773M021p230j4903j3796r449j1501j8755k0004j2166o342j0173j4636o775
96930a54798J1904K7737L0354J9895M365n083k320N768O174j476k397J1484K7794L0719K2078J4135R542J906q633
96911D9148j4737j5871k0221l0712l8421l2657j2083J4620L4372L7389K4587O724o817j4830j7463j1016L389J3937
96893c0662J1294J876k392j152l55L191J5781K9024K6425Q231p250r441n942m053K30Q203J0442K276p075j0341j3544
96872B4766k1306k4917j7657q881q167o970O685K3987K5006Q350o695o787K075P722M939m720j4640j5324n641J106
96852c7069n713j5396r402J0523K5843L0241L3473L5153J9674j3960m0088l8031j7858m3J3564L0437M2787L4370O522
96833A05027k1115l4152l4213k8812k2984j8822j3338m37J6415K1569R179j779Q251K7012K3618p251l6238l8524
96815d6594k2372j0364q593o195M803K0147K8744K1339j242k5018l3675k4693r116L648J1602J2075J497j3595j8147
96796a15749o363J2678L0528M7095N8024N0783K4235j234p102r76l716j9328l2136l0190j7981o604k198m628r429
96777c4291j0469o611m767j1415k2708k7423j7904M205K8710M1136L3224J3369l42j178Q14j996l130K363M219p926
96757b2120k6003l4147k9156j6859J526K2283K8931J1245j1599j1161R022J7703K752j3116j0463j34R39k736k28K208
96737h1113n824j5031q193J1379K4257K4254K3158K6332K3466R215l536r40J1340J5436M487j0042j3031j590J4299
96718D8323K2478J7374P10k1344l9291m2592k7331k634J5288J7762R675O58n034q622j2173j7042k2739k4597j6846
96699a07977j201J1945J4479Q954K989M1l27J708M586M177O74K317J4086K5651K0810l65j8542j7860l681P807J1206
96678a8523J4428K1940K5527J6227m39q431J34J6244K5768K4723J8745J1808K763p590j3637j2404q767q683r789l534
96658H6510J3065L0972L6521K5435Q029j961l565r128k6100m3927m6396l3917k3927k8311l9619m2961l3141j5128
96640a47549M752K1015K8247K6613K4992L0626L7403L2604J5363K26p38O983Q325j643j2177j1737l123J060l619p058
96620E0565j37R421N294j4768l4251l8476l0771k2667j6288n937P505J4838J1577L662k161o410j1617j4989j1551
96601a07161j495J0139J9358K5076K7135K7246L0158L7107L7460J5632k7150o4103o5994l2646P166K7559K7791K0597
96583A3875J1380j448j4218j9829j9376k0386k3315j9962o965Q028J6607J9276K2204K9485M0054M7704M4163K7158
96565A54435M474j5155l1981m8392n6795m6986k4173n567K087P356J4362J4835N630k499k694l160r626j2124l551
96546e9524K953o291j8947j0838J8367M3599M6973L4023J7716M186k964m44P460J1363R988R602Q635l368k7012m6223
96526C9254m6864l2260j4833k054L767J900l507m693j095j229q229j2564o226M662R791R398R799J1353J1669J4763
96506a7198K4358L1471K2526L45j5776j4063l338L159O723J7118L3907M4711M1111K6972Q997j2421l6873n4196n0966
96487E6567k7884k997O715K162l759l727l74L473Q954J4619J5298J1804J3212K2325K5371O677k7839n1804m5607
96468B3186j5634J6201L4936L9664L4942K4880J5025J1039J1764Q866k347j5030j7737p384P775J6072J0698o561
96450A90355k5250l2068k1923k692J3925K3130K4366J4068q756l2394m0397l1725k2053k2011k5171k2278j5909j3307
96432e0090j4237j4394j2862q026N505K6469M1595M1135L2342K6415K0607P278o808q012P68K760o363j2644p529q05
96412F3104l991j4659k3818k6959k1720n964J5069K9748L3976L3878L0292J4570j1733k7447j6469P520J6455L407
96394I5259j1632r754O005J8981J7696L120j5790k9791l4790l1334k0208k996J2602J6023P288l48J875N011l657
96375B3560j9613k6108j7078k078J1076K4662L8515M2608L1040J4767R715J5811J7413M235j6321k9934l2243l0492
96357E9535l1411l2562k6308r537J1611K5632K4472J1031j758k247Q062J6695J5295Q444N098O785R229J0286Q588
96338A16940j097k0331l6220l0840m825J8788J9633P89j9868k9591k5036o159K1923M4523M6665K8715O161p366j1918
96319A10886j5933k4156l3031l5639k9642k0417j5587j6428j6588r680M254J9849L0778L2835K6678J7674R346j253
96301C3946j5394k2524r844J6386L1962K3222K731j1457j9745l1324m0691l1900l979K3993L5118K9450J4918l296
96283B1572j8735k0482m009J8910K8940J8102k965j5944j1699L042J4456J5884J1375O218J0p788j1671o180N056
96264D4092J2723J1997M066q770k2466k8964k3347j1947n014k217N339J8570K6317K1149J0571O993J2186J7074J3573
96245A01925K108j1067k0673k5784k6832k1198o541J0386J5801N952m632j268R648R459n565j9731k1170j5434j1984
96226c6600j0313n911R00R332K1644L4439L5505J8828l765j5022j1344k062M342N124P29k952M621K4370L8403K7953
96206A38221j123k3749k6878k1968k3353k7982k4435j1504K494J2742J9922K2525J7409Q087L644O795R399L559p634
96187G6171j5046j6038j6028j7841j6131o360N104O958j161o316M04J0421R021l180r863j292J2728J7212J1184M287
96167D4234L8o258j4062j4140k695J0141J2389N313L75M868J5845K4862K3990J0840o908j5547r509K251R554J4492
96147A10073K2593K6742J4190j1959l3294m0185m0718m1503l5525j8324k386k117j2920j8184j1423R3R088J4158
96129g1601J5146J3163J2759J5060J2590M25j2408j4448j0531j4620k5484k5153m553K2617L6350L0588J3149m811
96111a1762j5099j6281j5050j7230j6939l785J8629L3138L1100K2287J7839J5204P080m976j4405j9100j9123j2236
96093b0709N13J0946J2783Q997M878J091p61M676J5046J5703j283k0513j9729M08J6502J2177m208j3208o058R930
96073B7181K0528J6794L004o890m568K519J378q782j6041j1721L39R980R502l098k2115l4855l1586j6576l594N59
96053f8042K080Q454J7348K0809J6247Q927M616K257m413j6635k4017j4466P687K2260J8112Q923J3763K9206L5389
96034H8505K6342J6494J4696R770r445l3880m5935m1625k8784j0953J2466L3141L5984J7527p609k2577k3961j8750
96016A1406j2436n470J757N917L730l640j0367j1605r739j2241k0834k5924j7116K040J6536J8445J6084K0438K8176
95997d843K5654Q103j2915k2712j8177o207P116K0029L0201L3271K8085J9084J0786K431q947k1671k9406k8880k4885
95978F117k4869k8858k7842j4369O859K2372K3751J4577L201o123j2115j2462p357l436o159r466j418J9037L8850
95959a9710M6089M0428K6161M873j8733l2521k8706j5785r071j0903q631P458L1268M7031M3320K1116o555k2284
95941I4845j7354j46J0835M152j4738k9704k8706j4176l24K050j527L060J6139J8880j726l0233l7832j7401R339
95922c4567K0084J4465N207l53k348j386R36n10p936j4210r947L972J6383J7921R138k757j1322j4605j4153j2093
95902c8081r783r453j4917k6888l7624l4471j1507K2907N0368N4632L4043N842n829O550K4110K2463N25k0293k4020
95883a1426j5205m901M010J1213J1495L175n180o687p089j3437j9685j6295p866o278r624m275J1507K1631J4169l603
95863e4351j7673k3372k2274j3679J046J2437J1602K890L91J1972L0660M0570K9396j009l2615m3582k8128l075Q711
95844i0083J92j5985k1911r970J2073K7475K4807R643q14K316R499P542q05l96J4924L3411L9647L0998J7106P657
95824I7326M042J243l879o903j572P037J819k5338n5877o0304l2858J549J8595J9828J9554K0504J7100J3547J9518
95805E4931K9717K6886Q943m433q63M449q933l4818m7557l6558j7102o522n340o261p555q181m60J9414L8313L6867
95785C4937J4364p409r012N552J7806J8467J3858J1170P497k322j3933j7299j0503k266K50q77j814m653j0932j3015
95765B9866k310J4960K0785P362j2444k1117j5743n850Q80K700j046q975j3819q831J815P029L653p74j081j330n733
95744a0003j1395j4918j8404k2510k0506p428R303J7010J3230O406L142K645L070N256R106J3087J8524K7978L8080
95725F1673M0604L2911K1312J1845M100k939n777k170L071L018m276j6870l1546m0864l4526j1738J2051J9565J0731
95706G0175o17o520j1471j9424k5297k3408j6050q506j665N376J0457J1685J2024J5283K0287K3736K6248K9742L0348
95687A42403K0588L29j9200k5611j7475l594Q536J9502L1366L8016K9047N491j4763j4463K468J5775J3928N423K874
95668B40640N922O954N651P330J0495P240l737j4356j9464k3000k7678k6552j2148J0478K7234K9897K1604Q955m216
95649B51249j4182j5719q032J332L665p46l487J332J0794J7770J8313J3467O801K364L214R568J8324K4572K2955R741
95629C73295j2010k9336k7783o585J8855L3408L6614L5958L1543J6670p749k8500l2234j7429N910K3465K4992J2893
95611D51977K419N576J4806J2049m790j6134o792J3301K3037J6614N565j38j495k292j546L632J2856K1353K1909
95592E71907J0636o023j4076o932O279J2823J2340J3163J6639J5750R534Q515K1149M0791N1567M5595L1284K3925
95574H64866K8942L6754L6580L1790L3687M0986L7938J8607J221P381L4496O0265O8877O1133M4171K5320J4038J6470
95556A463522K7805M0291N6134Q0427J05195J16483J16240J19923J31398J38708J38381J43841J61684J78413J82588
95541C201033J83886J96201K15903K33088K53462K90859L43517L93741M28232M45839M48357M36331M12337L77510
95527G860296L26610K55908J73100R0154J0580o5537j28579j64924j73586j64496j41105r8186l7744K6773Q6388
95512G855652J45919K13078K87664L65835M46339N27179O02510O67022P17793P48795P49490P12495O38080N29438
95498A5207289L89373K23988M4208j38028l09217m48826n33366n52289n16636m48705l66108k76196j79076p1916
95484A2024495M5688J67868K87294M03824N22019O39271P44883Q33192R06536R57819R60356Q88228P43573N52095
95470B0677141L32428Q2420j99970m92249p52938r48863j070817j124696j116626j051859r42932q09669o68573
95457A1912797n26778l88149k58799j40920k5999R6947K26146L45962M40237N00384N21675N01647M45298L62380
95443A4012828K53281J05052q9112l08491n10482o58638p42867p75667p75609p55107p18230o65375n98998n24808
95429G247777m47686l67940k82621j90184r4439n396O5184J12792J44331J69079J85170J80423J47879R4556L1614
95414F990539l8355j18930k08584k97186l71939m23311m48100m51306m43215m31016m14812l93548l69892l44694
95400B235651l11581k64543k09067j59049j23348j00683q6087p5790o6271n5211m4214l5635k7389j7029j0008j5461
95384F34285l1987m5709m6182l7786l1165k9260k7109k1146j3256q056j0187k1469l6749m5215m0043k5227j0006Q61
95366A54594Q129J2968J5641J6910J5885Q593n619j7368j3872N314K3678K2420q03k8809m0761l2155j9062j9989
95348A05694l3374l8436k1179P209K4464K3989J7470J3961R547J40p902p487k980m049j1197j4964q184N806J6408
95329G4936J4748J806j0724j1630l894j386r462j7073j3773n851n883j2941j5587j0903o795n351K119J8994L3756
95310A5106L3597K0455O995J280M79l410j4728k8084l0584j5679M758J0179m026k0046j9910n660Q830J7103K1608
95291a737K2512J7036Q026K729K452J621k193m900m194m399j0159k0144k9473l4229l1218j7719M021K3773K9695
95272d8500J9844N512K99O062J2975J4345J5520K2893K9566K2080K31k0778k9376k7449j8568o04K1995L2041J8652
95253G6740o383k4125l2332l9553m3048l1328o548J4323K2533K5254K7043K0636L517j0679p431J0743K9071L5608
95235F4041K6402N105j5959k2895j5193o244l942q51R526J8125J3247j53o635r78Q354J2722R956P76j0919j6248r930
95214E8307K08J288p356j3020n882J0077K1927J8836J440j4425r398J5504L3518K3039k293j1537j245L1k3231m7209
95194D8579m2102j4546L750N91n636J355J2504R937p328k4331k9286k2435r786L179J1532J1476L856n300r931r342
95174g3264p987j0055j4154j3515k970J3175K1831J2897q651k4930k1938l306J4730K1072J8960J7446J8827J8245
95156b3587J2395L284n588j1385j0247o7J2606J5001K849j2037j5730j0124p951j1665r273N065J7904J3225n090
95137d0415j8205j5677l130J0448K0571K2603J2923j863r206q967j4425k8076l1255j0843J6422K4417J4690J2305
95119d7683K6779L8951L1557J3725N337J1114K1091K6318K3385J1420m970j5821j7830k0329l0350l8405l0681j1245
95101g637P79l999j4674j6749j0019m765o217q926n123N878J8206K7141L2423L2948K3771M837j1261j0504L420J2257
95081F1786P715N37j92k891j7550l5073l7646k4357j1617r735j1995p798M052J6909K2937J7152J659j3645j9518
95062e9270j5513o210N513J5845J7890J0985N122N778K919j0612j8509N01L6926N6108M2199J5160j801j0246k1402
95043G1383l2274l2532k3306j4580j1166j1403j2339q580M356J7831J3135j2883l6806l5524j4119N458J3017J3210
95025a07122J0111N801P061J6150K0667J0368j465O104K7161L2602J0200k0466l7849m2026l9990k8095l741K0245
95007a14284K9140K5379K0554J6518Q444J03R3N323L741n072o201Q220K3899K0704j412k1973k4513j3606m619k952
94987c2514n79Q819K0619K8491L4367M1329M2794L0184R336l539m241o667k1480m0107m8041m4433l8081l1373k0885
94968g6001r721n345n001L439K2025L5040K8027P767m882N53J3588J6747N408q348j0400r28N993R4j1213j1910K42
94947d826P580o701l6054n5103m6020j5376J5198K9600K6557J4444L338P32Q112J8513K0695R231j0172k6390l2048
94928g8690k6201j1930M798J6420J9205J7028J5616J3923O496n586j2614p532N784J8596K6981L1944L3960L2021
94910A00219K5828J5483J012j5428k9728l9963m6305m5011k9446k120K0910K5422J4524J720o373j1487j3299r881
94892d3923o209q932j2958p119N322P818k663o481J0339L2431L4452J5033m478r993p281o054p392j0595j9407l4322
94872h2412m6072m3622k6096l911J0095J0732M991O182K0177L8651M9082M8353M1792L3228K3791J7217J6254J4612
94854A33044K715j7384l2051l2720k3785j2264P23J4671K4347K4315J3578m840k1738k1113N307M0744N4528L5924
94836A84001M466j7702k7807k9754j9608L44R784n577k8364l0451j3030k213p998j3746r257p791j9391k9293j9251
94817h2638L994J8151J4801M944M80K718O854P974L729k296j911P783J8891K1830J5748N036r308k7647m4404n0516
94797h5787m3048k7993j4067n886j226O187J7506K2789J1812p573j2639O508L2337M1951L4922K7527K6093K0660L558
94778E3631j8561l2763l1178j4817N364J2954J838j3231j2216M607J8174J7742J2904J5399K2538K5136K0439J0073
94760I8033m328j5634j1876P430K4421K3567J2096P810J2759J3301L030r600j7089k1873k6062k5121j8002j2973
94742C9889j5340j7154q036Q338J7240J0763l691j2210p001Q831K4321K8314J7860N11j2844j7387j6369j5417j6018
94723A4600j3857l686J2375K3017J8857N096l411o34N146P080J0153J7834J8906J945k2300k9824j5215J369L219k415
94703D8255j434L190j590j5822k5245k1176r613j63M105M343K382K261Q121J6953J9090J0075j906n013J579O009k902
94682D1499k2865m0195m3768l4292j8891j218J7304K9772K7806J5289P660J2142J8474J6622J2681J5150J5109k340
94664F5939l0965m6906m0772k8299k4013k1455r183P699J5135J0830N135N780J1344J6721J7607J2851P762J0014
94646a4776J7013J4508m486k6506l3365k5087j5790j1653p158j917n129j8350k6873j7653J804J2638R736P313J7102
94627a28629K9186K3132l108k5509k1275L135K1491K1578J5552J5836J7315J1594M326N005R792R474P124J1627J8563
94608D6209J5450M396P38P152Q034l801j2859n078P844L754j7837l4542l0569j4562n429r567j7216j6991p964L338
94588g9500J3500K4137L3370L3354K2334J2751J7069K8298K6520N525j8808k9756k7824k2187j5018l182J1417K1865
94570E3865K3086J3812k666j5143j0135J0982K6992J8756p570k8046k8797j7641r950j1971j8353j8667n128K0582
94552e992M6651N9930N4785L2542j713l6511n4626m6832k3910o557l489o480n750j343J703R50l568j0795j7179j8733
94532d6917j6406j4839j4433r590L256J9608L0191K7917J3432k210m004J0247K2514J4475o239j3184K703J9186J3444
94513D9151o807j6576q723J200K012J175Q350J8979K2212J6376Q293K582n72l63M086Q891P633p00j0875j9181k6636
94492F0507l2465l0921k0502j2063j8358l4821m0210k1891O526K1155J7031J0591J3711J8081J1298k041o663L54N239
94473e5442k161j3725j4275j319J3711K1442K4006K6572K6147J5349m242j9735k0633r763L196J3336J8643J1996
94455C3103j1647l9058m4627k1017P024J1609l671j2801n810J273k982n406R335L0760L3873J2624j3448k4883k0887
94436f6636j0633Q87J1829J7161J2029j576j6827k8277l1830k2198K162L0850M5002L4545J0843k694N040K0638K1940
94417C2255M623j2598j1135M853J4214L950j7675l2326l0303j7578q740j3114k4106k3124N60L4621N4701N0406L2781
94398D2265J5724J230j2135j8021j0757J494M440l417j0173q260k522O46K049L625K025n898j6303k2369k1637j5551
94378g3545n566N532J1654Q703J092k006K472Q447R597P546P964J0794R489J443n625k927N909Q154J8o843j949Q600
94356H953J2082Q944J0410J7931J9073P878k972J713J9802L6351M1128L3147J4534q493k2447j7570k679K669o546
94337A73908j4366p427N893Q464j213q732m694M920R650O790K49n779q768q854j0800j9611l1035l2615j9204j652
94317C5124O994Q762J4666K4664K6500J6026N777O690J1331M776j4418l3887m3841m3608l4678j8722l154K175k403
94298c1226n306K53O357K341r061j5302j1446o223q931j5922j5067k437J0883J1870K045n397l937m93o97K446J6375
94277g8875L2798L5898K3649Q633r48p971j3743j3457q291p636j2190q396J0532L0186L3809K5284J8808J4086k2
94258H2154k0268k7100j2137P968J2961L696l111J876J1141J1553j001j7999k6539k1435r654k004j909m861o617o845
94238c0131n422q11O715J4329J9680K1196J6179L789r786j4403n586J2167L0499M0834L5252J2874j3406k5880k1729
94219H6360j6047k0310k6111j8333J657J6505J4905L488m731n545k995O02P260J6276K0058J1106p338k1508k0731
94200C4568r059J64L9m103m218J245R087J5370J3778k713l0580n0705m4884j7311R082J8962J8298J9249K1804J8550
94180A6623J0312N531N917L570n673j4963j6573j2584j0157j0827j0121n098K491Q942J1013P619J838j535k683n998
94160b2356r423k695J5651K7481J4855j2436k4749r611J4042K3260J7903J1340P350m68j3248k3475k4474j5097J495
94141b4655J6760J9908J0166P58K485R328R581M331K762M901L247j797k968q10k219m986RR853R964k456j1953q357
94119D3852p70Q63K633J2470K1227J3210j0805l3846m2213l5406k1256r687o553o196L578K2042L0272J5998n549
94100f136j0350J440Q369M62r598r893n814o091o638J029J3827J9657J2150l719j7904k2821j8050j1185j1044j7265
94080i9574k0277j3648j800P662J3921K0160K5051K3926J7208J0952P505R81j3884l1091l7002k5804o920O395J2163
94061a04076J7430K3431K2973J4944J0652J7723K5725J9224J122r384j969J2979J9467J2702k453j9714l2385l3876
94043e485k4262j1862l293L719J3491K3661K8766K8101K4188J6934N232q012j7985k3316k4749k0661r089O992K0770
94024B3140K7204K4956J5674N005N16L146L653o286k1696k9419k3645r811M638J4955J6053N075j1006j9503j6912
94005E737j1847j0560q757k306L881N293P753J7888K9037K7270R478j3072k7467k8205j6717q82P066J953n743j910
93985a2110J1837K1637K3112K5396L0932K7156O985j5395k0945r469M269J0817J0576M421o514j4657j2748n953n367
93966G3980j0026p959L745J2571P761p103k2388l2625l3865k1970r52J5497J8369J3054R130P948O560N703O163M899
93946D8492L130R832K6668L7874K9030R397r08j672j0390k8617l3414j2034J4269J7266m88j3509j1398q561j6725
93927E8242k7482k8554k2450j8594j6446p705Q924K4589L0434K4227Q574j0573k4045k4517j3105K250J4427J9996
93909a808J7328Q223j0j716k113j0807k4756k7865j2497P741J4319O022l328l580M377J5352K3675K2685J0535m189
93889C7588j1114j0733r733o851L956J6934J6129k092k1222k5698j8574j1086n937p76J228l509q959o478J189L477
93869f2261j938o381l405L370O473K205q181j8960k1064q302J5512L8219M8338M1754K2926K945o822m030L007N582
93849D8987L421P80r21j911j020K8n408j8733k8278k1204j277J4130J4360M934k786l777r30r36q595j9956k2985
93828e2077j1193O270J5633J5764J4636J2398K148j2230j5032j555J1421P509o648j1607j880R478J1492R389J4305
93809A8221K5205K7799J1902j4227l1228k9808j9087j1728p560J652J6313K6849K5548J2693p193k6912l6406l1004
93791d8971j9587j4937j6116j1102K985J4859J6723J3793J1441O204k508l584J1439L2165L8196K1010r496l5778
93773F736m4397l2915j2384J045K614L086J2616K7014L5075L2201K0657M030j0754j3728m107L726k928j6495j7919
93754f827j457J8832K5607J3171j1216l2253l5530k0657l616J814R92P099J8092J9361P993k009k489l987j7851l7167
93734f2098m5971m0052k8191j7338p084K279N864J413n103m600O277K2685L5891L8683K8999J1594l772q833l672L978
93714f9051P247O019L312k43m132l795M595J6283K1368J5960M153r367k0803k3258j2648J785N369q04M3J4487K7973
93693a5507K7499J9869J5880J1389k26r424l763Q410P604p664j9903j7975n970R769K3626K3413J663k5123l0228
93674A3339j3021k23o154j4362p193R139K1778L2235M2955M0667J4490k0192l6381k8291j2914m433l306o315j0427
93655A1391p585R086L2165M4420L7848J9654M73j3783j9584j5865p626j466K750Q774J4099J1920K846l882k115M552
93635A28072Q064K443j3642l4567m9119m9827l9143k2108R89K6577L9860K8977M286j1222j0858q904j4944j9942
93617c5008j3877k025O027J1480J9157K4421J9495P059l537r341j2750j1479j124J3616K1106J7010P841k55p531
93598E0285j4280j7026j4330r796o451m161m550j1095k0564k1763q859R338J9369J7718R419k476j7073k8261k7510
93579a02066j5174j625L885k51j0718j9652j3826J3282M5269N2684K7585l127r647N041J4537O170p846j3383j1125
93560c9987p861n763n454q569j1692o548Q998K7051L9143M2025L3757J5332j755k867R609J6058N948q684j4093j4933
93540F9715k1337k8550k4966j1981m0Q717J8279K4336J8687N506k749m590r332j8467k3403k2712k4561k8388k1203
93521i7039M68J9627J9574M877p708j0499p679l823P15O463J3576K1514K6481K3536J4464Q405J1476K0666K9671
93502I4765L4032K8878J1103j1749k4026j9701r999p380j0265j1187j1441j6758k3870k3534j5841j2244k0442l3646
93484h3305l7344k3804O63K1377K8723K6088K2880K2162K0868J9779K3277K8214K4413J0032m394j1703j5974j8862
93466E3090j2398M519J6487J2247K955L743Q220J403j0196n413J6425L1061K3664O510l982q447j3608j7119j5202
93447I3959j2407j2061p520N706J8125J8163Q621J49n750j5777l0908m4122n0061m8326l8983k2730m484R372J5897
93428a23137J3713J043j7535k7407j6848P534K6616K9538K1744J3958J2067J7913L0142M0589L7825J9947n78r646
93410G7478o246p93j456o234p482n07J2346K3126K3144R281j1922k7611k9371k1666j6930k0721k5007j9213m346R272
93390d4858J5596J6605J3604M930n234o159M718J4862J2818M683M514J3274J9105J6024R452K634q957k4784l2783
93371C0044k4262p315L902P905J3976K4389K9152K0149K722j0057j0026J153J4839K0690J3540j205j1857j2830r489
93352I5420q086o216N12O725K017j2539k2589j8753q417m253q461j5092k1099k5858k4538j3185R52M589m848j5991
93332i9710j7709q659P164K4211L3039K5260N660r048q390K379J3428K0567K0279P812j0959j7676m038J2909J1477
93313G996n747j8305j7038r603J23J8115M1597N2186L7674J0054p791p367K61n64j5607l7159m9868m2758j9097O532
93293e6366K1168K1579J2041N2o621n128l79K185M693J1345J7986J7026J0958R197J1372O909o587j8664k4249l1880
93273c363m5528n2030l8555j2686P154J3954J3421J0055M623J071L787J0172J5623K2435L3594M1550L5110J6143j517
93254G5013r312j0094q166m518k531p246j6031j9112j2497k936K133K390P92o25R20P527J5182J6203R102M48l799
93233C2843k414M779J5898K2413J6343M093J610J1777J8423R089p865j7433j8269j7554j5131p177r7m815j8097k4018
93213D398j5875l929J963M900J0133J3037P632n23j312L448J939q751j5807o853J4100L2152L7805L1770J7420k747
93193A24900k2905l4443l4884l1015k8644k3716r510J0067K1591J6783P32j4884k1582j6514j592J6297K8289L0223
93175I193K4206J2586m508k2542k9209j5102J3240L7047M3220L4892K3793J6645J1467M102n541j3301j4145n490
93157A20553J0223K5139L0555K4688J4407O099l240j9713l7447l8877j5696J7539L8942M3294M0703L5868K2846J236
93139C17119j7146k3349k0895j3572L303K8141M1219K4582j0959l5422l5672k6019k1089j5571N98K1194L1484K9209
93121B77155K3607J6339j881l2178n6552n4747k7727L171J9428K1062J8445J6306J2584R294J4049K7378L6268K7628
93103C49629M843j5529k1497j4049p40J0568J2605L571o612m698P134J0831k790j8683j7207j576P657K121m863k6
93083C00689J1331J3942J194k0040l6718l8169k3950p006k181p831o976Q166K2529J8260K44j1006p600j425l495r914
93063B00044j2176j0079q025o233k266L741J0794K0019L1097L8878L7541K6237Q714r316k1140k2274j5661r416p387
93044B53092o936p845j5758l2066m7538n2549m7878l8394k2410K815K8679L9349K8558M555k0828l9595m5051l3031
93026e2831j0144O955O759n514j4938j2960l872K968M344N165R069J0455J758j2072j6283p532j259q713j7067o801
93006a22513J7756L2388K5184P581o759j5943j9709j4127l836k808j3199j8115n948J1975J9497J7579J4870J0424
92988f5703K515K014J6224K8532J7621p755j8323q633n500k4795m4488l5932m276K0763K4636K0278K3935L3594L3962
92969H669J5216j4824l4336k6407J574K1724J4579r531k4083j7061M89J3860K1137K7283L2003L1792K9420L1534
92951A23038L5783K9123N007k2688l1718j7489J005L856q710k2451k8299k6999k0407r352J083M441J869k05j271n625
92931I991r238k24K1947L8270L0153J624k5680l5033k5927q063Q136J7210K0358K0293J3488n727l0368m0602k7308
92912b6700p557m539j7366k4049j1816R431K3692K5004J4879k401j6574j5485m89J0805M680j2348k3482k0776p815
92893a02906R033K3232K8228K4524K2390K8236L2410K1044k484j9115j6967k597J0929J7020J5104P388o26m758r796
92874H0289k3551m0840m4783k9536j0374l038l625JO696O877L063Q146K3022L2121K5582J2702P040Q949J0499Q549
92854G7789M084m520j7355k6402k3577j4157j2169k0848k6550j6629K749J3114N423j0981k1375k1670j8189j5756
92836a47019j2150l910Q153K0818L0889L3688K5058R210r34K015R149O145p821k0243k2526j7521r863N79J2109J7284
92816f6890J1837K432K34R061K1990K7002J6309m977j9904j5578K381J7713K3370K3520J8563L514j6645k6807k3060
92797D065j8111j7592r151J1907K4502R176j9734l2274k4345j6376j5552p105J3744K7479J8252l560j8335k1090
92779i4100j6680n114J3797L0073L1589J8490M88j5220k4838k2603n450J8319L3552L2179J8555K550q334j2151j2523
92760a7421j4780j9084j8878q570Q945K4618L1372K8149J7993M604r088j9307j9904p002J2374K1961J2931m871j5299
92741H743j5180j1965o662O814K5013L2452K0939L87j4566j8431j1159O847K7808L5447K1787q63j3430j0603j003
92722H2375O454P919J931q850j5817j2137j070Q240J0359N229m421j2063r870N69N087p037k6962l4551k2003k662
92702b9280L956q044k5656k9255j1823J3184K6130K2554J4223J0326Q132M223K134K860M8o669n006J2317L2694L8406
92682G5454K8662J4894J952j2086k2958k2210j0484K880J1257J2008J601j8278l4190l3937k2942j5010j1352l502
92664e8241P319J1466R483J0453J1539l04k2396l2983k2085o867m848q438o77J6918K9286L2242L4247L6649K8532
92645G1295M709k2223l3665k4250n472P943J2484J5986K4375L1812K7083P610j7243l5697m2503l9999l4811l1789
92627h4355k7784j5350K925J1405J936r934k999J9941L6333L5395K7211K0018R197n261j0840l421J117r269k0848
92608b4583j2618J1987K8501K2517L682r931j0660m849m579j4826k5621k1896l632J2711J7092J8000K3711K5383
92590C0389J2802m219q175j206j533j4840k6922k5752j5236m534K349L037m250j3698j4861p013n32k26K398J4943
92570g7079L1587M0745L7868K5630R035m499q076m576n598j4830k0572j3480l836q371k3826k8234j0195J6242L1290
92551c0775L2744L0706K7676J7603K918k207Q334J9398J1216j4816l6459l6436j9616k793M926O835Q924J1966J3130
92532E3274J1691J1198J5444K2082K2777J3046K78l268M083R946J595k0290m2602n1226m1437k1203m780N32O36M243
92512a3981R850J0236O077L924K330o350j8810k0613p862N862J1295J6585K8428L5753K7084J1504M907N049j115
92493A10153j2289j5344r784r610j9822k8784k6801j7447p965k303n381j9713l4864l4489j7935k278K45n599j0020
92474a70030p722O401L3333N6822N3380K4778K639Q106K3402J9196l654j8753j1715O111J7449J5870M336q661j1684
92455C9604r86J2034J3814O661K765L268k850j8678l1952l1611k0949r542j005N528Q145L082q604j8695j7115j503
92435f8589J7699K6077K1915J7956K1845K3466J1514n359q821J300O360k758j3033j0299J454R762J0966Q565L279
92416G3299n338j3179j6086j5997j6453j6418j3713r031j641J1746K7546L2716K0260R71r424q663l827L566J4696
92397E5030K0689R681j2720k5577j9280o978m249r381j1261o913k170j192l243n911n821m44O429O401j640p154j177
92376b6881J1537J9308J6909O368q880k2969k6789j7776o261k811l553J377Q871N815r154k0140j4053L495J6159
92357f9428J3528j940j7223j7427q35J4461R455r139j4084O853L4314M3169L1606J4725J749o544p391JM303p695
92337B2458l0299m1847l0492o081J5239K7012K9784K3872J1653k5o465r766j2107r561J279J4305J9376J6281J5599
92318E0215K2710K7180J4794j2010l3964l7164k7429j7398p754Q038K5336K9200J4737o268k1599k8839k6453j0470
92300c7138J2338K3860J8811J5170K6334L6931K5269j430j7041j5337j4658k5495l7281l9643l4439k2479m92K2371
92282f4349K7384J5153J0105K3619L3657J8068r960k0552q072Q089J4768J5427J4176R762L922j301j2597l4463n1034
92263h198l8781n70L1256L2605J3543j164l547l561q342j3332j1594k917P328J4493J8734K2282K1937R060j6465
92244F2767l6772l2539r195O958L269k954P597K4866K2784j907k3039j9749j704Q138L673l060l416j032k22J842P608
92223A3913J3338J6225J9668K4831K3899J0906n457j0699m475k60m919j0900j2045j4296k2765k8845k1494n272M127
92204a4520k41j0336j4798q837N202J8830K1048R687k571k412N817O876j561n625J819R798Q169M398R498J7333J3539
92183G1113N86k696J1655K8403K9874J7969O815J035p741k4990m3391n0653m1782k2423m202L174q9l435J535Q499
92163b0744L850j2154k1590j1922O402J4598J0358N581M131k395j5796k3653j7068m241K197L096Q987K3400L8073
92144h890M2165L0993Q891j2132k0315j5049o506k174L7K578J565l754l743Q755K3647K2924K740k2613l6559l2225
92124a9665j2283J2832K7823K3564O174j0983k2125k8433k7194j3806N885J7683J6096R214M078k260j2758k1209
92106d7367k0042j1267l481j669m059n734j967Q803K2195K9998K6762J3405m345j8327k1109j2237o73L255k596j3408
92086f3863k3367k4951r102K2891N1701N6908M0995K4835K0156J9839J5653R610L443p745k3508l2497k7771j7515
92068C5712j2307j1084p624j783L589P857P538l377j9689k3558q317P498L690j3803k4081k1545j6616j2484k324
92049a12708J1205J4504M708n466r626j6482k8407k8736m500K9989M7852M1520K6021J5011Q658M873P299J6311K2386
92030D4412J6523J963j1006j7787k0407j8871j0138L741J4214J6168J3471J0997O638l229j4647j9247j4640n728K428
92011e145P068N450k371r352p947m25M905O765J0412J4312R759k922j0466n414K401J453m283l690L965J0872J4258
91990C9605J7047J8742J5931R759M740K697M687J3685K6444K8292Q234k3073m2201l9309k5332j3951p921m177r24
91971C2975L861J1785J8524J6666P004p67j961m108j5653l2794m2270l4624j2845R209J6766O974p481j1563m499J502
91951d3299j519p805p088K457J3274J7112J2526N060M81j719m936o002L070K0414L0912K5333J3916J0151R652k32
91931I1758j6466k4052k1000k0029k4166k0409l398J2406J2787J631r590j6487j7043n852J5510L2665L3692K2008
91913D3965O656q895j9587j4387P123K4825K0663L403m656O14L298o633k1623k9770k5927j0673Q735J7414O274j3538
91893a2719k1772j4041l202K563P470J3092J2613N293J249M481M708n238j6178j7067j1943j0506j0456k987R476
91874f5164J5402J2587J1067J5770J8192J0772Q46K154J5744K6722K1055J072j8619k7887k8778k6194j8182k158
91856c5599J3543J5282K902p550n236O94l499j3683j3839j662O651M48r356o477P518J6632J2703L218k770o402j2683
91835c9165j9289j8056n578J2107K5486K9716K6813K1582J6556J1029M187k486o548o285k7J2707K6116K8321J3679
91816A30865o569j4115n208N687N927q25m937n833q008r328m221N396J2662J6563J9983J9152O845j3055k5056j9081
91796A06844o02J7111K2977J1442j2786l1818k8571p915O960L688n009j828J2315K4418K7365K1250N855j5679l1602
91777A24415l2364k3704j8512j8613j5091m937L669L832o25p63P007J6847J7868N128j1368j3789K995K3317K8345
91758I3657J6107j309j3028j4283m292J0179J5185M622r869j4450j2511j6073k4084k4983j7469j1711j0545o622N70
91739d0909K351m35O100K5950M1658L5979J4135n372j3563j5076j5823j5593j0645M14J0720O319j8257m5591m8919
91720h6557k3912M967J5360J1642J1055J7986K4265K6089K6695K5877J8409K410j7547l3721l7218k2242M866K5745
91702e831K7197J5576P680J0279J5019J1487n71j1587j1749j338Q529R157O250J0806J9399J6129k983k1100k2506
91683G9843j1221k24N173L583r927l4168n4122n6078m3015k4084Q21L1784N4577N3809L4852J5914L239q969j9135
91664B2652j8506r213l499m427m283j777k944m454M331J9670K3469J0441l597p230p992j1823p215J4765L8917M2082
91644H9367K4191Q315J2325L0956M4729L9977K0622K262p451j9088m3498o8058o7456l9796j2905p568j2699p948O583
91625g140J8313K4870L0304K9092J3419q902k1264k0059j4945j0715l488P033J5378J9608K0989J6106J304j6406
91607I3497k4355j9613j0129l462l671j3852k9160l2880j5049Q715J4022J129p068J22R431J0729J3956K8699M4432
91588F5493M4589K8905J0248j789n262k916l043j3922k9931l3853k1244j0413j7190l1517l2820j8600j918J1502
91570f3681K5271L5773L3221K0415J3290J8239K3139J6872N613K031P508J3529J4879J3042R396K397p551j4121q682
91551A60580J0713L3877M5668M1624L3127L2869L9661M4329M5856N0364N5756N1266L5898K3918K4162K5191J2611
91534G67470o969j3890m629J715j0948l5696n3963n7660n2120m3753l5060k9734l2312m0328m4252l9257l1559k8277
91516B08778k5969j6359j472N209n298k6232m2933m7597m2887l4586k5621j6115n369P017K0444L3470M4023M7965
91498G6468L9291J7332n878j3068j292J1897Q111j0327k4965k3071p263J2994K9636L7146L5526L2771L5404L6241
91480B86953K2118m623k4594k6014j8979j7407j8042r058Q438K1278K3261K0339J7218J0604j652j4136k0356j9530
91462B35818j4056n601M050J2675J9752K5084K5272J7018M669j335M570J8314L2930M4229M9076M6045M1068M5002
91444F04580O0386P6779Q4845Q8830R7505J08118J09473R9409Q9052Q7908R2688R3735Q5573O7215L8393J920l3653
91427A852756o0528q0354j01179j25444j45885j54415j49956j34959j10031p8330n1680m2875n0535n9719o0936o0299
91411C85631o4677o5720n0974k6625j3757j9596k6767j8383j705M448k634q507m785R64P5m623n745j748N183J4579
91391I4634K4480K8021K0241O091m285p082o917q121q623l693O681J5397J3543l48j6519k2871j8313j1968p406L884
91371I6826K6009M3855L8422J4583k241j85M267n756j9954j6829K754J7844J9870K1751L1493L7554L0846K4065L3481
91352C98655N2519O0415N0684L4563K0722R950R203L0304O7815R5160R4213P7764P1417Q1742R4379R7691R4829R3517
91334A535542R5878J01370J11577J26663J39673J38173J13666P0480K3416j7378n7226j05457j54328j81830j80245
91319A759974j69160j69872j77347j71405j48217j23636j07899r4736p8044o3098n4595m6079l0069j0671J456J728
91303C18330n593j2261j0750l97Q549M766p587j1995m093j175j7601m0552m4471k4770k024P374J0065J9796L4011
91284B19622L6939K2098J425j0747j5829k6068m2961m9825l1534M167L3604M2450L4489J7674m477k4441k8946j5481
91266A62159j5K888r12K038R260P771j156j296J2262K3111J7254L931K541J6697L1810L4921K7852K1124K1297K6006
91246D19543K8519K6006K3333K7223L6413M0985L3908K1104J6457K6568M3016N1984N0964N2521O8354R2449J06830
91229A166177J04602R8677J02571J10150J03165P4464L4344l445l2254n0747o1958p5433r9791j29805j49780j52833
91213A038104j47504j41486j29698j06284p9657o5031o6090p2672p3738o5258m8337k7813j1383k755L680J4645K5416
91196D4139K3480O226j2098j4655P83K1216L0981K2738P43k1644k9600j8075K003J1663J662j7816k8155k3268j5343
91177a5020j7331k4917k2972p567P885J1002O688R176K2674L6513L7942K5162Q365K03L724Q706L161j0994j9721
91158F2679j6322j0643j3143j8531j5417o085l499j0705j6562j3174m918L672J6661L6419N4010N8584N0167L6017
91140A89210K0351N666k037K84M529P49o717l778J2013K6583L0179L1630M3536O1623P0275O4599N5077N0032M4764
91121F98568L2265J5433J411j0090k4019l8420m5447m5221m9562o5988q3238q0896n3718k0395m846j1795k4641k6369
91103A63032j7233q979o134r77J1363K0803J3195r018k5806k1793l828P458l25k1469m0858m7369m0030k6248j5121
91084f9337r561m214O401J7733J7096j484k6821l9151k9745r037N856Q679O393P249J2355J8681K3452K3132J4825
91065b7498L517J416J3063K6512K7941K0061J4945J2912L982j0424j5718r133p788k1113l2306k3095l157N160J773
91046a8950N309J8646K3221J1165j69M742J6968J9844J3261P217K561o387j7050k1152j8595j6054j4112p571K348
91027E242P515N788N041J1971K3984L4128L8356L6463L0737K4286J6582K112k0557m0041m1299k4997r259p998j4388
91008H3666j1603M414J9250J6098o287l1383l8784k1674P113K6511K5358R371p733j6394j5140q029j415m41n283
90989B7615j1352j4386j4389j4210j6000j9166j9322r969J0018K9132K9291M439k8719m3137k5394J3070M6301N4373
90971a805L7696J4849M200N250J068j8085l9139m1108k1908p71O391M185O450J6157K3816K1733J2807N968P329J4970
90951F0053J9578J2365m297j6673j4447l277K607j729p961p874l287o91k037m175l176L312J4388K4376K6594K0400
90931A14049J0658j98j3417k5788k8874k1170j2836j1297r856Q9J2737J5737R138K436l900j6810l0155k5343R7K1736
90911a2967J8059k054j5276j5843j4690j4376n432J2389K4086K0658J2949J6304L0081L9528L2557R525j9282m1520
90893G4696n0752m8874l9353k1168M487K5043K5636Q917n166l379O823J1561Q054J677m038o130p81P340M007j4048
90873a5448k6599j3714J3653K4615Q367j4646k3321j9255j2984l952J3193L2495M0165L0376R022j4716l3689m3126
90855d9564m2310l4331k1121k880J5487K4809K3547K1517K5113K6720J7821N266K413Q772J1441N037k863o477q982
90836A9415j2080j0541k715L330P80o144r776j0091j1554j3911j3141q686l800l79K061M031N689O339J878j2601
90816g1896l3118m4160l2461k241K8540M5743M8022M0538K7494J3190M589P607K0313L1250K6362J464k9675m3568
90798C7993k9326k269J0825J169j3311j1829K938R714k916k2387k9406k1178j0071m251m33M192M944M05k25Q920
90778f6502J5580K111k8187n0717m8151k7824o713Q774K0317K5520K0331R094J670J873O020J0516J3401J0911J500
90759h0476p063l164J3947L0972L4231K2450N085p807j2660j2731j2756j2562p495L503J4203J9054K0584K3467K5114
90740E5896J9308O820m878j1099j2717j1767j1686j8822l3473m1002k4593J0454L6846L5152J4354l121p861o944q069
90721a7202j0778j1658r828n661J262J0671J9348K1727J4635K465n285m984l904r161j5970j5397j0236j0780j5259
90702g5995r208J1091K8413K6363J0771j98J387J0254J9790K5872K4616J7164J2704J6851K1047J3873p43q098l810
90683A42144J071l914j7694l3328m4758m6269l4558j4504L971J6725K6709L3736L1215J6026n077k2035k9238k5361
90665e139j2602P57L961m686j3677r908Q093L0655M6622M9773M0073K3594R627M012M661M656r06j1136k0866k5356
90645A22208k4304k0810j6504j0637n090n005j0008j0276R42J4549J5157K132r747j1753j1489j7264k3540k0256q437
90626e0132L324J2575K2486L0202K7197J3147M24j65P172R087l22j3672k0331j7482r495l19Q432J2717O122j1235
90606B9732k7949l1252k0363n053P071J5204J8212J2628J695j894R777K6934L1354J7435k942j6425k1405k2401j8634
90587A724n983J1837K2854K0890J3883J2412J4032P779o448j3811m883Q574P484r278k3525k0973o603N104P326M025
90567D6420J110n74m607j3854k5685l2644k9207j6596M39J7874K9942K7842R627j0772j4691p54J2941J1787J239m733
90547E104m153p434j9846l1711k8653q724J3766K2949J8614J4585J9225K4392J9105P103J375N799J3280J9019K2532
90528A06327J8441J355j8175j9683j232J4148R558l134m180L688K265j2651k5968k5177j3384k66Q819J3150J3662
90509F7563J0960K989j2512l0506m0084l7925l1945k5911j1814J2587L1048K8921J6676J5485K5442K7320J2847o123
90491E5018j7799k0362j0916J4606M5392N8340M4161J6107j1858l7962n7912n8372l7811j6670j1655j3923p872J862
90473f7626L03j1300j7971j3569k922J2960L4419M9135M1226J6075k400l031Q26m380j3380j6013j4890j6890j7976
90454d7404j0184K668R242P458N320O185M495k371q000p041l770m523o317n30J2879K1753J5454j656j4595j4232n269
90433d0438K135M032L531L539K827j341r328j7457j8854q608Q541J8666J2738m62k809J0192K2650J9169N477l11P259
90412B1148J5887J5759J2708J5276J8700J2657m66q025p481j0896k4154l3744k4358k245J1377P688j010j172M912
90393B2561P080L458K33l21k732r115j4043j2013o821q855k1810l4952l2879j3570P918J6754J4708J3774J7448J7170
90373c6007O908p911j8098j9143r617R428K8689L3705K1854Q976R688J6982J2164q547k9026l3851k2890n302R316
90354c2682J1638l517k7775m2180l6308j8390j980R355J7328J7807O296r532j5118p112L954J0192J5035K1746K3721
90335e7522J4745K675K454J6043K7639K1617L84j8805k2504j3522m981m242n242J723J5190K3129J9581J3534J5043
90316D6939J8172Q303j4493l1692l0327j9747j5500j4869j890K5309M6276M2158J8384l441j0674r133j0220j6592
90298B6963k2310k1820j4760l984O561J1500O149o870j5623r690O664J8576J9427J7601K0078J9099N435j1966j4172
90279C6858J007J4742J2320n92j1580j8188k2485k0381q459N276R932P601R378J7154K0311J1267n059j9117k6239
90260A3746k5775j7553l204J2307K2636K2015P323j6281l3197k9256q812O779K721j1730j5222j207J4412J4163J200
90241d4935o007O95Q134J711j1326j0432P715K1570J3548n938j4610j0047j0160k3973l6818k9479l048K1156K2841
90222a09403J758k1651k4926o306J3284J4782K850m029L14N766O116Q555J9389L2252L6460K8593J1665q541k2484
90203a5556k1809j0265j100O49L083J0243J2891M866m019l398J93m251j0755m671J1504J8323O403j1614j9292j4346
90183e2921m430M126P737L623p451k0001k7962k7308j6022K599J7451J7592L890j2177k0304j6578o13K2903M1260
90164h4586M3185L2663K4245K4014K4694J9734J0621j155j6134k7263k2443l616R619M364r045j4312j1477j0060
90146f952j0001m423M707Q585O574O539J1894J8905K4449K6062J7739k323k2330k7928k1062j5378j5250j4186j2601
90127b6980j8761k9199k7460j0137L718O15n653M633K6225L7137L0155J7895R996L740j522J828J5146K5704K1844
90108G8924P505n690j3582j8210j6961m457J4066K1430P132j7082k8176j8617m768m459j3078j1087P631K7103L1437
90089C9061K4001J7536J4854R874J774l848n700p815j0543j0685j0455j5383k1837j8259l469O981M57j4710j9840
90070b8006r771L282P808N941O545J1773J4690Q449n425j8858k5750k5759j9635o309J1075K1562J7547P277O014
90051a7550J4795J9543J3481O913Q141Q375k259j4502j1891K675R381J1j1882j2362m662N58J179K237O185J1452
90031B9818J5225J2562j247k2033l5938l3142j8104j527J1938K1913K4502J5799O54j0457j2765r095k452N420R256
90012C27L463q035j3163o124O059J4297J7669J8412J3950J676j2446j8499j4904r041n910l233Q54K484j669q192
89992b2025j2028j4319j9525k6327k6995j6753J41J4937K2397K3381K1967K1572K2556K2549J9341J2763L221r156
89974C7697k1107k4928j6473l650J13p353j3664q662K411P825M916p02o096j1201j0926R87J8627K5260J3219m998
89954a8705j1289k546Q939J1751O405K096O798J9475K9473K5925J0361k875k322O989R741j797k0489l3539l3940
89935A0451k2727n142J2140K2000J9111L647j6914l1717l4882k9773k2825j4407o04J5898K3777J6480K924j554O658
89916d7459J5898J3932J727q695p816J216O029p77j2089j4519o007P81m755j7335k3736j8888p263O950K1990L2963
89896f7853L3548K4133J1298p30j1148j6082j0811n57N58j3337l0392l4104k1174k176J0729J2679P290L579P920
89877i6630J5481J4019J38j3729j4102l228N934P525P186J0514J5767J8602J6585Q081n804j6121j1171Q212K4773
89858g968K3228Q699j035L65J278p837j7795j2769N613J7301Q510j1750k4144k0631p054R199K3718K9636J9975q00
89838C5739j6169j4534j958P026P179N324P587J0459O506m292j2524j0383l208m863j8914l0179k2459j168J1775N380
89818d3676q986j5852j3909j0827j0220j1361j3645j3639n431Q186J3263L174q810p234K916N798R66K553J4211K3731
89798h8792K4904K6214L0795K5072k93k9793l7823j9342N488J5265P486m316o998o50K565o480k0281k1796o994P336
89778i8433L992j2290k0440q629J2516K2424J2456n103q888Q862L1077L1623M316k8011l6265j3694K0221M0126L6243
89759g897J9244P276P067Q425N02j0404q384P881K1175J9542J0948O981M716l318j1142o764O609J1761K54j7291
89739F7181k5240j8409k418J3512K2248K2767J9419J4051J956j8630l6781l7453j9351K563J2073M491j2486k4266
89721a4773j9130k55J4549J2256k12q018r506j3417j9862j9111q658K600Q133Q948N435j592k232J2528L0450K8147
89701F280P383j206J7176L4772J8895k0173m2881l2660r564M844J0886J5186J4368N403k936j585M380L834l282p121
89681B1999l770m49l404p744l927Q719K0312K2361J6160O777n557k1413l3274l0757j5027J706J2537K1103K7401
89662C3753K1796J734j7278j9557r834l301k305K232J0798J3038M929o711j7320k7541l1586j8655Q588L1081L6080
89643I941L1085K8139K6513K0027J0409K370n781j5422j9727j4725j0692j8312k9312k7386j5338j2653k4157k9889
89625i4910j3741J3571L0668L1979K5693J5689J027j2253j5196j1148j2619k0975k2096o494J6843L1688L0960J7693
89607F379o65j3305j1355k83J620j3453k8748k3211O48K1582K7152K2289J3954L772l136J586J5791K6748K9155K9561
89587A06081K8227J3006j8860m7689n3731m1494k7935j6966k631J0598J1301K716Q79Q923J1751J930o321O84J3565
89568e966J3245r57j0951n176Q214J5105J2156M695m848j7815l0243l2073k0188o698o405j7682k4110j5617J155
89549a44159J6041K7789L5970L1255P425k1531l1070j4613Q433J6067O500n479o930L199J7037K5452K4541J7381R259
89530B2567K070m933j1559j7675k5121l3511l6507k8376j3013k40O259J1272J8869K6815L0229K5910J3879m37p044
89511b0546j73J4446K5155K4721J2030r909l0734l5315k0756n166o571j7531j5302O030K9864M1964M3132L6266K0318
89492I1923K175m069K385N321l804j3369j2784r784j4902k3382k5268k0323j0511P796K9076L1113K309l3960m3999
89473d4057k6146p363k836k834N72q70j1614j8624j0036N808J2210O480j36P39P127J2900J3850Q693k9n523j600R379
89451e3910J4919K658k4625m6423m2608j4950J4615K8171K7539K4153K3019K3131K5447L0607L2886K5284R035p926
89433I1022j9622k4340k2183j5555q680k828L403P194L560k227L520K1284L1569K0824J772n769k469r77j153M901
89413H3246J0544J502j7194k4827j6965j1008j5725j7850p018O605J0771J0211J4509K0450J9743J4530J2860J5047
89395A09431J4531Q074j311p904o718J191O551L311Q41J2318L1286L6117K0606J841q518k0584m2498n9586n4296
89376D4683l2996j4914m807N619J7539K4677K7164K8238K1845J579k1107k6836j6624j1683k1643l0765k2971n381
89358c8383M045J804o00L525P512L522m911p349q19N456J927q070j2281n974K083J646p407j8056k3548j7983K121
89337a11740K9854M8384M7825L6854K9440K5300J3998m677j6505j0957M851J3745N968j2453k6574k8136k4113k5407
89319d343k7722j4798J3883L1854J5876k0713m1422l0188n140J0822J4879J4316Q274q000k8394l7089k4170M237
89301a27838L0069L6994K4529R790J0350K4633L5033L0319J6630M551m414j3141j9782k1475k0842k0237j4716p54
89283b0301J1618P787r405j8888q294Q701J1461J587n03J3311K6247K0774K605r783j0560p849n314Q98O876L36j8397
89262B907k9498j8133M064J2986J046j7461k4841j5116M607J9531J7536J547j2083j2845p601p374j1880j5735j9858
89243a28201k4147j8109N066L1142L8731K7033J2716K200j2682l0492l3234j1555J9409L8681M1998L7821L1361K1009
89225D8747M300j6831l1764k4745N965L5267L4845J0330m993K962J2141L723p253L41J6233J4860l334j3498m753P324
89205H9867P004l301j4124k1352k3176j8111j0283o110l495N521J9997K8468K3888J0415n868k2624l5957l9884l4167
89186e3292k4100j1053P051K4290K7357J2368q325k1122k4890k5619k5985k5706k4779k0793r486P233K0232K4689
89168a51930K5702K7689K6142J6640M847k63K070O662J0335J0159O19j7090k8236j9570P49J1150N234n48Q438K4495
89148c6706K9336J7977K045n960l693K688L885o713k4957l4685k2796L077J9852J5142J353j498R245J8905J6701P258
89128A0456O59L02L986R244J1979N775j0413k6994l3106k9320k4630k2643j8202p668N559J7475K7636L3560K8684
89109a7661J2014n264r778j58J4086K4871L0155K8336J6562k871k0087k5445j7776l890P161Q656n25j4103k2714
89090A569k3214k1510k2902k2083q672J6568L7000L6366J6976l677j3661j7359k3435k9347k5555j2076j131q84m355
89071a21382N21J4999K9563L6403L5406K9547K0612R713k736j7605l2903l9826k9326m522J8604K5695J6109m43j4277
89052b5848k0317j7229o994N485J4731J6518Q802n092j4820j0697M854J8523K0745J3755M018n328j1315j0004m954
89033b5167p767k1241l0432k1973n292l44q306j0842K002J9705K9976L3556L3814K5934O574j5550k8272k8584j9843
89014g2052m560J2132K0277J5960Q410P347R116M627m891j1057j2804j6242k1932k3055j6065m578O764J4648J5038
88995g2917O634n034j3991k0872k5669j9779J353K1683J8016q009k7908k1673l16J4061J6153J4265J1349M461k651
88976a10844r01J0405K0940K0827Q686r161k0287j0757K0890N3797N9804L3147j870j7776j2922p443j4642k5711
88958c818k4414r008O719J0957N107k232n018o36J1414K4576K3871l99l6822n8921n0851k2984M55N452k185p484k493
88937a38714Q040J5169J7597K1937L0969L7365L3141K0372O500o505k0313l0791l0084j7777k118R192J2314M966q566
88918c7306j3564l07J7237J4483r497k8432k5236j3276j1061j4162q519K960P279N662J0006J9168J9236P761m87M827
88898e3228J6994K5188K6794K2629J2532J397j550L393K542j2788l0857l1442j0290J5464K5413J4404o732k4189
88880d326l2242l2290k5306j0993N010J0887K280q351m406J3864K8175K2283j999k7673l5891j8891J2457L4503L1954
88861d0955J3763J658M474J2590J6288J7214J8547J6354Q361K208N460J2480J0719j780j3153j2921m833j761r953
88842E4760k1699k5168j9219j3093j0879n153Q031J7035J0079k945q07J7051K6968J4799l859p375K791J0416J0385
88823F2118R589R020K939n990p433r35J460o283j5631j8392j8897k4336l1599l1697k1789n945J1209K5181L0230
88804c7181K4397J3558M405m093j6006k7995l1696k6025j8548j2947l627J3121K9837L6166L1435K2235J1434k192
88786F278j4971j8007q062P203J7136J6586O165r767k3146k6672k1528j5598j1908n631M337R835O060J493N918J4852
88766e9427J6806J1312P365O875L360l139m377J66K08o949q880J797J1961N513j1830j9462r583N683J3710J4221
88746b4670J0665J635j2407k2767k1333j1477l190k83P83J058l651j3729k0743j6517l671Q060J3844J6534J8742
88727h3117J9180J7995J8356J9265J4131K506l311P478K6667L3990K1283O40j2571j5721j4864j3304r994m404K061
88708B6266O814N871l099j5149k0021j2834Q12J2537J9311K1677J9593J3886P257K66q685j5798j1354O323K1609
88689G5282J6093q025k7073k0981M951K5815K3059L196j0001k288J4895J8912L666j5372k3527k2936k1692j8897
88671A5077j0609k352k704q421q514j595L086K410M832J5350K5554K4368J1599m482j7167k3933k4340k0903j8819
88652d1563k0059k0030j3498j483J0230J6562J4822N139o932j2090o382L855J0349J3076J6464J8756J3579K287m006
88633i24K131J5865K8655L7744M1022L0567L314k5453l3875k1535j2283k2159l6735l2274j0730K285p877k7871l6482
88614a06615k8087j0434R439K8019M1056M5175M0940K9962J3405k982r416l722M049N370M885R731J4542R725M36J898
88594I7376J4703K0138O386j3130j7722p464r02p942j7990j8081j2249j3899k3098k2799j706K6674L6748K1038j391
88575F4690r320m002k886j4223k6976k5718q330J3155K4339J8857R94j8041k6842k0071j240J8488K6004J5880l143
88556B1615j4347q999N406J4450J1331N0j1884j9554k2068k2656k6114l2349l3709k2550j071J9191K7485K2621J3380
88537g9772J0787J6931K1459J4329K078K939K2257M1750L9868J5413j5918m0158n0948m5241k6531q388k479m766l220
88518h9610N053J5145K6275L7427L6493J3069j8876l1522j9262m515l165n865k397j556j0945j6268k045J9951K5824
88499b6789J5991J3959L0234M7862M7308K9604R597k096n234o286j2378k3617l1486l0232k6604k9699l4900l0014
88481f4780j5574m806j681N851K4592M1414L9734K2118N955J313K285j486j2093k2717k6109k3001k1543k5740k6775
88462a03043j3277R645K1999J3852j289n282J527N948L247l19k194o161r943m430J0314K0594J7611J0491J2029J9425
88442G44K0135J1940N081N156N570l18r179j4370j4876j1576j325J6793L2455L0769R396j7358l3422l5078k8446
88423b7909j8513n574R954K4072L1321K8856J8770P162q58o406j4636k5646l1142k4400j0710j442J621Q058K2123
88404a5299L2087K3445q27k0956k1144l690J7137K8550K5174R548p937j4361n879P374J2380P672K560L725P921Q038
88384I5518J828o627j1104q156N0P659J1201J2153J2218R867N027K177K614j385j5558l0599l1897k0938j3238j4083
88364F727j2050j163P901Q499J2819L0082M3560L0614j196k0291j2882J769J269j3191k6652l0910k5945j3257J540
88345a2757P889J558q965j4172j5480j9029k4233k5828k1747j2071M175K3239L2767K3036q1k0929l1138l4245l5254
88326a83265l3251k4981j0733M197J1647O926l433m094J3059L7732N2006M9775L8911K6753J3252m25o668q80Q909
88307d563Q567o687k6515l4802k3791o53J8384K1892J2663K551j714m089r245j2551o604M500P083k350q615K073
88287f4466J9864K2655Q303r54Q317J9514J0892j0920k0401r668M443Q647P987Q455M795m792q466J713J4531J5266
88267C5715O501p85p509k0618l2578k6402k400J6953J4346k672j4886j3555k063J5288L5768N2649N6131M1714J4195
88248A65792j6506m0581m9996m0144j4603J2454K4063J5218j859j1171j0024p911j0395j2445r009l677k533o036
88230a9363j1221j5667j5291n448J0084J8349J2491J975N14R157J8267K0343J3081l845k5455l9557l7851k5145r924
88211a04506P383K6115L3731J8947o898j9136j1177k71O62n5Q996K1947K4460J3827l85j0750j8002k4126k5851j6776
88191h1865M236K7098L7029L0865K1923K1949K4374J5828j153j1229r672o592p567p116m715r661k3301l2609k9739
88172d1917k3023j9570j2796J125J0085M876j691P505K6328L3888K4704J2416P146O557P346Q687M800q984k1754
88153B5728j6024M962J5764J973j9860k5678j5702r627j6318k2100j0613J4336L1086K4536N477J184K3954N3664
88135F6742N9115L4648N407n338k634o539k1014k8790j7172J940N360j1192k5251j4759J2234K5272R806j3910j7986
88116E5939l112N957l619j7822j9073r317k307l476p058o963j841O827J4912J6619J0589K122m638j1809k0076k1987
88096b0133j1145N907J5839J4706R649O161L288J510N163J3710J8911J5114O015k390q900j2957j0922l193R32o052
88076D1213j7655k0009q480R615K5971L5339L0538O555k6532m5993l9474j8648l512k79k180m032m487Q05J3934K3644
88056c667J4415j0025k6081j9819n002k078r778j1273k003M726n12j0885j6028j4449p253Q894L2877N1026M9340
88037B2425L0777J0849j905j1218j9819k2423j5771o498k921m642n561k554L571J0845J4682Q866n472j6854j7257
88018c0880j4235j9106k6726k0717O05J7786J4954j050j3177j4802q903L063J8780K8229K3273J1866J0164K0770
88000a06L0296K9053K1453J4031M648j0146k4988l0208k2556p425N687P634m134j9130j9594K89K3797K7275O183
87981C2059j9745k8118j6433r45L373k837r148j0310j0084j1779j2098p103J535J0493J9843K8783L1205K2958J0217
87962C1866K880J698m53o381j2010j4632j5391j4271j0944r212j1237r037O204K6216L0886J4939l511o856J472P009
87942I235L791m575j4117k1588k3074j9104j5068j1294j195J4863K4628K1469J6002J8908K2383J3070m302j2774q455
87923H803l184l144j542N019Q566L970j182J464Q259J0680Q617Q081R050M295q824k1402k1629q427P233J4578J2733
87902D2014O870N81l190M8Q591R778m149j8633j1942J1618K3339J0365o975q974n477j2418j9190n460K1392L4313
87882G2501K7206J9548K0081J3177j1748m0262n2765m7272l3081j6244o18Q574J1005J2553J5645J7527J9869K7650
87864F3346L6247L4089K1566J1380N701q472l3153m8060l8490j7636n810k320M101J0057M576o188m531R893J7290
87845E3586O689r735j6321j3084q171l194M414J1833J3382J0009Q679J1809J2767M660q643j4631o776O441J1322N545
87825H0581n30J844J1071K1162K8447K9940K2426P384q775k1820l0786l0938j6095P294J9655J0573p290j6414j8123
87806H9606k5110l6327l5611j6229P400J7791J4666J0631J2929J6740J4562N901l972j0887j3629j0283J216J6391
87788E5785K4021J8789R290N270J869j1215k7617k7848p533J4265K1293J8384J4192L094j9678l8300l2958j0680J45
87769A0568j4118l7444m6062l1470q83L1388M9836M7174L2691K3264K4003K5865K2527J8060J5029P047r633k5981
87751A41861l0275k3403j6008j2636o543Q318K5433L0644J8548m76j2813j7507k2763k8707k4775p899Q102R665J665
87732D0431j786J909L963J121q0M589J1132J4377J3138Q112J199l999o400r211j2106p843M911J2874M703r600j1009
87711F0425N51P854M952M622J3080J6165O37k4347l8332l3308j7125k28J2112J8421J8572J1386n703k9456m4731
87692b4453l6342r419J2725J5599Q497P524J4049J7829J3454M923j563k900m87l5n587j2169j0882k801J247k307l170
87671a6268O995K1359K7162K0209M668j3035k3557j7117M282K3525K5370J1920m641j7432k5623k7047j9589o034R764
87652a5089K7590M5841N6778N3667L8903K0334L913o566r439r176j3340k1619k6026k4706k3898k2384r625J2495
87634G7653K3434J2831o17L357J4555R502j0015k0457j3563m662m318n299j537J063j342l589m506j0105j7596j3008
87614C1781O665K3559K1390O202m926o508o232j0547j6935j7335o145J1548K1045J4871N166P276J4593P629j2144
87595I0953k0071o469O104k923k0971k3576j0987k087k117J441J4886K9512L5892L1725J6901n661k5514l3353l1663
87576D2022k5796j1106J4971L4478K4911n962k3968j3100M856M517r371j7157j6247j8014k2529j7771k024J1065
87558d6225J1919N225k480j1673k0194j6788M692L0568L7827J9049j0476l0211l1742j8244L818K5752L5695K7285
87540A3797J0399M603J7434L4047L3338J1175j6529l0834k4911n207J5107K3697J6885L237m045l72O749Q041K608
87521A19219l797p014p869q659r037o366l43L667q66j1990j8419j2818j965L688P061J9358L7515M1326K0763o022
87501A57432j4569n992j641r784j5483p240K954l353k4179l9363l5384j7701n30O746L521k855o51J5926L7066M3843
87481H8763K7867N22j9360k2496j1767N395K1099K7503K1095O957n922j3850j9434k4660k7909k7653k3693j4333J295
87462a0581J6401J9120O855p308q571K661J3749J6340J2631P264J773k041j757l29n092j6198k2300j3656M539J8018
87442C1518J9759J4801J0867J0228J0321P238j572j4224k4008k5211j8355p124P052K2885L5338M0529M1992M3868
87424B05902L9810J9525j2615l7227m2665l7603l4875l3383k5454j3159m779l37O085J1944P834n106j1874k547J4568
87405D4044K4445K3707K1624K6399L5082L6227K1521l549k2031k2250j0151J46M567Q513J0726K037j6358k8256k5117
87386A31326k1245l3076n1686n1730k5304Q147K6741K7422J8789O162p422j4593r732J200O831O395J1227K7591M5286
87367A02329M8808L6022J9297R217L868m285j6891k8923l4980l2236k0648n261M684M365j015m022m352l920K051
87348G4108J7771L3503L3545J8759P160Q288J1342M956o021j3150j9683l0032l5597k6925j1680m358m445j365M264
87329F0440K840l512j995Q512J5156J3702J4448K0387J8845L930j0057j0085m827r206j9265j8146j406J7523K4235
87310A21519J5175m752k6385l9518l9645l0996j9314o238N015O491l329j1387l346J8122L6633M0358K9474J0468p195
87291I1150j2495k266J1675J3847K785j0238j7148j8203j3892l351R014J5821J6585J6306J4535O386n756j3402j6072
87272H5281k1238k6958j8923P498L4175L9461K2970K222q962j0270q902j2528k4278l7324l8280k2424p29J4503K4343
87253c63L4992M2072L5944J9123M722k154q253j6171j8061j0162j530q89m336l977n40J961O756J7833K6892J9663
87233A43522l956k6560l2393k1241j160K2192M2652M9229L5807J2490k986o003q551j9501l0207k7109j3238o755
87215A06232j6961l0864k9175j0277R315J6345J4194J3247J6009J7525J5526J2707J0664Q473P025Q377J0012O519r78
87196A83915l489L939J4192J5862M548j6799m1914n9560n4845k3384J7084L9076L1567Q287r726j2887m815N692J0613
87177A07356O641k814j2076j9869k7376l1163k5369j1120M463J9291L6424N0567M6851K0940q906k0229j1821j739
87159A20051l697j3857j9256j2234K858J3303J0352j09m514p32m56p986j0016K524J5150R324p519j2019j000N121
87139H5288k965q214M282K2144K2560K439k0599k9103j7340R988L9243N2694M2238J7133o584k0427k3991j9152j0210
87120A39424l450O7N326J2019J0817k359j7848k6557l1943l6325k7435K776L3525L2521q33l0173k6112J601K3734
87101E8775K7571K1379J4595Q602K831j868n758r060r577o555m376p055j1397j1078n743j085j109m934j0128j4675
87081B9355j5930j1395j062J2728K6794L7161M0371L7378L3339L0220K2961P822q280j3461n430O009J1489J0808P399
87062B58276J457o523j0665n467N141J1149R263O492R298J4469J4452P438l091j6367l4856n5546o6640n7470k9825
87043E0985L351K9322M3658M9100M9539M5084L1692O980k2228m1052l9285k2199n061K774M948R527J7529K1409J2802
87024B48875q765l2936m5336m0463k7311j8822j7271j5033p892N15P994J7796K9219L3473K5893J4822R712O432n038
87005A75864k2057l0259k2564o892N801J1459R985L027k327K069J2782J6007O675l280k615K857J206o189p872k44
86985A43433R454J5657J8900J8842J3453N606J323J063Q09P06L199M026k962j1940r271N865J8482J9148J4100Q546
86965B78439l594k3053l4436k7654j7482k2912l5359k8775J534L0942L8104K6811J1233l049j5426k2266k2494k1468
86947A09095k0936j3891K908J9579K4750J9739J3391Q985M372m13m156q875j5501j8611j3013k608M204N258M133J839
86927A20249l724j1431j6641j6783j2815o691j130J457L995J3847L0979M2602L8142K5127J9571K3069K1443O762
86909B78028j1456k1191k4066k9589l9326m3967l4686j3527P058J4668Q993K907Q447K2776L2385K9659J9013P107
86891B13233m917j7060k5090k4111j3706K898K1110L4439L6484K6966J3046K150m356r293j4316j7870j6766j0387
86873A92454n057j0772k8119m1787l5226j0528J4869K9507L4530K9766R803j9561l6373k6562l062J1573J3668J5882
86855A35005K2546K3813J3442j969j3228j6532r971N955K1481K2730Q531p006j2892j2462j1360n657Q566K2400K2974
86836B16366J1317l3n573j1440j9903k0769n323J7520K7606J5158r810l0188l8430l7731l1277j7675J837J8068K1312
86817A01032J1805j923j3394k1225k3528j7287m902O836J7870L6374O2624P9492O9676L8120N949j5384l1074m4134
86799B56927m5269k8561n067R371J2167J0408O617m52o129m042J579J50q730j4602j2982j0752j2189j2145p982o211
86779A22106r909j0482j168J0448J3689J0789J0578J2628J0096L893J592M643Q275J1831J7403K0088J2434j783j0767
86760B36384j1668j1425j1143m946L886K893q668j6364j5382k0023l6499m4682k5435P417K3918J8669J2309J6275
86742A15516J9441J2363L212J330J311n748j5827j6524j861K3179M5964N0380K7582j0146l4587k9365p123Q150R428
86723A96675P879J1172J3272O273p937k1138k6806k1618n624J4014K4272J7897K804n936l885j580q709j9720k1374
86704A49931j1887l881o382j1726o093J1774K8979L3315K3659P563m777m798Q375K3901K6854J2675r777l0003m4465
86685A93237n1090m3685k0104P296J8988Q810q258j2915l324M511k047j6072j9893p478Q356J2129L400n823o874j291
86665E7873O809J7961L3478M7294M6502K3330j2709l8460l8430k1744j0948j3763j5809m749J1143J7993J8000K1009
86647A44780K2652J0102j3095k8273k9438k9522l3445k6481j460K1364J9641J635n723N946K0520K5071K4225K4952
86629A53451K3550J3689l228k1017l4450l9186l3285k1564j2081o515m3Q324J2531Q398q18r598j4491j1855J322
86610A3134K1027L6690M1327L6839K7493J4518L47p505k049J5236L3703L9644K5516j766k3586k7156j8652j1770p747
86591B05243P72R525N521o774m212J9080L5210K0299q081j5139Q23J0160q70j5113k0005k7271m4256n2116l3136j994
86571G7666J2814P711K673Q088J4799J4971J2451R992L496o562j2192j1317j1714j6538j7771j0404k604l999j1739
86552E9821j5459j0243P95J1193J4324Q543K416O661J7310J7596J976j3799j5205q400m639K185K3548M9293N4635
86533B02551L4534J1558N313J0556J1983N803k236q540j1415p462K476R260N187o401j6552k1147k1454j9867j9549
86514A64598k2358k2885j1992Q206K1023J4973r8o158r62J711p396k2741l3123l1141j3918J5300M3360N3400L9857
86495A89656J3857q260j7939j5758o338M142R583Q183M416L708N385L682l392r354p212p73j306j0206j3087M47J6945
86474A66379J2288j5751m1969m4089k5267j188K0062L4814L5129K0021O710J2359K8438L0701J3629l130m883n02l432
86455B40319r300m811R478J7966J0102o782j6133j0030L110Q363O72j1739k0464k5938k8786k1716j748J5987J2253
86436A60803r703k6903k6568j7437r040J120J2333J1917l969j6046o457J2529J4213l596j6232r291K367q1j1382
86417E8577j2066K484J6215J4323R28p915l325Q323J4763J1688O005O561J3388J6678O497j5751l5664l8192k2947
86398D0570m240O131J0968J7919K4100K0840J0846P407J4133J8273J0158j961n429k546m928j3579j6873q069M778
86379A28498Q985J674q284j0245k758N189N313J094K405R273R623l082j8877k4599k0594j6024j4095j1757r665j1732
86359B0342j6084j5152m579J3518L3488M6861M4890K8172R522l94n048j0964j2292J5J8686K6262J9746J3196J4486
86340B24671J5012N659j1589l1606n0850n9941m7838k0802j451R5j077Q707J9366J6920J0340J6870K9750K4406m749
86321A41893l4715m3223k9990o399J8053L3511L0955J4998L199L972O215p90r362p000K077L476n224j3793j7952
86302H9901k3323k9577k5558o671J3336J6768L497q629l099J9192M1039M3718K3237n903k4908k8690k6290k4810
86284D3230k0652q893P316K2055L3856M0511L4127J1696j3859k4744j8751p933J094J1853K1958J8385l237k6784
86266A21228l3731k5401j6891j5191j4173p650L337J4668K1620J8649N812n460k319J3111K5720K6413K0165J3554
86248A63461M841p870j7150j3839q49Q442N419n129j2319j1310o546m972q522j3617j6229j5061j0460l515K927N998
86228D3700P004R699J2585R052p43n134L837J5886J3872k480j5410j2196J834J5898K7864L9190M4698L6952J7673
86209B63781k554j4928j8315j5627q958P98J1315J7509J4638L912p622j5740k4222l5883m1724k8172L656L4110M3976
86190A79950L2144J2210k922j0001j3294j6781j7791j0256L231Q644j983j5569j3257K324J0793N330J293Q298J3629
86171A75992N530m456M78J4261J6872L958j0967j9549k5415k9020k3532q692N203J0901J0760P889K092l116j272N822
86151A33739Q314L386q19o51m248j5658k2579j1367J1707K6296K3236J3281R254Q943J781j2675k1358j4103L145
86132A39624J6577K1875K5371K9226K6213J3214k28m522l500n992j0599j0111o696r561j8438k1600j1796N800K2253
86113A97110L1497K8102J0391j0891j8128o605R273J3800O457k884o896m048L537R708O951n819k1484l2099l3633
86094A74339k4683r002J205m332j8172k1280q447M741N265R4K517J3283K4772L3169L6066K8236J1598O61N175J4218
86074B69423R846r347k9546l9433l4604j3237J6485L1229J3977k1122m2390l8124k3495j1627J466J9345L3272L6872
86056A68990L6582L7798L4507K2004O477q218k8815n4170o2203l4745J1575L9328L4307J7908J3264J6506J0279o944
86038B54430j8707j3977j100M875K244L654J7287L3163L3503J4697q044j9085j8274j4674j1654n948K284P401O691
86019B68766L928K798J393m490j5149k5285k7362j7483J1J5049K1155K0903K0082J9655J6843J0312o72j7792l6730
86000B55932m3118k7411l366K689j4183k8192j7076O586J3593K03p448Q275L2261L8965K5378J0113P877J6873K7224
85981C05175K9778J7561r669l8733m9407l3503m689J4042J1176n574j9466k1298j7144j8825k6006k2995M63K9662
85963A40548L7456J7133q371j4494j968J1220J5375J5362J6299J5274Q359k510j1935j5717j2534n092M10l82n518
85944A98915r901j0864p917r65O795Q257O12r321j3912j4677j6197j5524p846J065P12p069r992m878j748n785r263
85923G0497o187j166L201J3621L0889M0382L1266J5223J0947J6923J6205M787k410M109J3392R715o624k0952k1359
85904B22459r657J577J173q472j2220L39K0367K9885K5310K1226K8295L7338L2339J3157l816o575j356k262j1960
85885C77147j9669j9148k0250l3880m9435m1698n083L1807L6740J0806j7218k6740k0893r927K859J5494K2781K4053
85867B57746K4497K3276J1259j2653l3598l8053l0827k5397k4132j8909p315K588L452l039r345q832k22J0869J6726
85848A38091J6770J8244K4108K6158J6975L786J026J0784K0126J8815J1274P607R429J0058N775R04N62K178j301r856
85828C31513j3951p683J075J942o66O146K0278K3091O996j0460j1142k154k602j4100k1696j8482j0998k174J2489
85809B87422K9846L7358L0939K0085J0901j159j6368k4391k1570j9692k6435l0773k1688r680j2067k4236k4374n120
85791A78998J7074K5997K4040K1910K2537K1912J7489R749J246j992N644K0094K8462K3677J2758N887K863l290j3487
85772D21568k0652j8944q960N153J7872K2459J5522L311j948N025J6181J8897Q531q964k3446k7185j9088o526m33
85753C98373m232r507p337j175j168o508l519J4719L5502M0925K9977J7975J6651K2689K5135J6939n71j8089k3214
85734E43565j2090L006M592j0059k6503l1520k5913j6915p836j088k581j3772k4287k1864p673N745R912O406r25
85715C70200j0830k0272k2786j5257k325Q688J4628J6727J7289J8148K0052K1338J8646J0717O91o748j0206j2190
85697D16510j4277j2770j782J7806L4854L7408K5465J0801L930M981P376N504k260j2605j7376j0688J447N421j867
85678D97878o870K134J7574K2851J4700M210j712p472j6305k2329j9902j2735p854n794k088M529J0033J0201N329L74
85658D86752R24Q080J7364K3358K3830J8665Q648j929o310l744k424p782j2722q099J211K087o357j0697l303P896
85638E35448J4426K0057L0132L6788K6139j871k9232l6763k2039l96J0351O622K00K150R608J3099J2176J4471K1145
85619F62511K4147J8964R522j094j3160k0719j3375N338J4168l54k3854l0969j5604O484J9899K2698K0320J7204
85601G02126J4707J0661J991q378j2088p918o796j6205k6403k2785p037N668P329K967k504j0247j8379j8208m908
85582E83593J3495K1717J0417j4612l4415l2519j2607N110R076Q365J2675J4032L326o687L358K6751L7195K7680
85564F75950J8233K0011J6945m648k9380l2889j4570O464J7817K0318J5969N492n585j1189j2543j2352o168R640
85546F77515K5987K9222J8895O713J97k027r02M925J1390J0581K049o267r546r244l754J2662L6251M9090L7274R597
85526I00608j0334r530L194J1354R347L544j87l256q666j4937j8733j8972j4299j497J7393L1120L0864K2598J7715
85507I47326J4810M497q718p429J1014K6121K3241J3946J3454J3581k211k7610l9857l2676k1192j4822o331Q953
85489I16097K2113K5125K1470J6428J0302O320J1154K0806J9410L72k2682l3514l0574j9267n44K1526L2696K4192
85471A041430Q685O455J9070K8921K2995O416o569o384N975J9571K1812J2046L634O673J4375J4432P254J942p07p625
85451A220401j8098k2477j7038q395k293J042L13n134n489J2761M4805O5531N7716L1769R923J168O27L133N481K703
85431A378449n273q381L42J1150J0239K255N025K2108L6184L3130J8703N663k304o033k880N276N873q174k2525j7519
85411A461308J974J0149l049j5666l975K4021L9631L1177J4684P958J0137J2444J5798K6149L9148M2223L1681J8358
85393A764150J4598K2683L7252N1266N6377M5628K2687L663K437J6118L0352L5802L2774K2949O982q452j1094M002
85375B150174K7278M3988M6544L6336K0527J0551J5098K8128L1467J8110N546J4079L7106M8231L6952K0555J6800
85358B607470K1228K0677J4771J0367N110o339j4892m268K3139M4137M4176L5431L7058M8261N2793M4114L2915L0140
85340C046288L3827L6627L8133M3222N1517N5284M8757L5862K6759K8347L9617N4002O3062N9234M0941J7644N018
85323C724141R883K2474K8992K9256L4404M7465N5868M7626K7949J3617J5163L0167M9790O4958O8784O0852M9110
85306D380499M1940L8971L5363L3175L9482N2807O1689O0934N9683O6182P2331O3751M1303K2200K0479L5055N6474
85289E182318P5541Q4203P8945O8417O8362Q2030R3204Q6770O9396N9316O0839O2292N8068N7734O8602Q2416Q8634
85272F427087R2227J06334J30353J46324J38852J11815Q2939O6167O1987O2991O5703P4220R0531J04854J03370Q7350
85256G953104P6286Q6418J12504J37139J51131J55560J50673J36337J21126J16252J19170J16712J07093J04403
85242I643908J15853J29592J34491J38559J54067J74596J83122J77625J72729J77507J86389J92685J97387K01789
85228A1980299K03217K01965K02465K04005K00120J91452J89449K01471K20161K33369K37565K36366K33633K34133
85214A4969670K43304K58941K70213K72631K76761K92501L11722L19118L16025L19439L37652L60129L73971L78833
85200A9300910L81353L85005L91207M02548M18873M35629M50420M65226M78308M81741M73840M67974M80398N12209
85186B5525641N50067N81832O04163O17518O23361O28005O41433O67539O98312P20507P27592P25364P27200P42387
85172C4780921P66912P87592P97935Q07308Q29988Q67346R06353R35016R53323R68612R86213J007143J030867
85159D6425529J057118J085695J114257J135824J142784J138149J138328J155876J181562J193989J187447J178667
85147F0135225J183084J196348J204597J200734J182480J147100J100599J061457J038922J014439R63133Q90347
85135G3318465Q26742P85628P46275O86748O13246N42771M71998L82589K71120J56342N7393k2284q9876j54952
85121G8592205k28265l17302m17442n14096n97334o69566p37400q03237q68454r37667j012765j085741j144197
85108F9258739j184262j213980j242838j270848j290225j297310j299716j308540j324393j336075j335188j326473
85096E3828891j318601j309787j291374j263914j239178j223720j209270j184125j147157j105948j068143j040434
85084C9427240j028455j027751j019364r86095r34025q89025q69721q70256q70613q56413q26116p86643p47922
85071B7714841p17991o98031o82761o66909o49077o29368o07997n87249n69242n50402n25112m97357m79779m75506
85057A9378060m70114m50655m24610m07643l98873l84433l63623l52985l59718l67956l61099l44512l33724l30105
85043A4028010l22671l08105k94083k84416k74703k63743k56764k53668k44667k24107k01808j93659k03092k16145
85029A0486379k14767j94712j71400j66126j83544k05222k09677j94985j75439j60865j50349j44172j47223j56456
85015H011442j57657j42613j21146j09195j11825j23231j34819j36513j19851r0294o9372p3010r2310j06340j09015
85000F314251j10886j17837j22888j20112j13421j07489j00160q8515p4623o1794n1925m9003n7473p4006q8115r4250
84984D881754r6430r8071r5437q5816p4349o6419n9343m8646l8174l6937m7688o3426p3475p0337n4153l3953k1244
84967C817856j9044k0423j9691j9702k4987l4043m3419n3525o4166o9287o3362m9997l8517l4971m0501n2641o2096
84950C107484n5660l2277j0996j1559l0019m5289m7131m3888m2571l7124k2034m854K959o24j0577k2747l3011l5738
84932B624344l0217k3090j8913j4784r580r835j7929k2855j4373n79J622r441j9629k1672k3826l2636m1053m0968
84914B274586l6584l5854l6455l1182k3078k3832l6437m7614m0789j3334J9600L6104K4370o318l1672l4396k0826
84897A936289j1606j6018k1860j3293P566K2943K0523N820o669r196n301k371l634o999q963q238o210m910n310p635
84877A854928j2255j9108k6237l0178k8457k1665j3389q570j0804j9326k8938l5049l8635m3060m5882l9148k1288
84860A412939l849M50o053r500m067J481k04k718K575J0272P849m547j3909j4495j5272k2461k6864j8143l387P87
84840A290884q626j7781j5991q426o120j2179k2166l1003l4101k7234j1690L400R131N585q78n909q438p361l192j025
84820A086880m895r685n805O707J5339R436p689k3929l0840k7273j5650q67R492J0191L886k496o386j0066j3317
84801I83033j2020o093k570o141j0766o424Q074K4598L5998L9763L2484J1104j5961k9206j9666m413p846k9012m1581
84782I43355k9627r071m050j3728j7661q415j048q178k1432k5406j8865j1715q030l534K645M610m16o899q792p274
84762G46469p130q903q414k919M820R021O555M6m938n901n673q026j2557j5558j4682j0697n464k51M578J0100J7738
84741F88214K5566K8133K3887K0125K3305K4937P240l1601o6322o8818m0028p216R269J3931J8034J8224N439j3419
84723F78900j9396p416N878N234l806o400k40M489J816m721j1599j9279k5530k4299j4602l359L685P588J0044Q868
84703E85855M026J344M266P170L472m082q164q178r066j1511j2186j2426j6548k0443j2679P349K1341J1320j6938
84684E13922l8791l8447k3668j1217n457K549J8625L5452L9952K6349O41k4251l6342l1750j7658n836l46N331J5772
84665D24830K3219J7085R64r479o347J877L859j599r743j7608k1698j6972o003p28n498o519R120L0055L1889R871
84645D50575j5306k5479k3246j8601j3392p376o331j2557j6537r578K046P123P922J5353K8198L1105J5810o352j7879
84626C85498j3864k995M664N859K882j371o671j4079k1217k1194r899O869J8254K0391J8925J8978J8415J3698P315
84607D30458M642N951N920q2j2281k7690m1324m7143m1624k6947q351J0848K8360L8302L3645J5692l306j0817n351
84588C48902M808J0903R031N0j1305j9364k2892k4412k1777p527J6573L2537K6197Q783K616P733K832j7984l2480
84569C13224k4818j0667r957j3424m72K2290K8902J5400M486P336Q187n447k1783k5641j9930j2803q58J8879L3368
84550C06272K6766J935k3678l7298l6629k4896r870j1O594K0006L7665L9214J3488k1983m1950m1870l1270j2836
84532A69649J2286K9578K4486N166q497j2589j5185j2183O367K8437K7240J08k5562l1096k6477k4126j8468l598
84514A25536J1533J9934K8349L7962L3845J0754r516o897O808P766m174j2904j6823k5067l0430j5528J3583K7138
84496B01869J1831j0498j3221K944J7331J5160k972k5982l7765k6559K282K8194L5885K9119K0938J6933J3054M439
84478B82982q684k0872k4753j7620n823J084M09l597p242q520l469Q813J8840J5912N147K787J1842J6228M861j2272
84458B56053k0867k2250k4345k3822j3142Q60K364j0469k2525k2586j4298m713M574J0607O840l889m822J4531L9568
84439A47669M4293K2243p329k4770l0098l2837l2615k1249k47J6637K1068K0416K4732L1529L2120K6714K1331J2675
84421B72282q954l8470n2416l6035l784J8046K1316J6087P714q454k9573m0363l2630j6874o286J31Q654J4505P886
84402I2782p511j5138n712J2757K6390K8871K1533Q009o501j5298j4450o087L688Q895O266k417r724p604M735J8789
84382A42273K3149J2516o781j9227j2974O021J7939J2572K353K975Q064j450k4679l6196j9824R052K4441J9912O514
84363A66650p520k0172k6361k1256j0423l730r33N059J3056J4820J0901J1574J9564K3978J6356L450j672M535J3052
84344B10928J1685l490k2507k8925j7314R2R602J2306J5003J3255l85j6228j5443J248J2998J0622Q061J4686J7966
84325B34160P162m734j183R830Q066p465j9540k0870k1620k8540l2893k3271k03K4492L5813K4181n539l3499m0666
84306A03681k6267o102L950k70j0274j1177M919K7053L4830K3958J0821N535l012k2337l4549k0977L871R096p834
84287H4915k0271j4826o743p986o758R514L1249M0709L5083K4104J5133R082J983j4156m1512o5080o4769m1553j5701
84268d7583L186K3739M5095M7230K3449j03K226J9739K4395J1682j140p413j6103k8382l3019k6423j7899j2760o114
84249C802M558J4787K2341K7915K6635J3031m653r580J423J3656J5112Q923K863m73O86Q172J4806O444j9415m5885
84229A05148n4144m1562j8700K645J3795J1800N155Q643K4975L8727L5741K0990Q427O43r549k1460k4143j3170J278
84210I5239P628O855P670J2340J4145Q196r05n110l628l446r313j7062j8256q237J1630L4538M7785L8457Q041k1967
84190B04600k9366j6480o636j4022k7713l0164k0437r812k696M990J1600Q230n629j6485j3970n478m448q982m143
84171A2959J3521K6075J6583o310j7416o374J1650J8504J4713J1889J2522Q464l550j5417j8064j1497k729J504j228
84152F5799q159j3274j2749q299k866M584J5620K6194K9850K6125J9891J3360N316k837q147j3671k5942m2447m9962
84133A8386l9509j6235R016L0128M3082M1829K5673N724m793m135P23O251J2992J7017J1789l10q492r105j1620k3185
84113A05226l4782l1962j5725k377j645m381K665J6435K0407O377j4732k6210k3837j6791j3861j3862r147M691K2764
84094c0747L3567K9237J4370K265Q43N845R709J1347J2248R219j36q562o674J437J760q159j2968m76K1002L4277
84074A19404L4614K9816K4538J6024M454l175k862k61l291j1386j5787r779K804R406Q4k1819m1465m6599l8899k9753
84054A6068k6381k4682j5395M086K3821K7680Q972j9189l3665k4953p232j60m578m052J0494K7000K7598J2033j079
84035c614L837K0789K8678J5811n389j1907K061J6979J1576j0867k7704k6046j6174j3554j7700j6508n129R247J9036
84016b6578K3227K2006J3081k543j6921k2071j7562q104K804J2806J7720J4535O832K415N046J2185K0786L0424L8611
83997A28699L7275J9080j1902l8682m3918k6368l786M083m008j1391o202L001P8j5570k8229k6961j7756j2860j6289
83978g1706k3361k7964k6218j7725o333L419J0986J6502J4937K433j2501j6029q926n889j0796q666Q674K5176K3607
83959a30380J3028J4864L0142M0706L8269L1602K5511J3516m306j4506q797M268J3421J8665K3616K4064J3315o606
83941A40392k5104l1309k0933q02J3008Q878p505k0691k4518k4828k5356k2900j6120o523R289L3731N3720M9280
83923H1709K1515m203r601k502K530N127R403R004k980j8904k4625j6116L46J5587J8020q15l1297m8420l9894j9594
83903e5710m066P971J9937K0558L134j3981j0512K939O83j7342k7684k1873j4391j1424l0K4284M3783M3295L0138
83884A9709J8729J1058K851m359q010j1315j6811k1273k2676k2910j9069k899K4586M7434N0810L6027J5319m76n588
83865I1137L20J0208J4833J3345J2366J3766J1824L556p522j8482k7108k5550q282J1721J1580j0127k6225j4811
83847E6549J2741K8358K1265M179o039l275O148Q225o329k8149l5568k1107j916L457k788q822j3954k2836k7772
83828c7633j5576R831K8282K8518J9173J1872N982m131j6043k1672j8497j1194l099P730K1262K8685J9822j641j7514
83809C4157j4811n40R667J1043Q069K91j4704k6966k1496k216R662O708N827J8401K8934J8837l300j3392m634Q952
83789E8489J5350J4175P274m667j6902k4201k8578l3836l6048k9809j9585j3102p473N388K2559L2550L2222K8604
83771B410K5237J9825J4655J5136J6652O934j4673l2512l3842k2233p136R189K6796L8282L3930J5079m148j0634o397
83752I2550o655k1084l8440l7262j4103Q960J2117L310M000J6940K3957J3669m461j5946j7604j3582o109L630J1992
83733A5879J4948J0457j353j5567k2093j5233k589K909j187o513p199m871k269j088m324j1022j1040L478K3034K9683
83713e960K0682J0723J0184J4282J5221J2258P496L199M127J0549J0157p730l1256l8257k9661k7314l4091k3849
83695g9240J5417N4674O1531M4585L4644L6413K8138K908j9068k2079j4995j2857j6466j8760j8132j6383j1817k003
83677D6510J0755K0403K0636P905j3794l1649l4273k3866j2908q938q274m883O45K826j169o628m007R747K1926J4080
83657E044j3500l5879l1030o372J3464J9168K2083K9208L0416J6061n594j7267j1888L459J7516K3191J9933J2976
83639I0989Q608P843O534K094l600q299j1492j1234l982R274K0338K0713R907m445j3266j2469n151J495K526j311
83619A05072o493j0638j1903q011r5M827J05j2168k2203k1228p618J2050K4951K0193P78j6672k0146j5260j2430p684
83599d573J0519L7797N2791M3054J8947l324k0122l4295m1890l6793k2875j0651m099Q96O695J0366R848P312N490
83580B5093M545K859j561r443j7704k0758j6932j0510m574L736J5521K2065J3066p838k4033k4284j3880m966k111
83561g1709j457J097O979J7539L2648M5962M6900L0747N263j5246k2397j9606j6358j7847k0740j8729j1086l929k174
83542c4143k664J256R169J3137J0274J0176K2859M1610M6715K9089L229r177m731j046j4841m2808o5345o5103l9924
83523i2268j275L5213N7111N8176M0274J4100o281j4148j4114j2749q987L63R391Q099p41j827J0419K1045J4981p74
83503A16008p509j185N365M023L34p51l622j0395j2261j870J2543J5269K576j3890k2142k1162j6348j0122j683O405
83483C9583P178k604j6214k3393k2262j9630j8885j4544k411J1803K0100K2498K2371J7159M174q083o972N820J4218
83464B9906Q208n581j5816j8380j3183k79J4318J7761L490j9290l4356l2792j6646M671J8380J6568N401m65L831Q698
83444b5556P465P762J8026L2046L6742K8560J2992n892k5579l9912m3517l8034k7090j0916O520J3592N475m622j806
83425e3744Q887J1542N071L134J0263J5571J1727M138k012q957j5876j4885l231J1703K3514L1326L0692J4959q942
83406G4880k1902j8171j4350k2486k9435j7633N955J9117J4641M182k662n896m262N805J9084K3597J6574P220K050
83387E6308j412m666l771J763N879N841O044Q194P130J320j569L722J0226Q223q58p441p171l940j619R7R50l212
83365H0038j6173l4961m9250m8445l0861n872J4304K4118K4797J8361O787m308p807k806M047N896R13q493j6049
83346d5764j2490N412K5614K9778J4973j715m020O481J8394K5295K4850J3657n210j6554q785P551J0309n717k3490
83327E8569k8219k4189k2161k1263j2327O256K4324L0566K3066R585n26m755p121q919m262R990K3711K2181N408
83308G9914j0021j0691l41Q576R880O432M034O290J0505P172r594k9727l4725k1022n292r96j323N592J5971J8024
83288D8658J1553M542l834j9419l4575l2103j0946Q204R007j861q544o529j415K250J777n627j6444j9258q459O288
83268g6735J2788J2305J3478J6554J5441J1346J1118J3092P927m593j2030p086J415J618n637j1068j0488o464j186
83249a8205M015M153n849k1307k7224j1811J9407M4255M0697O945l3738n1713l7660r108J0336J3819J0393P898N666
83230d9031K884M018J1212J7256J2691j264j1647p124Q837J9303R969j4425l1079k0478J2533M2307M8098L2294J1648
83211I8002l478j5277k7766l8126l9766k8562n226K2901M1414L7533J4645o236o101J2384K9767L2542K4753J6982
83193A60385J1360J830j5126l5010m8994m9762l5611j2828O864J5322J4511J1001N466n990j9451k0797k299K3580
83175D451L5374K5856O120j2242k8272m2421m7739l8813k2090p501N317K1914L7597L9962K7509J3272O171K94j1232
83156A3527k2370k3534j7201j3553j4821j4133p730R11Q163J3098J3889R426M508N944J3188J9758K3420K6823K8652
83137F7965K4096J5189J0002Q655J674j2475j9993j0767N004J0238L767k807n973j3375k6377l3369k5032o943Q104
83118b417J4120J4372J5033K0013K8150L2758K7189J2705k196j0725j2216q234m83O315O439J018k507k112n413j6984
83098A14825k8192k7755j8256j2941j7140k1223j3987K886J6482J6136M295m723J374J7854K5326J1858j1009k1649
83080C4161j4992n930o526j1631j1204n966k964l542m401m819l958L884K0768L4970L0792Q920j2444j8030r367J629
83060A9350L910p583k7276l7892k5892j456R668p3q312N789L1900M4209L5801J9811M013j4674l1869l3324j6152M497
83040b5555J6583K4082L1441L0229J2710j2254k8932l2725k8544j9370p525l1l77l85P503J4989Q597q259j9208j9799
83020e6830k2066l1678l6668k6087o947O785J2835J8445K6270L2388L4878L5537L4548L0487K5023K1775K0497J7317
83002A36509J1208O014M665M345l82j0831k2568l0767l5008l6392l1847j7275K232J2559O546n961j1347r928j0629
82983c8857j2888p824L550Q432J408q719j5267k1587k6263j7438O539K6121K5298J4491J1918J4319P307n085o955
82964d1500k003r533k7077k7212j858J8808R578j1429j1580O353J1707m840j8956j1297O632J3398N888m082q491o934
82944a14428N52J3728K7499L3554K7057J0925l981m395J3300L5612M2942K9615P519j0099k0125k3739k0084j1636
82926C3816p014j0286j3343o920N470J2673J1272P282M798J626m054j0572j7172k4689l0491k8536j6061M202K8366
82907e9633N1609O3784N3930K4569m231j2286N51J5870J6527J067j9485l3474l6268l0363k1105j2363n917l810p847
82888a8875j4519j4216j578J3726J3774o224k8416l0083q686J6881K8559K5205J5749N699l477q172m903L273R909
82869f374J3449J5623J3734M290n561j873J6123K9863K2663R4j8574k3249j9011j4487j3800j7106k0096j4783N45
82850c8530J4123J2685n41r452n949L132J0287J6086K0138J5320r16j7003j6973L049L1534N0537M6725K0987r302
82831A45937k4179k0723j2751j0015q179k633J528J821P747K4536L7035K5925m569l0184l5637k6384j3201n08Q015
82812F3581P052j053m875K245J3812J9107J3807l87j8528l2045l3862k7678k4762k8018k7210j4644K103R136K560
82793g9659r003j3329k646K0603M1522M3324K6103Q877O617J1767P168q339j8941j5125o109n304j2059j5190j0691
82774c0414p279j1623j4741j946K3362L6494K0037j1251k6068j4548K792N199m088r735o809n01P127J7115K4544
82755b333K0948N446j3354k5623k6586j8328r134n748l041R743K7920K9369M432k4568k9827j5043o807j4571k1158
82736a18263j2965K381J3547K0943K6736K6722K1632K0970K4848J7124r456l4370l2692q845J0454J1914O495N973
82718f852P478O276Q615K1499L7804M2158K9873J2734M869P079P567l724k4834m5765n7912n6454l8842r423J6126
82699d1728K1589Q476m729m961K083M973K899J611J738J058K613J0423K0692K5972K4844J9580R062o500j8051j5952
82679F5692l298R364J9372L0134L6983K9995J1729k805p463j2111k3430l2721l0846k2677j6414r438K794J2313P955
82660F5128n042r674j610M196m876k1467k8631k1119q760j798m71l57j440o264j1388q395L513J2646R496J953O286
82639b8074K3397L4686K5142J565j7837k4534k2900j8017r951N24Q807J2195J5024K4634M1349N3497M6008J7276
82621A82791j5323l2433l3244l1634l3975l2712k3751j6242j7349j9377j3083m459m970j1128q106Q535K7668L8520
82603d0272L9781L2856J8575L286k896J159M876M42p150r019n032k371n308j0805j2085m162J2070K9633M0605M1626
82583A25809L3736J9767M496o807j4461k4436l6399l7835j9986M768J3754J280j6799k5107k2238j1547N673K2162
82565A5830K4323R566o016o730L655J0141N991m912j8096l0128l4166k4376m400J5203K7445L2573L2994K8754J7644
82546I5295q84j9731k5070j1314O106M769j5819l2207k7980j2114N13R889J9578K0694N710j2576j5844p058k738m448
82526b5229j79Q727O652p258j2978r41J1500P171m389k430J4909L1011L3802K4948J1271j282q173j0569j6324k8367
82506C1872l5486k4213J855K3686K7825J7925M942n621j3039j4895q607J883P408M793K789J1030K4157K5155Q044
82487I1503j1084j3867m352k322j4518k5835k1207l828J3349K3209K4515J5972j61j4163j8014j5350j4585j4735o631
82468a2104J1866K8956L0189J3771o927j5381o468J0400K2620K6584K6179K2538J2184m733k1121k9446k6313j1288
82450G1506J0817K6165K0904k123k4486l3813l4554l3216k5975j0479J670j781j4456j9036j0542R86Q399J4483K0788
82431c4743K2066J5778Q210O791J1492J5624J1659k181j6583j6101K888K2828K3595Q021l177j480j360j6666l8929
82412A7732m7552l3474n267K1750L5165K9600J0002j0463k0756j9614j1710j552N378J686j4293l2225l7410k4350L80
82393a36973K5869M2973M5924L4868J7107P12j3472k8924m2538m3010k3931N164K5734K8015J8825J1724J2829J8052
82375a052K1170J9864J3740K025j2576k0679j3188P048K4734K5956J0768r083k2094k4481j9012j1359p466r935j4778
82356d0398j4373o159L401O427L624K669P084J1700J0957O730M388N229P413J0432J3024J0011j295j3950j9116j9443
82336a1645k4663l3908l4405k0610k452J0781K2304L5522M2184L4474J9256P113m353k1240l4235k7370l855J4803
82318c2299J6854J1119P551M465N07K255J0522J3441M133o614p288m746j2487k7332l2664k1379k503J3198K2028
82299d1239K2670J4999N230K179N837P934N754O602J5210K4763K5627J6993M957n790j3012j4148r663p058j4033
82280E3812k6605l0698j9452m427l123j6201k4240j0743J6786L5099L2494K0238J5312J9246J9331O768j2503k4582
82262D6512k1469q240J803N40n444k271J2059K1594J1690j0021k1371j3629j138K86n646m503N833J2582P767n06r07
82241B5521M659M850m298j4357j6826j3706j2045j2217p647L838J3576J0657m403j8335j9178r575l031p281j5167
82222i4965j3699J233K2185L8449M2069K8906K370k3012l0105j5750O263K1419K7194K6595J8745M333p281q286n777
82203D0886j2143k3659k2797m649J2433R921o859j6522p334J2724K7141K4721N773j7302k6431j2266J5715L6357
82185C5709L5121J4815r090k1313j7892q772q421k0721l4304l4916k0179N77J7638K6870K6422J4825m840k2783k8206
82166e9460j7681K207J9819K6786K3381J6199J0284M676l528j3236k0616k5052k9482l3867l2484k0948l444J1311
82148a45135K0363K7706L4269L3323K0828N648J198Q304J5057J4514J2611J4392J2476k075k3839l7587l5324k0650
82130d3921m46J7898K4107J2101r300k2680k1134j3133p668l968J773Q614J3533J4819J0316m73j0903j2349p079o330
82110e6223j2419j3595k268J1968J5712R868N566Q312J4912K1524K6040K4905J4796l184k4191m1727m7586l6340
82092h3930j3813N152J1714R846N349k470j2430j5340o218M844M608n579j3481j2551n095O497K0654L1179L1242
82073c9822K2716J3634O964j034j1668j9228j6452k182J4940K0841J0070m009k569J2986K1176J0884l680p535p928
82054A8104j8244l3291l8940l5352l0871k2432l918J3164J1263m173j0733k819M191L755P287J9662K9523L0179K7789
82035c5856K2206L309k4206l6195k2467l524Q25r39O423J4901P214j2315k3632j9996j0935k153Q225J6729J5905Q050
82015h8431L244M535P227J0167J4771J5610O265o132o385O847J7033J1058n324j6630j4183n63J5293K3512J8629L638
81995B0181j2089j9514j5271l960L477j436j5092k6041l0348l4212l8197l0976p584J7201K6548K4588K7168L5384
81977h0173L5338K3058J2450J4283K0610J6964J632j3538j6961q209K338M163r53j71J2368K3787J6726p927l1923
81958B3862m1438l8579l2335k8212k7260k6122j7178K526K1993K5717J4234N450J2234K7655L6695L4319K5713J4723p
81939C3990j7819l0107k5409k994K0409K5020J2063M184J4941K8461K1925r76j7036j8392j8522k3054j8266L223
81921h359K5743L2059K5750J8692J0079o030k2162k3718r845N704J2074Q942M03q113r777l225L106K080j198O90K062
81900E4957q188k6140l4189k3861n748M781J769j1759k7068l1393j8195J323Q296J190j277J2891L1790L7733L1032
81881b056K4378K2039J7628P880l787j5022k4232k4217r119J0628J3049r394l7202m4322k5557K853K4575L6351M1621
81862F094M0589L1166J5776J916n061p747j3288k3854l2518l0785j9171p244k998n441q531q621n657m35N504R030
81842f1276Q157N032L145J980k212r731j4379q950O719K4144L3199L0638K0806P747r557k9791m1213l1388o927P960
81822f5897K65j3696j0289P937J5592l79k4123l2538k0283K094K3062L5126L4397K4584J5949J3175R430j747j5299
81803b640k2414k2547j9619j2912j810O169M039j435K313J3782J8466J0927L172O589J6180J9402J3328N943M386P806
81783D9125J0288P105j137r172j2637j2243j0612p097L75J0200J8508K3822K5096J7895J95j9404k8119k4127j6941
81764B1120j2188n680M773J1762P774m991j8895k8262k8999j9224n535P4l851l941P795J8352J0727r337j8770q887
81744h6183L271j67j3785j8242o539Q604J1564L31j4343k0804j5468l761N048N716K272M328J5696K8115K9980K0374
81724d3993R173L498J455J431P395J8078K0536O696j0010r289O882J5170J728k2761m0722m4204l0360K71L1776L7762
81704c9488J2939j4465j7159j915R163J5508L0898M8255M2489J0879j6536j6159N22P941j219j5715k3121j6258N066
81685B1625K7717L2024J5337k415o457o705j6748k8108k4673j2246j0704k1083k3714j0341L477L713l114m764j740
81666f8919q06k386m588r570j5486j1728N884K2842K2486R841M543J1747J5411L991j0703r202Q636K2616J7169N1
81646A1829o858P235K9431L7262K3586L196o138l642j905q053j6962k1997k2876j9749q336J1721K8613K7396P341
81627G1094j5987k7088k4098j5091o883j724n81k611j849Q525K5655L5968K9524J2305j404o527r712j4689j4500k963
81607C7364J3219K1164J6974P476q96p980j5444k2870k8933l1712k8115j7796o822j599k1M452J0210P901m241j4335
81587f2004j1266J414J1247J1007K398q115j1223R00K3452L6620K4717l147k0684j3450P317K0877J8779P286l999
81568C2126r045m873P768K1476K4684J1585r849k2560j6081K109J3187O050j2099k4987k4635j7662j5837k2489k8076
81549h9208j9716L529K6420L2613K2778J1708P881M920l813j2488j2345o248l709o299q346q886j1714j4346q389O718
81529h8940J9802K1762J6165J2196J2767J3761J1020M345l077p258p281p273j2008k0434k6293k4878j6532m357Q390
81510i8123J9755L0329M0756M5711L5704J0386j5236k5817k3122j9923k0842k0373j7122j6434j7871j3219k58J2884
81492i2815K0435K4481K4058J1842j0670k6197k0182N33J6007J4800J518j0306o929J5948M4612N5686M1084J7572
81474A21477M037j348j0362k0856k0248q954k724r729k0268k3771k2848k2962j8850k391K0351L0727J8155o408k1148
81455a8120j6230l549k516j7554l2989l1049j0911J2736K6059K6070J7411O992K327P336J5250J1206j0887l5981
81437e4399m0654k0262L821Q983l071j3381j2591q099n974j870N378P038R05l7J1228J9127P732j1225j4239k754P19
81416a23625r469j4550m311Q877J5945K5037L8435M0591K4844J0148J2669J9751J2372k968p135j74K722k383p461
81397C9315j0655j4487j2746K25J2683Q239q771j9442j6879p999M350J9894K7248J5043o522j7746j9186k5447l3652
81378f6535k6833p730J595k629j67J4784K1973J3256R533K2638L1495J8852M217J2297L0183K6648j92k3978k9210
81359E0197k1884q449Q580J7517N830j7884l1415k8240j9822j0992L913J9566J8915J051j1231j793J7424K5355J7892
81340C4530M798o269j1088n171Q208J3589j49k2759l3626k7569j8955j9998k5128k0628l133J6761K6681K3976J5699
81321e0231J0684J3016K0653K6649K1965J984k6313m6736m8243l6041k4319j8743j1858K733J7950K0842J0372R38
81303a14698N466J9001K4256J3182k472n581M956J3130O056j0614k0393j5119k208N732M430L11J796J0118J8596
81284d4055J9838J2888L557j232L19K820j470j3200k2277j8294m571M967N072O852K0442L7988M3430L3792K0108
81265A06974J0492L626k453o970j2562k3595l6148l9742l1619j9867r933J901J7485K8734K6543J1752o392j7342
81247H84j4089J284J5577J6495P965M313Q905J0345J796r385j5512j8791k2118k2585k0502k1956k5315j8828k0J6209
81227a05328J8462J4076J3107J1820M719j962l913j1109k8121l5951j6164J6618L0971K1716J2078J5510K1000J8538
81209c933J4543J5002J4230R524R521J8122K4638J9634Q329q11r258k0592k9919l1700l0199l1310k9949j7198K081
81190f9245R854l576k4550k7897l906K9848M6827L9399K2347J0028J656o544q667m52P571M059l154J330J3334J3285
81170E1547k857j7115j7997j6222k3587l2113k6161n388J4736J9782P607j1772k3686k1516j3043q292l929R331K6675
81151i4000L2509K4671J7977J9945K1312J7041J7446K7462L2594J9816k225j8426k8611l7148l4920j3228J2562J6435
81133C1212l001k0882k0494j0881o900r185j0981j1229j1690r976m216Q77M3l449p82J0948K3812K6014J2827q922
81113b6855k6492l1060k2341o446P083Q049p013k7627l5857k4194k854J3153J8191J4489N466k318J575J9041L3999
81094i2011K7171Q64k0809j9510l132N908j447j0504o95K9297N7692O1721M0311J1360r756k1109k5196k0486p198
81075B471O712J2971J2336J0831J0137O562l337j9376l6544m5043l7383j8767m502l075p900r307o941n140l861p74
81055a39930M399J3193K7468L8744K9931r65k8589k6676j187J7988J4932J764m810m629o628j1988j2547j652J7243
81036g3939L1565L0716J8688J0850J3372J2825m886l1627m5048l5987j5645K263J3612J8722J8246J6294J7010J6422
81018A3453P381o888j5042j4087j1819j0900k623J8709M4762O0892N7742L3823m018m0233n9614n9368m5869k2342
81000e6041Q318L1540L0335J0392j902N693J4648M256j8223k9610k1633n023R219J8126K1137J9420J8770K3013K6532
80981A08967K1473R349k000r121j3430j5904j9178k9226m4783m9693k8787Q377L0780J7623j8084m1015k7985Q896
80963i3741L4376K7939N832k515M914K909j8707l5780k5221P53J5390J6497K0054K5664J7543k589j2750m977L589
80944b0820J718J842J4566K6586K0491J108j4347k0670k3265k1715j1242M717J7646K6041L2743L4445K5906J1568
80926A07318J660j369l068o583j1606j9780l0119l2552j9263j203J113j4517k6442j6477Q117K6299K8313K1784J8330
80907B9955K0993K2950J5105l277k1133k6651k1241j6307j6261j3642l697O138P699M775N957J0661J2089J0775J4697
80888C9585K5175L1488K3279L493j4168j8215q549M645R791L592o768j1223o061M676J4472J8361J3554L06j6984
80869A10449l1644l8299l4199j9131K682K1193K5248J1568j0998k7166k6654j2479J064R46j1944k3510k0839m411
80851h8124J4374K4466K2163J1079l64l689K830J2664J8759K0607K0707J7844R531j008o758n333k75M730O866J217
80831H2286j4634l2395l8435l0470k0686j7738j3692L660L0833M9769M7716K9534J0077m90k719k930n119q347j1578
80812E4642j7468k6659l0399j7435Q901K8493K5903Q572l648l186l85o171j8384k7390k8054k2026j2403q04J1040
80793g6861J9851K2483J9714J7530K1445K8190K6894J2258o340j4213q838k294n271j3747j4840l579R658R404p990
80774C3454k9329l8000l1056j9328j1376m237O849J7206J9045J4408J2482J5678J7510J4161Q601K001q327j8603
80756A139j7572m005M532p134k7137k8007l082K2888K5081Q294m547m607l525j0217j6592j1582J585J0937J2570
80737e0981J2915J6569J9936J7205P287n334j3038j0316j197J604q066j8360j3111L775R787o557k8904l3029j5042
80718a14857Q497K1822K1860J3594L593k519l107q60L351J3034K7537L6331K9987J3768K094J686P992J5595K2486
80699A21884K4921J8192M597p067j1877j2389j1406q410m270k273k892l873o162j2515j9566k0124j5233j4218j8789
80680a470j7160j290J7965K2333Q623q878j6647j4631j0469q098n740k362j985q960j8811j7761L206L3924N0591
80661B380L8754P723k0030l0692k7884k2646j8795r802R415K9184K9951N724k2178k4825Q38K8071L2343J7157K742
80642B7430o26K409P560J7217K9714L3151J7128j2776l8156m5502l7452k5505j5333l903R882J8431J3641j974j7535
80623b2199k5168k4652j9346j3668j2961j8157j9830n274K4854N2057N6542L6879J1459J124R781K1169J6550l487
80605F5673j9673j8775r733q303j3978j4225o309LN82K959J1823K1202K4374K0658J0321n596j8482j8184q759m866
80585A0712r658j1533o712o458j3780j2408P414K8858L0929J8073R877J1725J3704J0837N899k230j4913k2114j1913
80566C6309R643K3516K1488J1477J555o617j0147o082j15k53k675K004J0240R682J029k841j477j0101l1385m3447
80546A1803k8382J398J9045J5745M329k778n954j0292j5195j4382l323J3188K1363J1104j0799k5877k4154j3253n964
80527f2378n537o400l342L916J1386J3709R780N727P988J4240J6771J3386Q239L723k45o48N362J2746J4441J3382
80507G6246J6596J9283J0735l029j492J9222L5061K4099o550l4199m6590m2650k2410O916K5848K2449J0815J2046
80489A22396K1590J4887j5105m5057n0704l4450j6879j1471j5071j6602q897M861J3488R213k827j0094o920J467P981
80470c8194J0282Q514L516q49N68P328J2196R115m95j0845j8429k3771k7912k8506k0655m013J1785J4543M851k326
80450i3297L595J4711J6700R565O026J2000J9884K1467J6840Q750j622r940r728l055j244q811j5353j1129k622k077
80430b9340p318m986P706J7451J3711K158n685p604r008j2312j4806j3285n457R399K6046L4048K9015J8867J2588
80411F1188Q569K797J626J2139K3926J8689o97j0339j088N577r903l4130m0101k5388j1213j0958j9109k6813k9253
80392h4481k0477j27J6182J2841k05J271J8499K7124J5866K426J755L800k573o826J969J0139n21k0719k6024j3145
80372f3226j87N100J3830L1700M6299M3657K3758l183k4476k8503j3031Q017J6184Q003n126j3685j5479p711J0912
80353C2853K9008K8408O295j9069k8931k1727q161J347J004r116k1199k5190j8932q159K618J1801J5120Q661k189
80334b5558p195n698o210j0326q891J944J2085J0904J051o705n891K464J2773J7614J3207M784J846P599J7799K7144
80314E4740K9260J5847j0803k8419j6258J2816K1518m266l5862l9644j7324M468R652J794j0880k1825k3466j3366k74
80295g2292O708J0005J4706J5393M863r928j4978q809j664J881O085J2098J6676K1918L2238M0673L2328N429k2405
80276I0925l3588k7795j6718r901r140j0075o309K987R511N987j920k862K242J180r308j6598r959N671J9349K7481
80256A1160L0657K6370J3996J061l739J27Q074J6493J9611Q605j5221l1839k0747J2185L7693L5198J2249j0540k3141
80237A28252k8269k9002k5042j8629j4625j3616j1381o256j185K770Q063J2635P722r603k7116l0153k1124j5835
80219i2394j9824j9923l756K2546M3132N0351M5355K9024M429j6335k1630j6011j4239j9283j9510j0339l863r367
80201g1637j7100j2821O29R518J1127J4752K2341K2948J0561m215p371O74P513M930l778j0510j0961p008m412p978
80181e2798j6085k0548j4903k919M251N89p307p464L420J5301J5454L050r517j1156n087k835o429m151J1731K9654
80161g7749L0254J1224r183j4978q736n32Q972K3899L7958L7337J9137l642j7354j8951j0954L286J4816J1248p458
80142B8594k4104k5156j8875k0623k6937k0501Q26J7859J7370R596R893J6338J7780J4390J5111J9062J4932j89j4428
80123C0938j7543j3587j1748j2595j0711n708k277l02P766K6735M8583N6193L9501Q403j3357j0911O092J4936O125
80104A46533q320j3757j1285j1769j9050k8287l6723m5026m8397l7608j2987J1042K1241J9932J8840K3033K6896
80087e692K3559J2693k12q234p436pP552J1169J2149J2103R306L742J167N885J2181J0216j91q500p222q67L81q536
80065G5206k4161l7135l7351k1693J095J7407K2248K1386J9064J0586p958k8082l4907k4091o774L703N450N741Q374
80046c1892Q524J198r669j4898j0935j777Q723J8808K2050R372j5438l1648k3792k021J1319J0474Q095J1892J6319
80027a5296J8321K3493L0994K8253R335j3970k7876l2009l1289k5146j4667q051p308j355J4950K7121K2230J2386
80009A0116J7620L3451L7416K4329J2629J3942J6223K171l0331o8990r4752q8931m9675l417J7312J0633L031Q822
79991a28401J4069P065J81P140J9289K2415K0268K1746J9057J238k0417k4176j0417M46J314P243K7553M9104N4979
79972H9696M4835K8594J1763m106j4913j7088j3147q532n459k619J648P073R651L658r916j9412j4358k32O969J436
79952I5541n506j117J3636K7547L1409K4306J3263Q611J4480K2714K2013J3681J0846K0110L1783L2243J9916N413
79934D00889J615J6932N1569R4254J26252J34297J20032R6586P8397P2843P5906P5363O3758M8168M0998M2397M0469
79917A580725K7932P302k0316n6706r3337j13779j17596j25100j45639j57314j36418r4434o3573n3366m5905l1225
79901C61251k1114k3477k7344k3532k0431k6470l2866k8024j6730j0769j0416r718j1383k0221k7123j6785Q865K9025
79883G2738K7664Q441j4160k7693k5193q170R367R613j0014l2196l8479k7607j1706m1P562J3949J7468J3271M46
79864a4740j3751j8925j1686J626J3146J9846J9648R003q521j8100q806J0490K1542K0014J6007J3892P632k845q401
79845D7071q789j6039l1047l4925j7558J235k227k0082k4965j0519L368M601M808J5317K6457K1825J711j7376k0298
79826g7432n477J4037J9406M159j4542j2482J1497L3306L4979K4954K0172K1639J9615J2707P185K629p466k1782
79808H7104k9902k6371j6992r296m213J76K756J435j497J1Q371J6635J3769j255j4441j2777k919l443j7618k6754
79788c7221j6198M609J7703K1144K4709K8813K4016R789j173l22N253K037j5283l8888n2452m3257j6527N646Q008O76
79768f8918L621J7428K4323J6876Q063Q354R377j8j3657j5729k252J4652K0418J0454o770j5055m712J4437K1128Q447
79748E0467o117k826J5338K8058K2854O289p175j0266p886j1022k3811l5205k8991m114K2718L7462M1431L8586K4132
79729A49922k143k3158k2462q887n654j7720k7687k4252j6090j3088j0953k536R415K0008L0935M1018L8553J6014
79711A31235j3781k8923k3634j1790o622o814l926M259J0909P039r341k8368l4192k0090L137J7918J7881J0963O226
79692B2086L718j908j2851k5310l2223k8113j4183J240J0280J3196J4914J5171Q565m294j3119j0124m08O128R039
79673c8196J5399K5340K9406K2896J4160J2547J4866J2315O646Q211J7443J9949N797j5235k6367k5658k4283k6103
79655D9133k2290r242N09o130k3205l1400k0937q77J3827J7189J3170Q200N715M681J375n527j1531j0987n176j603
79635c5106m568j0606j4251j3431p615K917J2279J0260m564j7733j3618M907K0670K4813K4097K4083J8465L132j0082
79616A4049p040O339R650l775j7370j4319J112J2562J3354R740P425N640M049N981J2081J7212J6937J2521P068Q73
79596A14089o382j2764j6821j9848k1890j9088j0205l184q402k5315m1931m8494m5180l4421j3842J6333M4134N3678
79578i9533M2134K2161O799j593o213p019j735Q564J9262K5612K4408J5718N191K44Q20j486j1240k1417k3295j8838
79558b1456j5602j3516o312N557J3687J4217J2528J3429J4720J2917P838o71j2557k1459j7580j294J3828J6371Q470
79539B3115k181j2811k1813k3110j2863L736J8981K9464L0986J7033q119k4987k0535o441j702n078k229N872L343
79520i339j1940k1769j4379R00J2033J9440K4742K1651R200k45J846O946M515j666l348j307L608J8951M3399N3442
79500A56680K8686j6057m4700m2279k4039o136R401J9378J3562o898k3221k1750j0363m550r252k0790l3499l6776
79482g2603j9258J4001L9869M2616L0600J9081R605j572q561o804q894k8707n4086n6169k7371P382K1133J2058l934
79463i1614j3833j3794n211P478J9727L0451L7673L2826J0694j4622j8412M178K8929L1086J1440j3508l3405m3554
79445c3471l5960r926J4630J4573n794j8689r015J0074K1061K3181K1123J0017j3116l3928l4228j6841j815O18q37
79426i8343K932Q206Q367N231L386K029O9K056J0165J5531P739q784j7394r200P100J7266J7329J4859J8920L0982
79406C8446M2309L9593J8079r515k3225j8077j0026j4885k7552l0217j7140q03O869Q806J3578J9534J6055j520k4168
79387B6141l6817l1027j0804J1484K4801K6435J9856P836q028k1227k1232n899J1822J6818R128J148o86k196q377
79368I176j4059j3050r205j0816j7923k2147j6989k975J4522K6811K5040J0143k246L271K1385L0400J9417P92r287
79349D2260j1326j4338j6897j0852J71J781r756k1219k3004k3337l2266m0939l0521M00K9551L4725J6286o596j6074
79330a31951q750O303J7781K1038J8926J4878Q484J206K112J8728M1519M7902K7602l338k1157k0860j5335j3350
79312A1738j1463p463p572j3658j3867L067K8229L7887K0174r928k5422j4388R833K3895J7019k347j9879k9934l4191
79293c8270l1607j8604Q59J4548J5375R191M862K718j677p907j2028j3643j4601j3790j0257q437j2380j6985j3669
79274a66302l667L175L043K994R728K0882K8719K6415J1592q485j7048m102J7407K3812J0633l306m514j371m620p943
79254f2958j330R110J0517L749j027k530o284r583n244K026o80j4666k8007l2908k9864j6020J1849M0495M6457K7104
79234e9794Q092R465J9496J5304k925j4186o301J1308K1807J7027J254j2527j2643j664M571k852j2859j0390P35L251
79214b3831p910j8498j4845l53J1148J0767L81j0641j1922n63J4224J8886R765l588j0125q473n016m286l929J434
79194e7375J2504K2755K5340K1297J6458J0892q70j6949k5431k1333j6993k4819l6758l4674j7587l004l50J317J3647
79175a31933K9892L4094K1308R43j4502j7813r559J492M362k432q342l686R381K2073K8985K7927J6844p97j2635r403
79155a3801J483M073m307r066J134J8424K5771J7228J920q777j1217p286Q39J0327J5828J2844L160o101r975r939
79135C2562r569q540m267J436J692p157j8522j9510l052K3468M1863L7378J1840j7133l1621k8387j7752r563m068
79116b8902L020J1199J5005J1777N709L074N418Q971R577O237K53o487j1681j4010j5935k1110k5908j8926L301K3771
79096c5647K0153n924k6811k1422J104J8107K2601K3568K5391K2783J3784L530n484j4822k1337j8992j0844p383
79078a7645j0406r968m03J1580J7942J7312R163p261k3626k5882j3851m487p995j4860j5891j8777k9470l1951q019
79059a84495L0770N2889M5684K4610N791q260j3353J614L3175N4905M6147J8426j001m273o983k0851l7492m2166
79041d863l3009k0348j1976n337N667J9724K7000J9645J896j2481j2795m09J3704J8289R829n432j6414j5733m555
79022b7598R720J8400J5022p37j9909k9642k5713j5942p981M1J0875J7550J1941k60n427j832o98n817n645Q134K5463
79001c0055L0098J9342K477j4247l0126l9934l3254p870K2637L9888L7616K4786J3322O355l0o877r436n309o55m030
78981A4698j6216k9980l8082l7658k8633j2882N052J9767K7297K4533J0755o502j2985l076J0150R236n479j7841
78963h7846j8756j5468j6369j7906j1604M025K3243L8422M2321L1825J2956l236j1951j6326j8167j5655j0840q693
78945a00025o224N934K6813M1337L8816K4015M542j8893m0616m3503j9799J1335K3901J6938J0400J3565J5421P220
78927A1177k540j947P220J4140J4102J1625J0638O934o937k9018m3677l6288j2402N590L389j1816k5207l0173k5075
78908a40265q239J3068K1096Q885o770q067j312k032n612M411K4625L3700K5756J7552J9756K4595K6629L1172L4108
78889A13056J8409j6020m1575l8469k1317j2439q089N518J8524Q839j9088l4954k3585k327O643J774o241j1279j1173
78870g3793k826J2257K4788K7000J9944Q139o041j8418k1063j0949L717J1514R657L877q32m628q871j1913j0458m094
78850e2993L229P508R750J3993J9680J9826R489o544j7675j7498q104K750O799J511o005n315M187J1451Q704J717m29
78829F031J463K367N435J6861L1318L5185K4511Q681m433j5239k2255j8062j845J3634J5334M123j0012k0595k6374
78810D6128k6356k0727j3716r530p384m286L34N905J2199J6164J3111N879N978J7959K8380K0594k692k2504k7979
78791C7457k5812k4075j9944j0131k399n431j2914r838O249K0990K2531J5772J2586J5077J6159J2585Q820Q383Q901
78772G4966P614N483K413o216k2925m0667m7267l7325j6938K627J3470J4672J0463M899k453j3560k3903k2590n209
78753a02446J7117K8181K4716J7442J4966J4119P711m743j7162k3549k2169j6677j3774j5693j5182l977J3322K1898
78735g5900J6062P741J0301K1163K7793K5601K0825J8018J3712M206o397r566k525O430M722r607k1492j4045Q757
78716D5799K2835J1548j5285l5369l8460k9164j4075J616J0118P235P87Q91L754j551j1101o912J6292L9411M0882
78697D9251J9690q984l0159l5153k3261o087q59j0708k0253j8081j2289j3647j5778p263O386J1287J0317K0188M3980
78678d1423O4161O4813M5655J3053k5703n5428n8294l4801o663Q320J2027J1365M439q212j4249o536J741n001k0048
78659e0784k3704j0676P875K3657L4671L3199J1036k1326l9077l1909j3987j212O089J2158J3753Q966N264P414P421
78640b1172k174j3499j3799m522K142J871K194R480K1442L1658L4177K5071O347j2909k4765k9549l0562k7209k0095
78621f5873j6565k1131k5050j6779J32J1632J3765J5198J8442J2851q314l4513m7726l8417r274K7381N1815M7590
78603h4836J8596j0704j8439m333J7309L4513M1308L3798J3750p094j5129p219Q387J9508J5750n064k9207l3442r255
78584b1803K3418L6110K2031k028j8610k2476j4479J762J5042J2583l087j3433o539P686J1405J031j1662j5587j0186
78565h822k126J402k423q868q766O96R437L935j5935l3428l0901q269J6331K4790J6652O984Q002J6852K2399J8413
78545B6355O490p883j5510n950J8940L6832K4740j0389l4438k5656Q18J6724J6620J5606J9319J5610k442k2173k7694
78526D5919j9728j0106l897K246P086K222j3889k7597k3452l466J4253J6811R959P186J1716J5654J2980N360l110
78507D6147q381m455J0921K6974K7371J1277l525m571m43l573q783l499Q143Q832n946k1881k7499k7184k8533l0058
78487c8666k7475k1167j0738P834L2172M9183M8761L5191J8283J262j4287j9971r378Q775J8073J3655M392k523q566
78468H4810j5540k1096k4905k9466l1023j9330O605K9355K8702M651k1647k9615j7353J529J3745J6493J4807J2761
78450C483Q934p0j3220k3898k5590j8188q132k523l302o750q108o369m705o572j1599j5180j2739n448l06j355j517
78429a63154J0406L1873M3633L2361J0317J030Q636J5729J2148Q402J3874J8969J2350K224K437O495l396k4656l4264
78410E414k3906j4272k4437m3427m5801k5019K797K2507L3665M1522M5191L8599J9646l217j4693o953R238J4094J676
78391C2624j4070j9363j7468j8902k3691k3408j5235l327J0273K5310L5916L4451K2995J1625M352m155j6379k5902
78373d354k7341k4531k3607k3157j6677k530J2555J9512J5481P074M436J0630J8785K1600J9847J7672J4666R531O982
78354E6574J1323J6015J1177P79q09P950R453r231l7058n2288m7453l2357j8097p333K390J2866K1864K3144J3946
78335a7145L924P870K4911L4657K1724m923k5913l4988l6392k8660q676J2695J8322R008K788P142Q989j630j4057
78316b0354j3149o98J0357J4165J3910J2445J0762J0595J0008J862j4998k8956k9358k1638j7960j7385q127J1298
78298g7221K6161K3869Q990m084o949k147K865L284O58K97M405J0195J5986K3133K7854J9706k639k1844k1678j1013
78278A9828j1438k3610k6280j1256L369M137M169J7678L1257K3767L096l339R200J6392L425j4598j9664j6787j8590
78259i244k0134p466J6586L2627K9173J4113J760j318L239J0084J2087M125j1231k4285k6125j5724q80O429m54j4011
78239f49j6893p35K2041L1535K3308J0446M197K547L24O0N348J0181N054p993j5684j1157l967p229j8919k3582j3203
78218d970R57K517q434j5818r191L956J1123J1815J3924J8040J5539K119j5285k7126l0139k5504j4421P47J5045
78199e5106K3639K3683J3719l244j5713j1145Q396K5326K6965K0223J8881K2777K0255Q124k645k508M807R307O495
78180A42236j388j0428j7784k2865k7648l2226l0148j4761P749J9080P792j6975l5435l6688k4023n657J2482K6558
78162f0129L3874L3072K2896L212j9431l1631k5425r020J476L59l936k343N119J3274J7139J2070k803j8480k2604
78143e3311j6435j5381k5450k9553r528K4543M1715K5901q362l5718m2466k8152m11K4291K8091J1226m376j553J0093
78124a04836J0928K373M134K2151L7392L1489R048j2865k5208k7669j9469k480J1543R657o347k1362k4036j5547k471
78105a23575J0388J9019J9809J3776P096N253Q933J4800J6690Q546p425j7604j0615O240J4376R007M431R369J0837
78086A9351n792l0954m1101l0468j6330j2039j0653n93J5871K8538L3982L4373K8233J3383m451j6108k0688k2802
78068c8248j9056K67L1757N2586M3767J4324p937q174K386N619j214p228m659L745J0647J0347O38j4716k5026k0739
78048B9086m433J1013J7039J7438J9895K4942K6627J9417R04k6893n3736o3945n0443k3619k80J2666J6651R291j3215
78029c1595m1668n5683m5649k3507o108L254J0245J5464J5016J0120O329N362N252O460J0717J5934J9291K2887K8424
78010b9455K8520J3145j4771l8845m5655l4381j0255K0998M9077O0070M9200K6952O503r961k6834m2249m7514l7514
77992h2969j5704J0005L1417M1548L7590K3486O820o924j5651j8153j3428k361J0851J8116R919j5738m5340n7595
77974h4111m4266j8826p8O806O961J541j1181k3641k1793k828K0086L3860L7136L3085K1825O773j243L963J3919
77955b2012J7104J5182J6708J8809R265j2342k9593l0701k3571k1327k2436j6468l797L953K624K070J0255K0481
77937f5796K0736R378m782j3489j4128p680J560O686N297M198J0127J7353J3373k055j2904o205J1956K5338K6527
77918B5490K0420J3510Q085N342N982O262k36j4261k8083l3329k8990j9942j0153q7J0563K0382K7279L0348K9050
77899F7632K1463O660r829j7214j1154j628j937j0352j1987j506O407l177k2994l1354j8513M482K0969K2930J1484
77880B0382n781j6545j3138l438l612j6216k4517j4164P478K1276J9701J1689P724R291J2858J5856J5690Q321p177
77861D5678k3628k9164j7981K372J6619J6415P818J902K85n148j8584l2496l5908k6406j1193O06M387J642k290l511
77841a08585l163l403q18J0455K7826L8886L4561J8823J948j0613j7773j6861o200Q081J5247J1300K662k390k298q59
77821c174k03K199R032J7053J8557J1177L081TP110K206j4636k9883k9975j7419m812Q06L96m830j3841k0025j3971
77800g8071N785K9536M4935M6103L5663K1469J0437K841n375j3141j2435n33J1687J1390n1j0937j6070j9417k1367
77781D2449j5666k667N125k110j7431k5483k1814j6705j9434k4534j7803M791K8843L6116K5690J4112J3502J7527
77763B4508J3964L090n493q808j2138j6730j7035j0969l575Q49J803k707j4566k6510k5087p375J3286K2833K0365
77744e0295J2903M958r89j831R76m20r630j8869j9410j3871j0134p642N14J4031K3680K3747J8323J3601J0483P279
77724b596M381K874J472k035p176j0196p238J269R195R589K502m283m444l55K195L342P114J0782M383j4816l2970
77703b7011l2406j3125N451O958l232p192J577J1312R257k538j2217j2444m487O808J5737J7152J1828P702R203Q573
77683c094l461k0445k4532j0056P277R930j08o316J6R551P477p751k1325j8530k104J1351J2434R036J1684J7177
77663b1789J5075L854r374k0021k5958k1706o163P910P421n98J169J1918J4333N694M202J7405K7255J8993M688K432
77643C6740Q927J0038M913K039K531M070J0795K2541K5192J0159o884p279n37j1284m0228o1417n6856l2569j250
77624h0359K9000M7257M2889K1554J254j0514j9581k5200j8123j927N244k579j0223p154l034p585j3247j0386m147
77605f6861l007l675J31N753R587J4322J6752L215k7570n0225m0330p647J6861K0991J9144K3659K8744K5743J7476
77586C063J0851O272Q15n054q680q606m243M161J3810K0257K0611J4820N704j080j125K077j071j4480l0076l6106
77566h080k7956r735Q903J6662R698j122j656M935K327j0425j2365O508K3871J4949r442j7101N69K0905K4842J6511
77546E2798O082m977j4420j3468q85J0101Q799J538J007Q612J4405Q788j0062l3989m6929l6929j0386J2062J6921
77527c0932Q755q10n408l073N728J4304J3826O129K214L622j516j6079k2395o721J6691K3862J5851J4796K7557L5426
77507A01827K5200J0117P359R751k414k8137m2811l0070j869J8956K4443K1088J3119J67j1519j0971J88M975o623
77488A02776k2606k6366k0618k0231k6244k3837p028J0739J6133J2309Q173L679l723p990k826N058M002m391p599
77469a0590j230O626J0488J4181J8566J4460m224k7514l8321l1456j7109o917k326K854J2477K2633K5178J6051o2
77450C765j3780j8819j4556l190J1032K0054J6050J391r583m279J3586K7558K6292J3968K533k278m816j1873k4220
77431B8835l5501l7744k7610q760J0469K1926K2308J5343R288R713J3571J2210J915j0524j5095r724r96N046Q186
77412A2856R463O592k275j2582j5674p773N392J3765J2522O422M523J0375J8511K1665J9060J4470Q763M10p548r219
77392A09718o474q913j8521k3153j3299K283Q444N486N978J2044J0590o325k9126m3403m4196l2721j0330J5786K9966
77373c6166K2288J671j3305j4103o868j553l235j0956j8025j5075R59K1459L3755L2807K2908J1347L870K405L141O39
77353C7963l120M70J2647K1214J5097j326j5594k2362k2983j6681l441Q402Q693k181j6004k8198l7351l8377k8188
77334a31320j4571p013k245P527J6175J0906l298o235P299J8958J5134N622M532Q523O108m030j5923k6407l0898
77315a41156k0216N182K6921K8379J5494N428K397o66l160L033J6203K3639J8982Q086l056j3768k0512j6341l178
77296f8309N552O03j1213j5208m125J6899L5586M0768L0332J2963j267j1379k1626k8949k3028j440K2007K8868J3741
77277B0775j0936k5115j6975P027K7600L2017K6936K6992L2778K9093O909k1591l5776k9969j8435j7653k6966k8402
77259b1691p081K8186M9359L8709R782q250m374N541K956j1963k6512l1990k6922j2036Q609K5433L0168K3161R092
77240H0177j0120l1343m3961l8082j8460m22R432J8303K9531L1246J2701j4946k7384j6487Q05O168J715J022O957
77221c148R516K348r679j9434k3907j9916l977J8258L1206K5651J0428O32r85l084j0209j7750k1261k1221j6991m505
77201g8028J5517L2427L4119J9254j545j5851j9510j7758j7835k1080k2419j6519k446J6684L4399M1537L2890J5911
77183B9747N848P306P222o769k7035l4669k3982p672J326K344J6m699j1707j6911j5829r416l421k975p360q720P72
77162a26584J7162K5503J8755R554J2884K2328J8361j043j4844p919R449J7998J2831J907p711j2568j0400m534m170
77143b3041j1898j7346j0995K302J1030J1201N308m282j1680o480J1503K4456J7674K057k54J1933J8994J1499J859
77124D3840J286L280j682r210r502l335K72l548j2512k1058k1991j0803O091J4261Q093k056m915j929J454Q230K1494
77103E760L1140K4068N033p985r461j1461j9275j8709J419K6648L2273J5737k118p129p260j3778k2172k2873k0334
77084b0477k6024l6248l3927j5184J678K431j216R826L0240L5819J9938N471J3486L5214M6387L8529K2494Q110l840
77065A32707j1236p920M713J4649J2343j442k3081m9962p1353o7774l1696J6881M7078M7006K8470O557j2633k4873
77047H434k3589r648L765M024p205j7849j8758r314N509J8211K1751J4499J889q483j1573n332P912J9111J8412O753
77027A8519m845j0402j4666j8981j3272O971K5622K3334N019o863m623k993j1764j9149j1266O008J6497J5840J2902
77008A1888J4711J9545K1370J4291l046k1873k8155j9264q813p527p917J404J4145J4006o6j2100j2358p035k532M522
76988a4804J5526K1933J7911J0639Q253O267l019j4311j5164m728N721J0123J3140J6663J3604J344q736m592R224
76969H4994J7494J5023J1829J7238K7314L0993K2278L256j9236l6147m0838l5971l1351l0518k5314j0327L729J925
76951F371j2980k3305k0991j5772j5829j4877o317K819L902K877R936J9599J7548N209LP923J2480j76j8092j8582L31
76930e7923J7948J9624J4491J9274L3373L9283K5486K9k0597k8844k6992j6911R16J8866K3943J3143r41o085n202
76911F2881p852j3632j4842j1915j3606k1187k3750j2788P148K5836L7321L8652K7180O040j3069j9940j6620j3426
76893B2431j6370k2519k5495k1452j0988J643J1509J6409J6442J1551L871J256J0138K2562J9970k952k6003k5581
76875a3578m648J1239O957n638p661J858R138O576J7l217m321q347j5312k0100j8942j2542l291Q072K1735L5318
76855a6687M2218L5568J5505q128k2674k2800j2794o17O267O23k0151m5017n2885l4567o617P008L900J321P177R695
76835a13655N31q878m808Q136J6645J8038J6088Q100o642j3887k10K2500K9329J7258N933L554k671j6802k1624q403
76815e1468M632R36p390j772J0777J1641L862M678J1895N691j6420l2384k8501j7667j6748k3659k6127j9059m249
76796a91332J5304L2258L6245K6424J4773J0598R565L112r506k3298l2883l1525j5051Q039K1101K0161J9035K6727
76778f0253L2786K5893J4238J2381J7378J5296N828K164P919J1767P035J153J173L078J215k626n763j1065k0172
76759E9425k7574k7716k2512j6922j2703j0614j2155j3918p190R877K5218K5778J3821K975J021M331P296Q718Q438
76740A5594N149l07m723p175r401j0546p078m34L43j1456k9329l7131k5051r63J5816J3340p53q153j047J0113J2279
76719h0913P033N275R408J1657R794J2039K1208K4814J0804j2868k5146j6904R7R912J0406J1542K0442L1769L2364
76700I2733J5119j1559l0506l3035k5430j6280m708J2272K7708L1219K4225J6626R932k294j6409j7896n185J832
76682F8364j0647k6853k1495L816K1552J4301n704j5763r383J168J292j1361k4916k5154j2273k216n397j0118J644
76663f9143K6193M1087L5903K3671J7861J4809P078j218m285p439j6335k2984j7252n167q01n220q938j0777j6774
76644a9731k2132j3758N984J6578P591o271p837j100q2n360o510j396J592j537n311m533J58O433J2421J5464J5357
76623a3980J6972K2513K4221J3739l884j5910j9682k2347k3706j5008J587Q771j701j4826j4395o694o861j1587n408
76604h8186R851J3624k355k0638k3230j4187p192m498j297m39p308j5987j6149j1072j3208k1173j6894Q591L8975
76585a92772N0652L8670J6731j711j2711j6120j1343p11R030J1627O277j861m607L405J8476K8794K5180J0222n626
76566b8398j4984j7178j3490m623O691J5493J8694J6670J0510Q53j0058j8350k1354j8258q615O201K0170K5553J9566
76547a4907N164j3404l0455l5851k1854L738K0523J8119Q627Q746J6494J6850O244k618j313K295j914j0712j3713
76528c9941q122J011J0416J9592K4353J8088P91j8992l2613l7588l4758k4124o303J4524L2067M1779M2422L4910
76510C7512K1132M080j1758k1753k4355k2324j8728j2502j319J1407J7559J4340P951L724j833j3116k4442k5578
76492f0003j6327o517j478K928Q537Q192k881j5937j6982l218J4779K5002K2691R714p475j8928j6732k810J1156
76473f6289J3895M211r147j5696j1391k97J0825J8496K2051J9242P657q259j7699j5712j0479j2336j9000j9758j2654
76454a22340p644j0395j2228k344J6000K8976K9241K2917K0358K5251L2903L4963K5738Q023p233j1290p623o599
76436E6674j0089q935J331J0935R712L710O205J4660J0703j3366m0492m8872l6551j6807K256K0615L3817L3168J9769
76417D8443N405l888j3553k5043k6486q164K0116L6738L0097O415j9404l3495k8150o964J5378K5060K1590J4944
76399E9039J2638J3822J3492P758k586r885n485P396J2889K335j1445j0690J093L317j2303l0928l6046k8582j9082
76380c3253j2055n917r60L46k663q286j1740m485J7346M1768M8635L3743J5647J2194J9977K4914K2785J7767Q755
76361A84518q277k7439l5959l0625k1130j6267j5269j3131p174J747Q201M306r315j7323m932K1047L7268L1493J4309
76342I6048L82j0116k4148l9051m3682l3622j7415o923m844k561R553K8498L7810K5485J283j1470k313J5951K5393
76323D4258K2592J5571R868N954M991P842J0073N641l934r389l745J0020K1046J9292M762j0378j2640k542N378N73
76303A45233j1366j9435k3171k9429l7955m0935l5793k7842j9094m777J4801K7737K2958M892j0274j1029O03J4274
76285d0602K1368K0632J7024J5458J5469J3161P810L058Q93j247n198p994o507k936j600k774m421q150j7299k8553
76265a2408l1249j8487L869K2286K8131K3143J4397P394M271N450J0195J5283J5019N027j2198k6526k8382j9288
76247E927j1408j3235j7790j0489J1140L1964L6375K5228J0575r92j1596k1316k4463j8240o676O295J8999K4183
76229C4481J0519j9144m0571l2716n408J1585O656j468O275K1805K3507Q432l442L494K0556K6766J4386l810j1036
76210G0867m687L932M272l766j3546j8922j5957m267Q431R186n185k0423k1139j1320p497j3476j5696n529Q205J4586
76190d1931J5013J3965P594o927j9809j9214q109M70N24m319r929j2895q093L505R977L876l350K759J4619J2159m863
76169e4978j5268r597l101q561j6819j5742j0075p407n85J7039L0743K0748n486j8434m993J6147K2019J3628Q843
76150d1879J6578K7303K6427J1257o086j1495l548O637R729P059L445j630j0099j8127j9418j2131K179K0686L4743
76131D1630L1017O921k0765l2932k9311k2350j5907m475R054J1437k062j9663k7836k3644r935R701K6567K8701J4493
76112b9359k690r044l849M371P732J979j1906k4410k3452q652O666J1634R016O825P221Q817J1832J4508J1330J490
76092i941o419m275N507J4166J5828R545j417r234q474o098j4621l1455l7585k3290j873J1269J8833K8266L2882
76073a8386K4617J4536J8791K9929K4561j616k7550l7175l5708l1777k2837o343J0517K0638K4112K0051N700j0256
76055A804r858Q921K4404K0484R375J0556J9563J5920n641k9832m2500m1361k8438q758M255j174j7455k4254j5032
76036a09021k891K668Q482K0241K7239J6374p926k8612l4552k5611o655J3410K2550J6675O494L934N963K264o111
76017g5085r515q386j2415j9323j2440J2798L5845L6955K3957J7906K0769J6074o58j1574k024J8129K7604J9137L258
75998H1012p201p922j629O263J0325P980O86q364j5886j7572j0153K883J1709J0109K150m422q346j3949k2279k8046
75978a2652k5674j5702n146k283q835j5996j1430P167K8256L8850L7136K9464J9219N388r455j7087j1903K451J6854
75959D8622K4954K6184K2256J3505L84j2481j8270j7151j9098l0927m3205l9634j9679j082L200o36j338Q99R01P09
75939f1887L631N025K351O246K5157M4547M0751J4680p488r964m651p089j3890j5171j3815j7747k3516k2772j8911
75920g4513k2272l0947k9841j0841J5198K9684K4724Q882k574k860J35m948j6055j8726o477Q300J0626L031m03M078
75900a15799N638k876j2624r434Q659K9226L8576L3771K2376J3337J0312J2834J8627K0947Q978j9464m6521m7220
75882c0657j8283J5112K7136J7505L390m928r276j1184p992o45N049N516Q04r055k1191k6394j8527n627p23k349L064
75861h9255J7725K5251J3081r275k2791k1448j3030l839O433J6033J6937L209j9012l2501k2543P189L4013L7515
75843e6308K1367O546K737j547j5281k5313j4336R793K0790R917k172L932J7982J4914q873k8828k3590j725J0453
75824e9542K479r257n950P995J3463O198L027J4211K4348J4568n419o869J6630L6947K8081j089k2717k5642j9214
75805A2248j0545J812J3106J1638j653r061m76J0945Q590k092j817J3394K5472J8061l036j7113j0873R381K5086
75786I3067K3238P597q253j7445k4358l2624l7951l7704l7584l9407l1541n901K1723K6620R808j686O237J5281N528
75767f5355j1544r038J5830L7833L7452K1101N339m068j0666j5748j7349j5669j2168n901L828J2842J5210J0604M411
75748c056K00m133j0993j7215j7421j2449r862j3751j7229r419J0614L0828L8195L0585J5312o28j4773k4308k2256
75729e1759l855K2717L7264K5635l185k4004k1764n514O576Q673P264O629N298M632R440J8247K2001J5217J581j3098
75709F7995k6190l4893l5702l0366k5401k2708j7390p349K324P599J0539J2558J0731N686N850J7606L5908M8874
75691B5671M7660L0542M043j8514k7878k9740l5160m0039k8829k209J6878J3963K807J470N103K19p804l807Q653
75672c6971J1168M05p120j041J0846J9051K3758K5966K2390J4236Q895R219J1590J5752K4110L0330K3126M498j0363
75653A99845j6141k5300m5131o0704n2530k3253M327J2240K742q759j0502m146N93J32J224P741J1442M833m564n928
75633a1839m347j0988j8988j1191Q319J5007K021o945N457K2750K0298N01j5992k0159j6612p223O842J4150M598
75614b4341j1006j1183O698K2407J8846p82k2125l3892l1871j9301n585K311O820J2246J4076N324q670j2442J188
75595i1282K2050L2557K2269m580l0154l5345j8213K841R940M144l655j1118k1340k8226k1174k450J4691K4341K9990
75576a04714K9549J6206l015q416M959J7935J6134J2206K2864L6268K5072j0725l7154k9664m644N916j744m323Q155
75557i135J6554M722j2878j2768J458P293J820N713K5327L7519K5106M808P93Q121N749o517j0722m525n020j8086
75537F5332k8965k8253k4688k4624k0132q002j124p480j4156p566M070N190j101J77J0369J7270J6987J7027J7352
75518a2317O575j7849m0069m4020l1245j4202p30P536R456O726P274J6377K6074K2951P105n955n806j016n748j8413
75498h7296k3296j1694Q140K3438L0113K9810K2460Q966m102j0591j2680j6135k0236j9307j2034k117Q277J7928
75480g0356K1602J5636Q187J2440K6410L0716J3061j3701k6172j7228J3J0483J0348M082k353m197r08J161n556j9110
75460e442k7775k3709j2519m882k775q92P18m189j3693j3942J164J5421J0243m830m97K9723N4768M5823J5285j431
75440E6569P211K0200J7431O87j9155l4988l8518k2071M630J6080K447j3574o514J5436K2106N012j0555r17K4457
75421D5974L6731K4180L394m353K237P949L145o602j3412j9640k9899l7275l0022j1071K241J607r30P909K2285K6048
75401C0496J5190P92p096q343o739m358k794l475n540p637j0683j4344j3220l436Q192R395k133j5113j8269j1649
75381g0764k243N960J3710K1945K8829K9963K0981L454j1233r966O124J8687J1650q335j8330o935J1480J4805K11
75362E9993j4282j3720l309J139o975k0570l0192l2736k9735k3333j5248n661P597K5400M2955N2634N0637L7263
75344H1857J3452j5572l4766k8450O10K9466L7550K4516J702k4122m9094o2065n0336j6228K1545M4654M7280L3022
75326E5021R212j3687k5398k3579j4788o218o85M19k991m569M851K2418K9624J2990j5677l0732k4050j3634j6849
75307e8322k5621j7980J0950M1096N1610M3322L2792L0658L2636K9249J7970M931k483m039q108k2162m0489m6182
75289F9828k9945l200J3468J1925m57j5644l1353m2078l6985j4350J0543K0998J7292J1225P251m8j0907j4959n692
75270d3088P815J0884J682p149n000M477J0337R420Q943J4281J9979J6752M259q508j4808j6661j8587j9958j7236
75251d2166j0962o170n551m547M913K4922M5984N3227M0225J5278p773k2270k9420l0303k4134j3769n853l508l368
75232b5245j057M521J2480K0296K2425J4257j116j5015k2519k4586k1928j4804q995j1979k0237k0252o487J1020
75214a09221K2030K8446L3437K9147Q199j8507k9340j7391J395O467p330k7635l6670k5636j629J9710K9199K8128
75196f7201J8012k719k6381l2866j1819J9274L3145K4476J0148K301j765l698K675J6337K3495J6614P323R497J7807
75177E4655J4551o187l0777m0715k8851l528J7434J9535N025p654l637J0486J5163L842q169m833Q352J2175O72j1359
75157A6180j1025n923r892j7849j0827J3837L3635K8878O257j5006k8525l8746m2718l1926j0145O997J2616J5119
75139h9063K0586K1274Q104j4388l2145l5020k2438k184J3029J4706Q579R289K1248L1468K6576J0701k22K027J0836
75120B963J5201J1323L512k780o852j1313j5324j2938j678J0786J4751J0463M402l439j7129l0300k8880j3490m678
75101g5400j5416k9559k1695Q174L4728L9975L1389K5407K5421K2424R597j0568k9774l8986l2625j3334P031J5197
75083d8014Q141l435n042P261K3379L0492K5620J4692K571r572j7250j1959O727K3500J9764o017l5238m7632m0062
75064f2074k6215j9694j9313j2338P286K7203K8672J0258q276r940j035O76o776o927R048K6384K5526R236j143M768
75044b4674J2515L739j7320k7576j3500J2651K7311K0642L351p918o831P44O500P796O249J871o579j4612j1710N917
75024b1434K5255K7656J0878p408j0367O94J2520J5580Q594n142j8376k1642j2134J690J0004J2584J4262J4179P669
75005F5062l801j2675j4609j1831q516p608r611j0221l583P059Q736l688j6418j3404K065J3614J3532N381q599k6323
74985c5438l6267k7702r451k73j039L125J2455R402p448j2783P217K8898K3905J116p536P359K4736K6155J5621O294
74965B8346M962J1548K0082J8118k686l3039n2497n0646l3999j3775K112N727q098k9897l6601j3231K8844N9712
74947i5018N6665K2919j5655l2159k1103p76P238r43j2329j4030l976J2253K7840L7164L7152K8892J6580M482m621
74928E0575r572j0690q230j121J0227K0313K2049J4051N52j4656k7704k9969j4725Q928J9182M250k4870m7589n1742
74909i0741l6669j0374J1054J3346J622k252J2118K9016K9629J8307J3605K2229L4579L9115K9783O570k0097l3544
74891F7296l0419k6746l2966l5673k0362M38L681q268j2541k476N465J371n442o716o186m957L732J7980K3309J3460
74871e6020N06k563L962J4294K4841K9428K1560O597j817r44j69k033m48M32j1122k6884j9969J3721M0059L0748J531
74850F5710j4302j1538q048r524o938r12j767q178r120o013j1365k4752l0337k1179q214j799l74q13m348p590k154
74829a23555J1005J9209J5502P208K481jk006J870J4370K6452K6496J3379m875j9272k1801p428J7422L3599K5545
74810C5600j911k8259l7326k8912j3640k185J117r01j585M052J5914K9164L6237L0638J3561l328p452Q69R343J0118
74790F1114Q294J0415J2107N071q438j7537j7610j4269j2104q307Q1J0336J9043K5765K7785J9134J312j2615j3793
74771I5784j1074j7022k5236j7437O418K2295J3008r326k1307j6613n038N627J1841O823j1470k8234k5084n432R573
74752b1904J1728J4987K9239M1932L5690J1307j7361m0544n3294m8826k6246j097O100o370j8217j0284J4749L6554
74734d1857L8030K0197j934j6035k2093k4310j9776m071J4969K2142J5948J1753J8205K3216J3399l075o321Q319
74716D6706K5799L1204K3120Q218p849k3034l7961n2024n8071m6693k0805J497O808K388L061R669J3027J2650J5245
74697d7045J7393P783j0948j9226n760J7051K9715K7299J8069J0180P463J0864J6607J8050J4221J0112M797j0647
74679A15978l5558n0181l6926o258J2497N749j1184j7265r669R14Q047J2011J0458n88j5520j9975q595N176M787p677
74659d3779j4072m092J2038J7549Q621m973j3926j7818k0980k4684k4146j2525J0415L3694M3202L5808K0836O537
74641G705p750k2276k8433j8330J824J6937J9699J4898R523O266N476O245O187N734R785J8119J8899L128j6784j7223
74621C9629N223K6247K4144O214m522m83M365l524j9829k8657k0315q50J3343R987p844k4451k6160j2802N078J7691
74601B484K3104K4857K5214K2116J3469L460N42O788J3232J0623J995j399N223J6423K6242L3352L5329K6308M352
74582B93714k4189n0352o7243o7968m7818j4060J3551K0409J2386P057J1700J6474R143q999k3570k1249l362J3526
74564F9150J2275p195k6550k7553j0491Q226J4475Q357j522j0073j8499k7172l0922k4612j1629k275k412p500j0313
74545a06235j0170r804p047K647J6369K4650K3927K1116K2804K6217K5188J9686J3887Q293j44j1311k0448k3763
74527A5862k2245j9082j5205q246M149J9553K9882K7389J2558m993j4119j0544N64Q451N057o910j5086j0728k42J427
74507b508j0467k3723k3418q518R009J8506J9905J8897J6335O019j5026l6433m1208k4744r28J4734K0872K2479J6710
74488b3507j24j6868j6443j525N640n799k0204j9292o614L235P487J2693J7749J5589Q556P657J6302K5863K7754
74469C8149K0450N383j3432k4794j6455R324L3707L9550K7582J1839L021r61j0248k9800m9540n0389k4705J1771
74451a9548L4733L6588K9207K2502J1317j1372l7368m8931l9007j7947L52J2641K3760L4199L6421K4979N881q856
74433H9551j4445j5483j5273j1022l258j337j0873k1177j6643O21J1369N049o173n400N974J2676Q044J088J145M955
74413A9388L222n965j5896k0782k1119j9769j7591j4647j2225j0765p784o50R843K0931L0895L7398L5311K1598J755
74394C3148j3808j9850j7908r510M156J5501J3634j626j7613k5600l0156l5075l1140j0218J6364K8632K3682J6262
74376f1125J5757J8137K0617K6481L0566J8002j2145l6681l5213j6289j717N454J7764L2565K7763m996m1105m9658
74358d5823k8528l21J8654K9984L6531L1440J0440j5731l0458k8235j5843j032J1758J7190J0536m289j5472j5426
74340c4625p746k96L106K224j633l364L081J3997J4864j669k1873k5031q486J1784K3553K8610K9723K2198N640p578
74320D6479o922q7l181j7503k7436k1888p973Q6j149k404N550K0812L1398K6968J0846j128K579J4717J7301M113
74300I1178j2341j8763j6794j3941p829P027K0606J3384j3667l1085j5599J7600L3180K0749L379J393P655O222k469
74281H9885q588j1708j5310j1356Q763L0227K3919j4269n1363n5456l2784j3925j3178j7520j1818J929J3760K1620
74263f7172L0553M1543M7498L9434J4979j7282m1582m6723l6063k3468j7952j4746l375J7639L6604L9143K2148k242
74245A8936j6791j4257k323O579P805M673j61p163j4022j4507o286N220J3878J9081K1444J7957P143n473j3422j6766
74225A1545j6431o638J5484L5789L4105J2262m140N82J0692K803k0731l8301m0935l8055l3674j8677O792K2286J2092
74206e3150j0282j7880m694J0851J5364J7613L0250M6107M5113K2290k710r231j518j937k0085l9447l9074j9394J774
74187c0040J2297J3845J0652L413m367n846j162N52o310j6828k4397k8350k9047k4033j3763k879Q552K5248M2906
74168f9557M6353L0761J3327J1152J6518R254j2490l0398l2615k6128k1419j8979j4757p892J023J1235J9221K1951
74150e3440K2497K3939J9630J630k1424k9499j7813l938j563j149J2553L4715M6094L8938K3820J2133L820m998j1224
74131I4721p547O455K0183K0518M822j5555k6438k4699j8577j5759j5785j4173r039k198K308K8r807k1691k8816
74112f1049k9200k2546n094K3233M8729N3422L6845J6575L507j0299l2223n0936n0019l1214j0853J983J1508K2634
74094h4997L4217M3893M8829M2044J8551j3506l7381m5358m3468l7195k3050K76K1540K6338J3216o293k0768k5927
74076h9039k1441r399K641M875l348r597j923J5318K5468J9767O896qR50L128L582L977K498m677j3392j2962o38
74055g7324J3876K2344K7683L3599L2874J6419r498k5743k1293m601P806Q684L543J002L565O934N714r52q408j0268
74035B5956l965N767R306J166j2536j9499j6033j1212j2562j4585r161j216k491j2676j9296j5932p750J628J4569
74016a00522K7798L1078K2959J4018Q691p17j3976j4854L525K1628J9791Q213R676K2374K4172R156n439r671j3873
73997F4027k5060l1844k3369p037L623O190M894N65m594k614Q419J5737O709j2739k4883k1898j0943Q5J1568K5062
73977a8102L4626L0383R840j6281l1301k7246j1467K881J0204J2848J2200P256O14k837l619n297l937R070K9679
73958C9514L7599J8024j9129m8515n4066m0196k3217j5924j6819j2528M556K1985K0527K361q392O86J1870M498j3117
73939i0283j6703k469R836Q111K489N614J5335K3507K8080K7913J6620p433l0780l4673j4515J5288L4202L0630Q291
73920B9060j7607l2171l2126k4425j3839K717K6583M7957N3068L9881K1675J3995J9898K7465K0693n105l6239n0959
73902I0521m0453j8705p927j4463k3210j7256J202J3790Q554n875j1783m382L941J486q015j3201j1534r506r237n962
73882h2015n75l396j8442l2326k8622q879J0168J7649J6884J4283J1703J1790J9278L1276L5385K4617P470l747q240
73863A4261j2668j7718j8301j3654p742j562O144J2171J1807P519O244R432J3914J9235K3437J6050r340l7196m3343
73844b1310k7909j4655j2854m024K1487M0017K8001o2j3531j1154j4694k6017k4220n355Q192N280L160J4852K5820
73825b8976J9554M652k272l206q599j4377r376L483J1723J1984Q553J366q449r797L078J3809K995k0597k9653j7226
73805g1331l146N6L575J7197K9720K7421J5793Q355N623j25p157n820N889J9505K6634K3529Q078j8017m3984n4812
73785a3017m3978j8739O737K1407K3256J9089J7292J8702J6742P964j767m461M18P039J0331Q566K394m860r247j2108
73765E1760j9725l2486l9151k8853o379J1783J5969J1376P706P743Q565Q935J1141J6658K1968J9356L800j9158l5157
73746A5851l4660k3302j3642p972L111K2721L6464K7132j875k6681k9096j6495j0059j7143k4220j8703p400m473p462
73727a37904K10K1406L5105K3990J588l022J5926L3277K6946N234p947m583K513J382n208q391n623j29N261Q063L897
73706A1991r238k5313l4157l1972k4189j6877r936j646M574L771k167o214o001m818j981Q701K6001L5619K6687Q341
73686d8824q41L022P234L693j376j365L73K50K407Q202Q058m709j9679k1510j1076j479L008R445J9059K3368K0137
73665b603J8786K4219K7495K0005O822k161n944q760r672m956L681J1195J5882J7532J3311K392r213j5210j6976
73646H5825j9029k0761j8857j3246m337R554K4369K7040J1058j0296j8677j4281j1320j3168q358P845K3797K7869
73628F5027K1758J3081O072L394N644N662m357j7115j6395l792j731k0154l7511k9792m426J2337J1242M271M81j717
73608A1979j157P104J7854J8047O715k043q6L978O0r044j4394j2616n595L585R955R273M934N310J1618J5882J3018
73587I4377O530L54n134o571J219J2561J1457p609k9563l7635l2344k2879j0842M780J5844J4232P428Q658J4636
73568C9499J0549l134q100K605J1230J911j4409j6775n776l28o689r852J01R547L26k1982l2235j6794J0088K3596
73548b6622J4942l419j4499j3160o835m116m695m84J3301K9552L4386K1470j569k2150l4581m0174l9305k9389j1158
73529a38505P691J7698J5738P290P65j161m442j5522k9995l3991j9937L067J9235K3216K1760K1023J9281J2126j065
73510g5728j6391k6829k5145j0858N971J3398J0213N499O543J2396J8003J8792J2822M254J424M448P08j5856k7694
73491h4030j4429J1807J5241j4047m3210m0792j5695M616J3817K1104K2463P748j0713p503J6356L0754J9477J374r33
73472f6595Q732J4755J6250K1774K9453K9260J8892M284j0692k4002l0401k8133k6179l2910m0270l1647n563J9909
73454a33083K8898K4485J9558J8910J7522J2983J1097J6336K1941J6186j189j5726j5747p160l320n052k264O174Q638
73435A9187N93n573Q19J1238J0243k288j3301j6002j4696j2366o010M163J1329J1579R698J1792J6742J8118J1850Q24
73415F7939o248j598J2388K1811J3949q170k7494k9672j5175M743K0186K8941L2651K9612J5085q454k5178j9019N089
73396A11386K1681J1853j6500m0386m6205l6043j7991p89P240N040K350P740J6840K1178K2711K7255K8873J6943k931
73377A40245j2344o545q12n738j2089q220J294M518n46p421j2069j3789j2125j0601j7011l2611m6280m5303k7029
73358a24476K637L3285M9410L9060J1461o039L85J2999P976j1901k5332k4670k1353k2619k1462j1874Q19R203J2905
73339h9586J5125J7705K1138K2896J6624N6j8549k9337l2559l2984k8585j6886o805p949j1253J156K6352M0502L2474
73320h0465J8386J5426J9926K1866K3557K9121K9698J6434j258p534l759l871j0480j2649o648k631p577j4540j3533
73301I469l594R621J9609J8469l49l1470n4680n0324j8169K1766M6923M9678L8685K5712J3613j521j9046l0789l1388
73282A2215k5897k2113j9621j2947k837L474L006K51k223q681k0834k9275k2016p70J8303K2574J6361J1663R684M31
73262f9252j8141l0673k2232q1J3275P831l837o323p7N957J1039K1305L5171M0646K9253O891j1491j5684q423j842
73242a6688n300j5062j7313l651J7784K9319K1708L161r970j0230n485p654j6862k0953j1248P425K5519L9553M7053
73223E1106L9572J4110j3304k1602j1862m556q880j3033q864n453q452o041R729K4841K4196J5870J4491J3461k352
73204A02977k5277l2758k3186j7654k5203l1978k9118k5929k6573j7668O920K8680K8881J5908J0937J7343K2269
73187b1429K1326K2788K8113K4617K298l1184n6802o1363m6843k5587p665O817K1783L3897L3289J6646o318k1791
73169f7408k2949j2076J938P860J806n853j554J2254J8979J1304N71k143j156l518l610O415J8707J6699k659k5019
73149e1412l5867l2450j9752l498J1906K3923L1030L0290K0275Q589Q222K0632L0520K4771Q302p456k1414l5318
73131A1293l9358k4274k931J329j1186j5118J592J8665J4729K9p6J6124K5099J3421l873n329R909K5232K8373K0829
73111H4479R598j057q848j1704j0531j0482j5970k4860k8913k0076J970K5471L2050J3969j2443j9369R04K4922K6382
73092E5492P164j1398k0160k7343l4884l1074j2432N499R109M038J302Q5l412l138N510J1905M440q951j1349k249
73072f1846N033P043J2291K0746K0429P408p580j6588k2977k7282k0104J934K4504K9711J5732l420j1898l260J4340
73053a5784K1978Q342j3644j9383m244J0751R544J787L736J3210J7639J5986J6116J7148J1453J409k058J855J054
73034I6895j0374k2549k4205j7238j1092r472q488m504M51P9r326k1189k1288m689J3217J3522J246J437K2838M1209
73014B6480L1400L274j2677q254l524j0317j4556m158P768M521n864m789N551Q312K944M103J0661L623j8599k9642
72994c743j3577Q842J0185n331j3746p427K385Q987J3741J2878K414p655m641M833N013L5Q679K9639L7673K0699k433
72973A07450j0528n930j060J768L548k324j9000l5475l9843l3837k4164j0826M757J1777L914p329n904Q868K5408
72954b8730L4522L1202J2509j3883k8606k1855p742m239p453r40J7372L4706M3886M6210L7790J2680j9448l6130
72936A01851k6717k220K0481L2319L0151J5197l699j6064k0750k1872j6808k344Q791l732l7620o2184n2145j6347
72918g3712J5329K4523J6051M956J146L907O042M091L759J0680J8627J6000L014q642j3794j8684k4700k0637J422
72899c0622L1976N2711N2302L0782j292k4074k1829k683P218k032r010P245L3052L6364J0759j6770k2233j1304n132
72880A15428j3432k9103m0551m1846l5080k7328k2416j4451N168L2330M8555L9953J3778r262j6926j4299j2031j2648
72862c4161j1847q596p608j1910j8358k2404k2528j6908j340K2877M2813M4673L0667J6649J1627Q269k912j8288
72844G15k6075k0976q182L296P001L226R59J0130K7070L4424K2510M158j643M156L928q467j7553r442O730J0814j201
72823D5578j3376j2870o546r432k2814l2446k8283j7224j1241r664k703R831J5251O692n137n752M863J5461J9375
72804f0437J8450J5496J2579J4885K6019L8393L7285J7648q753k5077k3864j0073L929N711p508k3547k5708j2080O15
72785f037l933k3008l8807l7251j9448K168J5345J7706J7550K3151L0756K7947J0935p622j3205p178l102q093j5406
72766c7532j5351o598N292J4853J9109J7247J1793P664O663M824j250p045m349O525J4357J0651J418j155L007Q33
72746E0956j3810k7443k2072J498K4443L2681K9828K6414K5321K2156J3309j412j9006l1606k9747j2907P338J9742
72728I5683K4146K4273J6746k508k5268l7181l6529l4278l3540k2729M269L2569M1153K6347J726j9224l0696l0391
72710e432k0008q612n018o440l788K350J954o696j1473m100O735Q249K543K815J3533K3486J9589K180j5018j8196
72690b1347p083L935J084j1606j5568j344J7174J8794J193j7214j9945q555M593J1492J2870J2627J2142Q507k448
72671f99j9161l1143k7871j1791K642N361J271J283P644J3711J5435J5851J7253J5189M744r940j7682j2442L30J1503
72651a8512J8361K2575K0936O168k0428m3192m4856k4061K648J5448P353j0651j8805o819J4673K5018J7606O312M782
72632b5444R061Q939O997J2673K2791K4375J6397J2069J5703J3172o452l2284m5317m2163l4581l1114k9334k3002
72614a27514q568J3186L4964M4793L6678J7935J289p653j0839j0568q280o625n623o9J1797K0716J6954O329M554
72595B3456J4609K0807J0267q381j4986j744J9351K9976K0762m208l0958m3311l4157j2776K970N350L880R490J7044
72576B7441J3593J617o97J2610K1841Q575j5028k1127m864J1117J0220N18l894j709K578P476O998r612l8726n7154
72556b8227m9723l0101k0305k1303j9333j0119J115J4382L0293L7833K7307J0526P561J7066K1464J8491K2703L4246
72538F3876L2458Q059k1227l6927m1248m1711l4600j7965m282m572j2369j6661j8083j8926j1006R687K7537K5140
72520a12820R505K775J1863K4116K9404K9364K6072J8188J0101J0653J9169K3758J6609J797j3908k8050l7187l3940
72502G469j6025N980J5519N390j4404k4891j6591P85J1383J4214K1265L3935L6451K0973M253M478J3180R131p035
72483A25460j3902l205R582J2331J2762J8887K0857O217j8108l3480l3419k7579k4383k0641j0354K794O341o960
72465B3200k7795l7766l1013k2011k4308k8469j5225J2477K9354K4124J6680K7250M4295M1207J6094n398n625M953
72447D2024P387j106j0401j4960j7309j8342j3677l12J7978L2690L5963K5698Q784k525k375J229l489j4312j5633o46
72427E6666J6119J7735R235Q865J7626J5941m082k1208j3378R175J6835J84k1286k8304k1746j0848J568J4261K0512
72408H3870J5860N873j326m915p703q505n361k289n341j3074j6557r611L298R760L74k1071l8696l8251j9420O702
72388f6383K8308L7092K8310O877r523n410J3315K5575K1409J0793M721J072n450j2207j5251j6449j5996p913Q214
72369C1104K0667K0619J5013J3984J4115O724m438q308n467p647j9208l1535l6321l3844k7359j8777j0852n328J361
72350h5497J2439K1590J8892O877Q33R745K4067K6532J1081j0861k0287p715J5805K7460J7500J282j171O838L560
72331G8970j8707l9910l6930j1892J2476J9965J4717R537Q255L685q722k0470j8053m98J7708K3229J6588N032q393
72312D6587k1497k7233k1940j3338r225m088R941K4217K2171N362o460l251L658J784o412j3311j6983j5018k225
72293d7261J6339K3562J2700n2K432J4085J6959Q118j50j680k477o855j1020j1481r555o619l418l965j1624k0968
72273d2930k1780j2124m07N953P138O123M672M990Q063Q782M32j2986j6462j618K0425L0491K3602J3354J3476K1150
72253F0344K2726J2565n77o641o850q181j0333o667K914R014N320k527m484J964J0434J2634M969p931j5574j2090
72233F1029m205k652o510n252L548J0322J0023R122J0555N916p803j7298j1903j771j851p781o264j783j0981l2073
72213g612m2444l1461j6326j6785k9079l5169k6846j0491M786J4696J9454K1826K3303K0907J2650N420Q721J9467
72195f4983K3202J3747J772p07N066J0880J3358J2731P540k245j2321j9495k4366k5258j7835m949L220M496Q727
72176f7420J8311J7975k647k7187l0963j4815j791k683m884K155J0060Q582L987Q347K0025K6607K2166J1825K591
72157B41j857M71Q625J5808J4218M258m863m423O014J8864K3741J3902p974k9646l8119l0294j4227n60N463M909K146
72136a3303J948O260J1587J1411L495o295r581m165M643J0220R578L047o846j5213j7344j4021j1456j3361j5843
72117f5239j3507p517k580J648R368J8916K1372J1360o219k2576l2730l4088k4285o300R231J4103J2542J4612K1558
72098h0331K4829J9015Q469J41l231r81P420J8154K2157J3725k171j4630j7118j0756j35J0876K0783K9966L7204
72079H3386L6750K3543K900j1415j3220j1812j7141k3341j7318O8J4087J7483J8466K4040K8353K4465J6144Q977M4
72060B04459j2854k1287j9019j6483k5860l7406l0688q197M234n163j8061j6755j0083j3461k0822j6953n668k176
72042g2243l251J0524M0918O1904N0756J4590k1138l8800l7198k4898j2614n353K090J5648K7838K4653Q458p37O327
72023D7474J3312L162j4733j7841k964J1856J4997J3678J6295J7234P027j1062k3085k0160o903M735O794N29p708
72004E2637j4071j9228k3820k5764k3560j8994j4148q788k887J889O013J3299K4159L0918K4588N072j7953l2281
71986d2919l0414j4649K480Q536N218N510J3401J6455O104n644k934Q716J1183L815M664J9127K7354J2450j4140
71967C4313k8353k3903j3089m515L892J1160Q301p412k3192k3967j1142j283o222j9674k6160j9771q505N8R688K5828
71947a23948M0449L8189J9116M172J0830L0576M0215L1942K1114K2430K8596K0350o308l2127l6484k1295o867o191
71929G4759j1835j0971m710l669r020j0086k248L984k357j6650k4630j9699p507L272P740M914j638m083K033J0246
71909b2155R393j837j2162j0983N09J3013J9083J7180J0593N807Q399J6513K0329J1573o945k3449k8153k0797q607
71890b696J052N913P994Q754P346M386L398L897k991k3054m4235m5168k2323L368J4254J7591K6943L4304K1390o554
71870A3569k2820j8218j3686k3578k9023o712L1918N3432M6392L0286K3380K2867J8280N621j5342m0721n5263m3102
71852b2720j2679N733k703j7197j0154J6630L8212L8861K3365L138j3432j9744j3685j690Q319J5499K0090J5359k726
71833F8476k2469k6776j4949j865K986K632K9o358j2161p340P767J9140J8011J1892J0659J3004J4790J9546K9213
71814A26227L2721J7552j0663l2263l6787l1718k7217k2581j3225m141p562k6394m5609m5539k4060n16O287j56j014
71795a46658J1805K6390K9031K1048J1980N533J435M359J8818L7002M2993L1048J1192n518j8593l0753l7362l1612
71777a7862j6527l493Q25n21l168p651j4300j8292j5177p611j296K847O849R237P988P750J4223K1405J6244m44j0166
71756b9140j523J2285J2141M95m236M148J2867J1102K521o017j4575k3076k5586j9701j3363j3828j5594q219O524
71737a12775J3861M201j2758j6144K989K8976L6395J8365o150j6479j3120q708n292M838J9848K6900K1425J2833Q107
71718G312M285J167N543J5965J8781Q551j979k825k907j1517j7708o756J2390J6867K904j0602j1156p055r653j6806
71698e199j9674j4689m125O304P403o560k7427l8002l0559j3270L341J6922K7144K9456K2089J2634J0254J4610J7885
71679H537J5532J0756R467J3440J8540K0008J9761K4278L1521K6188j994l8084n3383l9716j9317j4163j7894j0030
71661C447J0478K2081J0968r212j3804M635L0730M4016L5828J1299j7430l7444m0043k5918o147N535L904m358q490
71642B0075l791N691J2340J1762O291K914O225J2509J2700K385j2727k2376k1081j1120J244J0685J5464J6684J4403
71623H0277N679j0494k7170l3178k4118n988J2149K4133K5600J4733k909j7080k3764k6990k7065j6270P462L1013
71605a3980L9089L1415J8966Q565l57q554j5519k1259k1671q106J8387L8337L2793Q180j1066j3269r141j0897j7201
71586D4712k2719k8498l5229l6426k6657j0418L296J0440J2100J0508Q509Q103O671m88j1700j8157j3925k076J0611
71567i1343K0040K4898K5682K4954K4553K2869J8866J5325J1693p64k5373m5708m0519j4010M655l132k4416l5499
71549h7229l0387j9759j2531q681l795O521K1363L0511K4377J0369O917J6954K2577J3796N585J3023K4782J9234l378
71530E0249k3462k9504k4728j1902Q536K6756K8816J5798K415m769j2794k4368l0494k5764j6862r851j797Q181J1726
71511f3818M668j592O801K5838L5697K2496p436l4727m5206m0414l0632j9423j163K3235L7567K8543P450j241P777
71492d5580J5543R070JM244J6940K0370Q430q894k0314k2018j5661p167m371p986q499K39R354O230p364j9431k5898
71471a02762l0943l1317j6557J1550L4165L6863K4680R422n808k0150k5187j6022m762o815j6843j4858K945J6306
71453a56093R907m418m816J1552K8720L4552L0450K1563J0532K117K704J0925J6597J2976L860m483j0965j4508r311
71434h139N805J8488J4435k411j1992l677R448Q170p728k0683j8132m261J0330J9661J9829O611j5268k8058j8303
71415b5875M421J7816J5124J0359J3505J5691O866n198p022k183o359k2334l4666l0838j5614j050P136Q312J263
71396e0646j2241k2540j8423P39K2197L0842K3819J3486J3026J9353J6735l43j7283j9346j2044r631j0707j562J8684
71377a5885L3356L0637J5776j699j7861k7631k4081j1578n251r212r079M213J7125J3062k028q244J180J4867K0222
71358A7889J3448k593j9226k4609j5794m288o19R50J1633K7641L3438K2916N394q220j4453j3433o571R28L080o86
71338B6825o988j3476j7464j4724o111K57N47J746Q466J2303N593l474l626L9l464p864K695K5666M0559L7762K6803
71317A12070J3995o181l0736l9999k2285P146K3206J7380r12j8905k8247k7380k3918k7260l3977k9498q535J6912
71299a07124L4216M2054L9809K0495j3715m0792l9110j3186J2454K1236J6718J1264J2657K0071K5489K0100M487
71282F7123j0022j4151j0994r329j1221j1098l889R599K2260K4223J2007m663j1655p126j933l147o950q929r594p422
71262C089L62O944J462r664n246J7545L2053J8648n209j0333L515J4464J4636J3891J3435K646j6450k5648j7710p992
71242D4438j1339k2478k7226k0795p560P324J8811K1491J4024M26j3892k2930k0317p405K236j532p439M812L3133
71223a6218M9598L3960j816k9075l2603j9595p619r393k2380k9834j8744K687J5053J4802J7308L0129L9493L1168
71205D6921J0310r051k1167k4487j4186O063J5559k159l4066m9625l6123r015J0311J3378K896j2560j9806r802J0567
71186a26042K4590K5764K2519K1565J8017O511q354j9338k6050l0095k8027j7558n705j850m870m915K732J2530J7697
71167a20879J8176J7864J8325J7468J1919j13j5189k3031j3187J2690L7321M1337K1422o933k4919k6223j7315o406
71149e7673L799J3669K1867K5367K2689J5241N869l214j1318j8316k2715k1951j6216j0531r487r714k049J6412L5959
71130b2312M3628L7144K5992J9860J9739K0031J5655O348l416q230p408o480j0697j8229k3438k5531k7808k7913
71112F935j7147N321K4170K2333J614j8712k3509j4547j314J1632K2721K5671J3164j1621l3725l9635k9530j4688
71094g0867m672M88N654J1182J1272K088j1443j9434j6714o949J539K428l718q307j818J3428K1471J1377n100n416
71074g3511J3462K8866K1227k182j9594k1019j2982n355m032r990j4781l338K6684N3948N5087L2768Q423p424k0031
71055D6226k9586k8008j8978j8440k7578k6132m243J7792J6526l044j8722k0977j4350l59K0648L6783L3851J6261
71037b2330K658J331L880J909m082j1718j8794j8390n495J0911J5426O597l266q813j6894k8320l0237j4000J0990
71018a28637K8595L2349K5758J5840J1331J7784K8372K7570R555j3750k6603k4042j0877L860Q814j264j4487j1804
71000b1636N904J4353j452k4453k7977j0085Q596J2836L700j2124k7637l2806k1772l533O163L917j40J118M935P408
70980a14685P729L391p340j6663j2183O067K2944K5753J6404M210l850k832R534K5887L1690K1768Q193M850R717R721
70960E0305p37j4122k1197k1085j8869j7712j5918j0911m367j416l897p713j0161j5912k8655l9339l3306j0908R062
70941b16858J1649L048m90O372J6037K1133K0720J6549J1337R056J0358R824L906j830j096J330l485j2040j1173J750
70921a03903J4436J9576K5388L7545M3075K7000j207j4385j730J8107K2390J0649k273r435j5442k0839j7517l878
70903B7557O332m58j8314k7949k1746j2981j6302k6583k4693j137L2867N7047N9232M1905J8349L199N38m81j2942
70884H3440l4116m7237m3339l1814k3625j4667K500J8261J4525o614j9937r122J2403K2568K1133K4670L7099M2041
70866D8169K6676J1j9069k3391j9933j6374j3469q954j752Q671K2002L4209L8807L3323K1662P772r442l0277m5874
70847E2767m3947k5747j0028j2497k4527k1934L344K9360K8793K276k1715j9946P11J5017R714m854j1692p482j632
70828f4019K27L815J5388K9329L2282J8701k292j6301j6592o937M210R277M065r858k3647k5370r764J5366L4541
70809g579L7703K7164J1250n267k0780l0360k7521j4048j184K397j434p206j3085j5824p175J4438L4493L6600K3270
70790C5852J0423L629n429j8265k2333j0971L668P333K565O79L631M885K087j754n352q221o746j64L444l748j7299
70769b2086k6268k7713k6375k2693j1400Q305K9750M6052N3507M9444L4630J6982N055j409p283j0324l056J3367
70751I8485K6336K5064R994j1816l3317m7579m8721l7484k3127j6702k1791k9955k5674j886K7016L6239K0108R56j02
70732e3956R689J0479K508L232J6332K5637K1824J4782J3543J1817J757j2356k2315k5391j9243j411J8785K2690O850
70713D5253q772q456k754q291j8119j1642J2071L0570K7778J1611p74k664K043R022J7273K5809L0581K5753R424
70694A85716j1912k8384l7013m1613m1593k9576n066J7925K4762J6461M855l633j1495k0919k8836l0199k1521l123
70676f5164J8681L4358L8603L1873J5318p558k4067k0205o74J1705M553q681j1423p401o792l178J4104L2728K7367
70657G4147k778k8770k9119j3406j954Q67K471M532L070p22j271K259N710P456J0598J7784K6809L0910K2852J497
70637A32942k3991l9118l5833j9386l058L766K829K070L155k319j8747l2510k4296K533J9897R440j3498k2169j3910
70618g2203p431j2216j9616k2455k4361k6344k0604m109J4084K5688L3060L9913M1731L3348J9402R396N666K292n258
70599I983j3418j4006m191P713J0439M934M173J3205J8967R839l838l913O920R162k638j3258j3535j3002j8069j7272
70579b1805j568J5776J5718L59j2024j2799r180q107q147p797r662j2822r406O222K8398M3621M2332K6393N958r727
70559F1733j7163j5415l790J3209K3835K0110Q524J089k459j2592k9641l8361k8076q014M508L958j962m700j905L884
70539b3228P856O228k89q316j6330k2414j9710l943J3610J2444j2332m0233m6364k5626P624L5616M7430M1310K4364
70520b2303O569p679j7608j7219O53K9308M9223M8873L3783J1878j5211l9895m4882k4921L25R559O275P788J6589
70501C1105J8654N695j4750k8700k5249k378K6285L7378K2770K199j377Q267R608m709k1926l0347k8500j5571Q258
70482c288L0925L5504K1963Q010N409Q899J0751J1641J2716R983K181o280j4316k5805l8479m1551k9263r074O461
70463c613R441n19j3832j3841N083K3865J8186q379k7051k0993j845J3168K0040J7834K392j8199k2178l651J3825
70444a0267R475n181p600M95J865l853k236P201R487O38o675n068j45M530R669O186j7624m8969n4772k5165P965
70423a30044J1898n098j2064j282Q284O808O775J6751K4057J4927j866n367R391K5636K7175J7141J0555J3080J3732
70404E0489N3k3854l9356l3222j0894J1619K4787L1149L7182M4257M6918L7390J3163j7613m1054n1224n5681o2556
70386c8447o5858n2018k0484J1620K8193K9459K4234J5360J554j1445j2923j438J1571J5946J4786J7848K6785L2034
70368B6777K3717K538k0007l0788k5458j1922k562j207N29J0781K3027K0425l065l1740m4099l6325k2535j3423m957
70349a40294Q557K0987K3068J7807J5642J6986J1839k589j6122k1197k2287k2921j4409J0957M1542N4116L9559J1683
70331C2924j0061j9048k1599k5185k9615k7834j5119J996R990M337m076l375M303R048Q098N010n68r697j3947k969
70311a07387J7072K6871J9214Q217Q376J6227J9199J2402p90j6116k8863l3972l2552l1831l2961k6530o978J6071
70293a74331K9051L0968L0780L3441L6456L5831K8368J2500o517j7297j5135q742o737l868R067K6567L2125J9898
70275I2425J916p722p360m381m375p002q471n462J816R479J2811Q648l329j7945k5264k0997j5118k0345l1790l0914
70255h3380j3048M029O731N443J5232L0425L4808K7367J9899J5249O246o366j2313q110r34L281L355l308j6957k7745
70235i6k5519j4970p114L15J6891L7362M5966M2828M4141N2389M8956K4563l376j5308j4724j6976k7408m2426n8958
70216H6536p0274o4310l9338j2060J618N098R502J3513P848p572k3499l2663l0791j3758J4106L5237L5664K2638
70198f2505J3698J2765J0138K879L18P920J7986J9948J1597k118j4285j8152j0699K895J2396J2332O725L909P976
70179C5723J4134J2100k717k0561k5079j2141M449Q881q06j5309k4687k2036n472J6283K7098K0194O087k672o981
70160F488j2992j6812j0070L493R785K091j2450k2575k1090o311J5427L1674L7522M3312N7572O7353N1741J4279
70142B38437j6099k1348j5122j8422k9150l0075j8078q750j2708k1118j9071m556J1398J8213J3435l58j9253l6966
70124A0409m5505m1532l0467k0762j5253j1459q093n546j506N959J0210N93j9978l0600j4164K0639M7260M9380L4347
70105f6068J9799J4177J2572P474k97k774L237R056L968r189j5297n173J3833K7283K7428J6534M224K625J4770K6063
70085A04245J8354m848k1049k1014k0791l1875l8563k2877L040J2326K519m673R45O483J564o307p735n356m889n901
70065d6402o864p768m430P609K1209K3321J5252J2051J7516J6798J555j3790j2662m62M841k870j4792k1508j9299
70046c0695q237N422R720J82j0571n684J5030L4107L5079J7142o400j9586j6059m005K962Q70l103m206o509j2358
70026f899j5142r408p13K289o74n118j0535j7224j9822j3398k493M146M802L168n56q070j5171j5254r953p255q428
70005a51708n155P905K4184L2314K8471J8875J1752Q747M796l061q963m642P999J7546J8017J5388J5069J1684j025
69986D8193j6693k2310j4455j489P624R299L701m467o266K246J3411J8239J9006K1558J9590J155k9066m8743m3615
69967b3082k2593k725R067J3186Q781j408n901L921K0680K9031K4170J3855M651m102j2602j6315j2816o985n567r667
69947C579j4679j5371r902j356L818J359n733r810p034j206J328j892r051j7023k2009j9056n229J4967K9358K6981
69927e7961R045j0294j6624r008J164M888M709O716Q283O05j7214l3462l5943k4520r007J923O621Q007R031J0170
69907a42871R810P763P660J2568J8736J9371J5335J4503J7558J4295J216p211K713K0307K1261K78k2249k7391j6745
69888c3093j798J0026J3228L883r770j0675K681R101n420k4389k3979p784J855k74K060J7051L3024L8485L4435K2938
69868G1585K657j7870k1258n802O032m674k8580m1639l3126j0067J5821L4051L6939K7489J9399J8756J3439o814
69850G6338k7857k5440M16K2363J9395o50j6907k0951j8103j2218j163J3331K0327R290j6361l9088m2869k8168r092
69831i7407L087R451J6343K4780L0398L0076K4803J7933J2915J0461P026o41q859j0044l529K741L291J139L25J05j50
69810G4244M85l309k0571m5249n2210k6431J1926K8363J6354J807N979K1514K9470K3987J1525k080j3364j7963j5395
69791B9082j2359j3177j1117K615K3724L6508L0369Q988j6230l5709m4184m0187k7124j2256j093O518J3119J7854
69773d4659J7148J0919M334J277r77p051j5387j9532j7014j2036q518n465j189K417K981J762J926N137J0887J5755
69753e7285J2950j073j7391j9646l702J4340J6655N178l189J373J3410K3631K8441K7302J9536P908N7J762R770J3150
69733I3177K792j8440l5120l3139j5521J051P346J0706J8168K1581J1290l014j491J6924L0135K0589n282k9668m3638
69714D8446m7938m3661l2096j8951j0129n062P4M520L821k390q762j1330j2352j5409j7579j0696P144K4402K5814
69695a22134R677r460j6238o919J3674L7616N2092M3831J5831q279q702O797J4985P188o233j6141k2124k1463r499
69676d5501O024Q843j843p420K480J4036J1012j707r033q576q297r189n324K796Q028Q460Q788J0260P865j487j3106
69655b2891j6892m162K2852M6056M4672J9213o273j3412j0999j6500k6688k3877o120Q507R147N818R930J6275J3723
69636D8379L290m848o066l366J717J1388K5063L6830M0905L6650K7464J6649N218o631j7045k3413k6089k8045k8752
69617A09298k2820r549K0o231k4361l6090k9253r633R246J9882K0603J0740n884j8389j9215j4722j6526k3246k0875
69598h7005l716J4148J4504l132k1745k5977j5258L83J1288J4247J2351J0864J1519J1266Q258O015P242O772j361
69579b9337j1036q607P110J9866J6552L427n749q584j0646j1325o773j847l958p205Q99J6290J9997P919J094J5419
69559C506L5724L4505P327k4912m2737m2747k9645r466P775J1649K229r672j5162j3630o199P919K4785L2979K3886
69540a886K207j7234k2025j0606Q440K3470K7998K3900J6495Q187p88p535p683k408M17m847j3558j4494j790J7827
69520B4087L0424K8019J6236P471O463N653l717j9157k8990k5352j1736K135J0117J3502J6129J7025J0614l291j3241
69501H2391p357R223J7705J0498K386Q099J7584Q219k1274m5217m2997k3400r671j0640j6653j7137j0650o6J0952
69482c8005J5523P258j0089k3661k5965k2046j8409j2424k85J1178J2016N885O627J7132K4853K2558J9770K4691
69464A6607K7567J5735l387j0747l017M447O46j0358k1728l1026l3245k2895p076q03m303j762J0564J3852l854k5288
69444i0071k7375j2732N02Q229J8205K6182J8462k452j5960j0364N126J8184K6848L0880K5649J2271J807J539N568
69425D0498N005l84o010j0615j5033j8160j8232j4469o414L522P805J455q722j1342o812o572j4913k2525k0992j3280
69405a36190n820n1L673K999l42M60P768J6927K6075L7965M7452L9766J0448k2776l8340l3689k0528n758J0357K2641
69385c6963K2620J2095L654N227J2173J6634J7210J6015J2237L728p285j4698j5711j4876j8023k2822k0442r380j876
69366d0483r507k6094l4105k6754j3801n386j614l04k582n137J534J8956L3861L4074K3549J3388O312L8j149R042
69346b6162K5872L6025L2194J7698k59j3934j5622m989O371P161J032q72K91q370k9298m5361l9014j2725J5490L0936
69326b3536L1052K0427M966q920j4896j0119J648J2028J4666J0070K700n549j5866k7344l5971l9118l5987k3799j154
69307a44702K3132L4214K9138K1381K0775J8557K801j9289k8261j8441m039R95j645j107Q771K3841L2711K6703J1580
69288C7115M863J4395K5544K0236L075n861p58M537J334k113J009L279j857o448j600O143M975l035o163j611K768
69267I9827L253M970J0967J5781J2247j024j9506l5005l8707k8564j4878j2700k5739m0975m1400k2527M058K1221
69249a08701J9943N242r782j6314j6073j4897j2552k980J5014L1837L5425K4267Q962O41P45L005K112k268p235q335
69229e1944j816R059J1640l638k6834l4167j5868R758J8548J0028L795J0267J8611J5740N269R81Q060J7606J7793
69210B2888O536o695j1189p872r097k2149l6251l2942q693J9264L0164J7590q470l0421l4169j9352l56Q386P959
69191a14869J0034J8792K7361L1507L4821L7405L0964J1045j4276l2765l7862k7746n229J6886K1850P912p956j1612
69173c738o695j394N693J4721J3365n642k4265j6840J4699M2380M9110M5091M3484L8493J7887j5486m6063o1711
69155A03089n8735l8359q759J3632J5830K131r933q007M656J6213J8424J0996j728j5138k5911l1300k9069j9704p890
69136f9562J259Q296J8531L2430L9931K9752M539j8769k6613k2100j6191j0919j075R432O748j1936k8842k7381j3755
69117i6225l750L463K0079M2223M9388L4552J4703M072m067j8206k9158k4953j1344j166N111J1430J0153n613k1468
69098b0776j5904P800K5026K4657J9556K0163J8730O840q635j6079j3320m900L667M557o976k1211k0635l060J4422
69079A3922J9070J6220J4666J4415J6499K7470M2491M0268J0287k7697m7834n0547n2393n3102l5882K64K9691K8455
69061F263J171k6131l2344j7155L447J4382J5541J6862J9638J2194j0207l1739l3491j7194N14J0632J4753J1443l223
69042d4644k2345l0927k3604q055Q076K0715K2276P594j2511k0762j8547k3445l7916m1360k2769j109K187m998P1
69023b52073J9437L3613L1969K5245K6631L4764L9111L3105J9187O324K684O620P537K9q193q723n855q004j2200
69004h792j0162n583j0193k3039k9298k2640j3971j2440j2086o047j170n618j0701m74K3146L8882L2297J3260K644
68985f1985Q279J9582K2813J6048Q077N260L174o395k1866l0484k2731m064J1536J6640J4455J0202M671l272j2620
68966b2680k0319k2408j4810K833K2708L2379K5897R593m747j0354q241l559k734j1090k7427m0165l3808l465L7002
68947i5395O3183N8665K7874p652k6361k3027j0629o514j5942k8277k9217j6298j251L872O11J05N598O210o826k3712
68927a24983k5618r000J0334J9043K0949K4874K8998K6674J9576J3817Q783J744r78Q320K1907K2945R917m94J257
68908G8065M909Q0o587m936J64k629j2237j7875j4953o742M096J3910J3874N89j3864j6295j2215j5655k3125j7297
68888d8723K647J5278P759o028p922n08K533j165l164J112R966K1104K9484K6107R280q878j7049j9480k5845l3507
68868d6999l2796k4511j7901j4663r539m547o074p183Q849M1178O3643N5114K6537N962M009O641j126j6418k5175
68849E001j9586n126O185O684j600j0250j1815m500P075J3471O576j0061j9452p749J6925L0830K2336M522m671n083
68829A9712p793j3010q410J0583L0947L6800K5760O122j4247k9211l1089j6898K969J2062O695j65K579R496Q847P03
68809E2452m880l841m06N430J8566L2756K8464k150l7749m9015l2907j2746o594r811j0671q705r945j3252j0962J3
68789g5953J3897K1465J7252M274o598n879L753J0080O679J97q09J451j456j0596j7338j4376m247M643Q113J0413
68769c5035J7372K5571K2293O58k7685m2031l5119j9078p996l346NL124O072J3880K8765M0044L3171R498j2013j5866
68749B284o334P61k599j0708j5304j6188j7661j8196j1096K351Q126l600k0701j9950L173K6948L0168J5839J578l646
68729e4755l408k090p79p49j245K563J0395J0924l509k0816k2017q298M59m421q467J885J8149K3102J5019O854O677
68708c4527R688P820p20j1456j8338j8368j3421o031N704K3255L7302L1626K941l0019m4056l3495r755J3753K8153
68689e9944K7335J2132m767q889n96O043J774q390j5470j7499j6483j1812k382Q913J7587K1807K1396J6593J1179
68670a473J2275K1428K8755K2423L158j6079k4597k2519j4713l350R675J8506J7650R034K63l366j683L692J0569
68651F9648J4522J1141Q08j2769k8236m4544n3002m1090j0195J8402K4842J4073P891J5495K3562J7452N76j3737
68633A4839k0940k6315l1938l2725k5199j2269K371J7993L2482M0402L9955L7157L6794L2147J2564j7853l8358l4136
68615B6971j4380j20P92l558q054j7663l2495l9831l0323j2596j466J477M693J0085J2179J0586J0512J1749R389N702
68595e6351Q794J7588K0033R669o221j7532j9448p950J8190M5017M7904J9474j7140l3664k6411j0958K281J2686
68577E961J6883Q967o805j6715j3322k163P355J0229O341N59R42R531J7175J5216Q402N903L391j1870l7498n1923
68557b3441l9455r363J5625K2402J4732N044M461J5499K9308L3127K3117P259m378p609l144N299J0967Q905K247j970
68537A08632l024n196p440m697k86m712j8231k6953k2975j6671j9572k4826j6857N537K7676L7445L4814K4866J1576
68518G9106n43o482m913R07N865M432o842k3645l4273l1091j9073q554l212n0L366P759J3438J6179P655j1054k1792
68497c2817p284K4904M7599M3124J7650j1914l3125l9441k9722j1360M693J4792K0492J6867k609k6867l0670o999
68479d2687J8742K0419M963j634O992J2485K319j3829k1017j6584o128M876R929L527q994j3217l708Q252J0915O741
68459a7638L806K813K556Q478K2110K9071J4610j1140k0973o100J2321J2875q2q998q027k324P080K1217L1061K4828
68439A17544P754q89N542J0845q57k2900l5692l0128j1784J1377L3104M3553L3206N635k2249l6906l8906l3755j9662
68420A4832P548M0311N9248N0546K0196j1272k6608k3447j1013Q11P868R379L919q483k1020k2788j1294Q59j417
68401G8175j6283k5315j6115K560J3778J3620J0282P111J70p268l058J4214K6262J6232r522l1423m0827m1823l5653
68382d4883k0048k390M186R68M162J9683L2717L0704K2031J9699J8774N986j5842k9963k9086k0880j0925L842K1839
68363A0574L1905K8485K0989K0137K2836J8675N909p109j3800j5510j6233j6742j5566j2903j0898r378l313J1302
68345D9360K7936L1848J7136l721j5161j9001k8675m5163n2767m1592k0449j687J3457K5471K6088J1535k930J167
68327b7148J8782K6817J5730l00o850o890q486q648P8J5272K6495K6665J5214l907k0387k0970m468J1345P991j1404
68307D4931k7778l1077k7834k4810j9011q300P7m98n487o548l418q1N979K0417L8737M5925L2976Q934p180n320N766
68286C6400P500r078l2830m3797l4734j6644k291P705J7615K4175K1670J4437J2249J4448J0136m711k1168l0592
68268b9510l3498l1910k3501q875M718J2750J7948J9984J1253q353k2644j7188Q39J3279J6033J9704K8785L5231
68250E045L3055K5964J8273R799J964k214o384j7311l0216l0829j7630q528j6398k9804k9893j7126o935m710j324
68231a25202P026J0406K117p560l621J3150K6491K4468J2226L447L971Q157R261P124M246O82j931L521K1011M1214
68211F0204M9097M1226K6047P589j7462m3021m9843k9430j93J3898J2360J1090J3181N970j3147k7418k4001j2482
68193B3665j1008k3129l6996m0945l2257j5492N09O835J756p654j3661j4117q711M454K2927L5938L3827J9379M502
68174e0178k042J177J2304K6611L4674K8747J2493j829p618r799j4815k0837k1908j7579j3525j4013j6786j4896k479
68155i2298J9177L9646M6302L6248J9625Q374L608k156j2117k0296k0520j5011j0245p332j368R773J9848J9535O093
68136D6886j3407k7812k9961k0008l381J2276J8881J1241p068k2388k1233m729J0726J0863p13q181k996P785J2682
68117c0537Q891J251o761j5003k1295k0508j1342j78N752P280J0907J7440J9028J1520M326R431K2310K4581Q582
68098D5675j1605k0239k0217k2208k2871j1091P903J4500M045m401L296J5564J4955M534j165q32l449o909k6J4461
68078h0J8486N208r933j2608r777j5197k5440k4604q566Q659J3427P607K495M635J1782J8505K0729J6081M862p262
68058A9009j1115k920R346J3079N440l874n871k713j318k265j411J275J615j793o774j2122j7122j8868j6262j3909
68038f8573j4926j3760n721J65q741k6095k9391r601J5979K7547K6928K8266L5160L9277L5350K5649J2806j515j2724
68019E6080j6885j6883j7455j5920o442P176J2335M175n600j608J5763K8101J7502j3103m0212m1962j8638J0611
68001d2965K7274K4541M854k1640l7329l0314j1031k266p626n664J5511L4814K6033l474k2170j5681J487J2153J3636
67982c9857Q310k614j1220o438P960J4015N169l347J973J2732J2958K865l639J666J4644K5855K5772Q892j8200l7276
67962B0220l5112j6394N571K4225L8067M1247K8428O640r089j2042p315l36Q215J5377J4125K570j1960k1809k6611
67943F4017k8565k5821j6078l887J956p19l345L469J7558K6849K4622J8124J7210J8401Q977j3167l3895m0416l4922
67924C68k4793r378J2652L0030K7487O891j2664j7882j3880j0806q103J491J8726L4849L8870K5479P90j7323j1883
67905G0921J4004L5616L1373O592j3820j4468m006o77j0843k5394l2408k7869j5114O96J4494K0425J4596Q63r890
67886E5091j0790p303r217j5325j3513K027K1632L2638L3679K9356J7801m654k9042l7467k4538n028M396K061n096
67867C6708j4804k6905l4218k7571q199J3598L0135L8165L2011P656k4705m4293m1529k7223j4656k069J8765M4355
67849d4779O0894O0530M6394K4102j184j9508k0061n454O309J262j3269j7590m014J4026J8326O351q575j5315j7052
67830G1393k2765l1358l1601j8172q05O086j444j5127k3101j6934L546K5847L0287Q984k2204l8425l1571j4183k00
67811a21747P529J0332O955l75k892L191Q558L250o811o371O448J5062P287m845J149K5743M0566K1374j9144m3139
67791d7880l0906L4K2004K9148L2497L5138K9396J5502O138Q366J2545M681j6630l8599m4901k8470l72J5528N107
67772H326j9825l6222l7401l3563k8018j1587J5537L5245L4604K2692J3955Q441J203j538P625J9195J5917k896k0426
67753h736k4502j8650j1823q030o797n410j05Q947J5486J5242J2562J2965J4302J2978J3144J9910K7521K4680R403
67734A03087r998k5595l3495l1305k1288j1635n561M667K2392L3048K0952n973k4980k8413k7298k7580k3220j4374
67716a06569j1317j4140p641J4460L5944L8741K4004L754j5193k8745k9670j6914k204L636L878O161P919K324p814
67697i9386j2716p948M043J9202L0622K8481J1152p911j3499n616M203R046J0932J2761J4481J5245J3488P941K886
67678C7407O154J5911J7358J576j9395k7034k0125j2127r787q049l859o50J328N418P222l560k5179l9624l3523j4258
67658a24796J603P915Q838O185j812j1054j1582l63J2138J2862J127j0895j1795j414J2341K2770K7548K6531K2331
67639a1522K1657K8689L5808K8578M008k2515l3990k9993k1868j5308p037L767J1150J1216P349L939R81k497n327
67620G085p927j3661k1406k1226m956J9349L1119J9216m255j7055j1281J337P394O540N061L530p15m010K26R420
67600C785J3123Q024L467R016K2674L3881L3284J8998j018j3369j2827r748j4727j9309p180J5561K1189j312k8170
67581G5342l3943k5292k3640k7908j7933J0699L7783M4791L2008Q489j7212l2902k6405j503K1113K5706J6012M343
67563F9548l473o722l347O129J3373Q965o219k0020j9326j930J9502K6939J4477m959j4493j1865p713r366j4885
67544C4615k0950k6824l0456k9273k5432k2796j9163r585L739J4028K1126K9613L6419L2753K0004J0965J1392J2022
67526D2197M286o726j1306q379l299O33L060M671P651J1967J0211n215k8503m4222m6145m0302k8036l015K8461M2549
67506f9462K6781M86r037o25O004J261o048p230l615J444O418P119M98o663m496M077N719l384j0972n442J0035K3611
67484c3521K7214J9938O376m825o733j534K805M301Q650J7149K1060J3124j218j0118r404n119m578r840j8617k6592
67464a1482k8719k2323j0564o19L173L061L627N135L637k342q680j1339j2348j5916j9526j4396L107K4170L5003
67445g7341L0542J8691J1275J2015J4708J3767J3603K1407L0708K3215n199l0067k4373N578K7077K3185R187K625
67427A20603k258j7543l5711l8761k4339n921P544J6599J9843J3785L629J45M655Q346O567K335l606j3178k0378
67408D2356j4132M007J6995J2605k796j5480k0295k0242j8606j7077j5724j1452k938J923o435k2235k7519j7235p055
67389a41335p864p715O754K3992K2455M810m464N263J8432K0453J6949J6884J4041m06j8435k4108j5599m465K698
67370g1660P965J0222M445o324j1827r937q400q251J4J7360K8230K2511J2213J1469J1381n058k9042l1115l357K5656
67350c3505K8185J2345N887J7078K8108K1881L06k2924l5545l1877j5437K35J067j2719k5202k1384k616J6749K5794
67331d3574K7064L0103L7913M3231L8459K4704P848r240k4185k9543k0735q475j0220k6015l5533k5899j0117p230
67313d1444j4034j0941Q067K5881K4239N376j1794j2132J305J1660P697k135p31J2278J6969P20k1754k6651j1345
67294c8769O258J3041J1725R381Q653J1011J7267K2871K1075J1610m21j2417k3115k6643j7797k241P858P277j178
67275B5446j4911l0118l6220k5757q748l372j2024j9951j7791j0737m152L827J1175R109k563j0030l140J1185J8617
67256a20155J1652q121l0294l6274j4665J9234L4848K3921J0629J5987K9486K9028J3474j142o634p302p096p042r437
67237e9903j2074n294J2697K5765J9489L289l264ll458j7274k4763j3868O186J8680J8950J5007J5307J8967J5518
67218B9954k762k5070k8007o237J3518M322k3545l6503k3492m723M542J2185K3783K4909N527j6382j6011L672J7613
67199d2707J3684M275L818J0395J3301Q146o85o415m783L713J3629J8135J4218M323o044j1721j0937o450k729k099
67179A3067n580j5176k9407l7083k4713N392L1555L4287J7365J117j709L711N557r09j1121j6049q293J1039L0105
67160C155L5782K6941J4074N074k246j0631j3497k185J9522L5583L3190J3272j3948l7398m7781l9664j7534L751
67142E460J0743L129r839k1497l0261l2397k1929j069J6701J9922J2230P066J1080J7513J5780L819j0600j9218k1606
67123d4973k2577k2240j3878M517K1397K2810J1372M579J1872K2435K0842P169m962m704P689K3298K8829J4559j3520
67104G4514l3714k9660q433J0438J9569K6219L2940L0525J3839p223j9496k1530k0518k0710k1445k2001k1278j5449
67086c3413k776J0165J3557O825R81N770J7656K4234J9173Q197o0l828n477m457N5K646k737j1155j1789o833j2207
67065A4527l2452m7668l7657r752J1776J7451J7392J8530J6265J0458J0954K0077K4803J5667J644l945k275k731n543
67046C7521l359L710O529K33r511j4414j2006o212l771q778j6488j4658L646K9662M5917M2793K4482R49j9949l2937
67026E3359l4726k6475j4356n211j805j991j431K976J1753K4201L8758M9618M6370K4098n691k2475j8763p898n282
67007A05029r731j1138r027j1541j9084k2192j6806j0109p746n409J478Q563R718O845N462O069O869R639J4694J4675
66987F6258L763r602j0783K02P620K455n923n795P11O145J2224K3120L0646K1184k986k2567k4293j4950r111j2073
66967E6245j9085k3368k0058r094J178o7j1802j9449j2937k6M949k45n682l364O179J7679K4173J9481N165p219p638
66946d985Q21Q128J1591J5764K0121J6386k08k2930l8141l4867j2467J6511L4286L4432K7262K3558J9453O411j0438
66927A10688j7286j2117o217n942o778o349q694j2606j0235k227m59q947j5218q968K916R515J2005J4816J1853k756
66907C6994j7135j2514R453K5707K0578L125q499r063o157n898p406q504r378j0005r070p331p959j0379p279N656
66887c5064J8140J2644j2247l4234l1532r015R562J1348M541P30J131K733N678R334J0810J1967J8790K9448L2347
66868E7111K1332M137r186j7308k2270k3128k0943k0367j9924j1075O098J7873J6348J2000J5681K0094J3410J121
66850D1004k410K992O339O362J0616J5465O234j9454m4114n0480l7103j1698J7412L9006M1632K6422Q888J931L766
66831F2810O142O326N944M975K124l461j3258k6354l3683k3642K171K5551K9348J3953p314k3375l1029l0553k2854
66812e6179j0299L561J5379K2131K1720J5090O789K378M894J1899J5170O954j0392k4418k5792j7672p855K118J2653
66793a1871J7095Q619o207j2857q010k129j962k378J542O035P648J0184J5632J6687O514r456j8559j4544k047Q245
66773H181O138r961k7086k6858o293J6455K3290J6841J2367J4862J4958N941n502p890K116J7808K8789K7642J4600
66754A26398j499r369n304L261N499j349q995p012N563J8600K1374J3158K248l873n002o218j2349k3981l6628m3969
66734C0553m3441l7510k8449j5112K174J7091K2737J9732J4562J1779J2274J6375K2679K5507J9631O803o821j6867
66716G3697j9252q114J4926L2961K7875L196j7711j8292m409P751R086O96j0094j3519o360O39n635j9799k1685m936
66696B1021J2561J4696R313J2374K1516K0808N705j1832k1169k3733k5784k9882l4016l2888k1150j220J4551J5928
66678e3201O654j660m317n446q495j2844j7664k0924j5603M419L3608N6785O3884N7593M5005K7090L38l2537n7471
66659F5214n8958l7948j6142j4835k9619l5112j6999J0846K6039K3662J4421P035L944P316J5919J9862J0933l975
66641h397j1115r151q065j0811j0086m310k404q207j2895r239k697m30J546J0426K1392K0795L550k0213l6401l9292
66621a36004l1558j6805L485K5995M2424M4658L3577J9115R398L403k679o403k751N297P558m52j0884j2806n142K254
66601b8320J60q371r458O012K9130M0586L2737J7322P898K916o601j9906k7666k6345k0508j2671j637R399J4110
66582a213J3832J7010K5138K8532J9664K695j3670k5001k8696k0992k901J5505K2716J5965K186p310l086J4386L0489
66563A05249K8096P466j2492j7573j4528j6910k3226k1148r062J181M579J2418L3427N4658N2560K1121k0716n0429
66545A34671o1685n9860m8199k8366r218j854m580l733O741J6218J3235J313q465j2201j1276l309J2567K5807K3555
66526a8639R055j025J509Q165Q826L819k386r031j5605j8510j6108j0909l460Q849K3657L2050K9736K3042J9043
66507G2078J6454J1775Q013R812J3702J0432l696k2172l4317l3573k1159l484J3913K8690L6975L1707J2334p648
66489A39836j3073o281l443j1342j9894k0336j7141j5901j2699n158k553j2315k4477k3070q415M603P584N684M658
66470c3733L177J06m09N034J4129K2258K5857K1632Q392q463j9458k0643j7268j6360j9251k2992k4806k1656q786
66451a13240J4893L9058M5917K8276J571j0068j358R127N864k257K074J5537J7264j261k5750m0142m2055l3487j3230
66432a03267J3050L0047L1241K8244L1123L1637J9095J451n542k306j708o453p307j680K367J416J474M985M845n134
66412F7578k2363l9310m7603l9375j4063J5474L2243L1312K0619Q099l629j2442j6541j7899j7492r715Q921K8979
66394b7207L6810L0867J8480J793j8760l2038k5862p984J454j188j267N442M954p872j7126j1610k350r26J095J5081
66374c8214L3224M0580L6189K5751O538k1374m0481l4482j4219l681n452k398R551J4703N811m276n773o352j2858
66355a7213j6366q006M343R021R793J6950K5953K1566K626j2594j0950k991p613k4065l1539j8005K323Q910L827O253
66335c7777K0029K4756O266k0018k9462k0942j2891j3671j4221q364k171k77J934P576J2493J5192K0694K9357L3110
66316A1613K8475K2078J6815M388j9507m2791n0020l9959k1386l04J7996K3381J1797l356n309L287N438l791j0810
66297e1965n041P510J6985K3399L0056L2990K6040J1025n107j9534l2791m0931l5786j5002J1317K6241K0131J424
66279I61p792P883L9578O0531N2036K0088j3883l3321l5658k8041j9878j6384j4657p945L269Q646J068j1670j5023
66260a0192n722N044N866l460j4381j7262o773J3042K7369K1942o1j8652j9300r020m063p144o883J659P736J193
66240c9062j0429j0151N510K0571J8667K149j2344j3875o961j763q59N68N193R926J1576J0740P807q23j7677l6377
66220e7614m3825l2882j1096N569P880J147j550P661K5281M1147M7435M3822L5465K6414J4873l442k6115m1161l8011
66201I98k0649m054L462P721J5160J9759J1680n437j6374j3365m170M75j143m994q399r321n433J337N512P345J3368
66180f522K1816J8106l742k3563j5912J3607L0738J4975j6438l4517l3476k6794j9897n457J6409L0935K7107J1888
66162g37o45o134q562q111l08J3577K3604K1856J1631K966J646N985J2649K0595K7655K7310J4161p278k3724k6033
66142A02103j8392j1431q673n432m15l40q480j5058p904R140J7699P355j1008j9067j2534k332J715O83O90M323R392
66121C2034J1690P927j76m359K680J7090K5769K0497O305n503q483m002J550l7j2700k9120l4516k2681m929J948n626
66100d642j6027j7074p886L153Q237P440P583J3024J8314J4182J120r525j0360o408m480k477L389Q130M861k545m136
66079C873J456O575O581L062k433q129p958J307J0960J0029K167m39J131o594k4487l4332k4833q526k403m524k476
66058g9993M338M706o215j9577k2297q184J6730L6017L5922K0655P602M766L949O77N271K3187L8619L4056J6335N949
66038A22513P572R361O842P509J1993R553l474j6036j8361j4082j1708j3472j5948j4337n639N113M712j1556k7238
66019C3317k3120n249L418j461j84J6305K9344K1572L096o997r378j6501k7145k8243j6551j821P826R649k04k1067
65999c3394l7657l1529m716K0591K8330K3599J9525K0615K3789K6328K6138J9390M087j5925l3185m1732l9845l0588
65981e6179k0254j4132j3063j3663r916M354K7908M5458L8031O688k2344k5733j0198q67q100j9433k2044j7854j3995
65962a45336j1522q711n939k636K903Q177Q910Q120J2502J8212J3136k291j0385o04J4290J7353J1156Q209P310k327
65942e9473j6839j6962M741L0391L7307K2446M84j4654j9905k0034k1108k5153k7869k2905r763N056J5226J9541
65924a19473J9231J5085Q846L715J704L474J0541K2157K9485K0811k898k3848k4840p072J4272K7211K9032K0468M589
65905E2490r404j2256p300p782j7327k2169j0100J0228J9140J1089j219p151j0467j7708k5127k5092j8300j0445j176
65886a10076J3368K8648L3161K3940J1702O793P783Q445Q083P482J110j6023l5728m1305k6945n316O862N357j724
65867g4383n083j977L157K726o227j6536j7343q074k69j390l002P191K5237L3116K2180N142l91O552J2891J2006
65847d477J1347J7124K0588Q535j5584l1188k3978k179J5246J9931J6777J1222M261k107n369r003j7955k6190k0488
65828c3487o72J6067J7344J0148M717k861j8305l0569k4254n220N578K320o69M216N947l502j3422j1324k303O62l503
65807h3092n342J78R137J4087P663j2061l3733l8857k3344m238K930L028P904J5955J9544K2503L2065L9516K8873
65788B716L036j7641k3732k5049k7687k1982j666K0774K9076K3123J4277Q927N605K068k684r181j5103j7057j7986
65769g0166k5416l7610l9652k0830R180K8517K5172P440m134N854L2202M9539L6467J627k3642k1762o730n77n578
65750f0099r819q087l021O417K1944L5044L3330J6810l309j9942l2225l4594j9143P832K5215K0764P076N925K1161
65731A1279L4839K9625R020q008j0125n101n006p168o40J1459J2401j352j1123m476L508n926k2965k2616k815J4658
65711A9468J8770J9348K0201Q968j5573l0115j8473N77k047k3396l2480j3502J4488K4847J5360N543R796K1968K5795
65692F9543J5163p80j3066k6547m9470p2529p1954l8840N492L1826L2823K2053J1593L486n04M832J9022L2580L6838
65673A1561L1353J9419K576j6759l1882l6222k9841j8288n524Q754K3785L3076K9703J6502N280K276m63j2459k7890
65654D957l1304j9385n339J049N975J7806L1192L4712K7854J9987J5885J1500K560j0052k2412k9228k5698j3735m157
65635A2167o425j7801k7470k8230j8737N59K4854M1418L8945K0839K031o839n364L222J4502J9894J2591j844j0865
65616F7447j2406j6165k5020k7990j8124n646l317p250l730R877K2464K5401K1289J6505J3514J1757R854N872L53
65597H4685j680K453N808o17j3239j8894j4474j2169j9102k3687j3611K023M719m058n013O180R849m576j6806n191
65577c7400J6719J7162o722k5023j9575o173l455l932O603J8895J2405j0733k5876j8294K206J9702K8979L1129K6673
65558B3290J9199J5570J6705J5066N626o884j4439j3227k483J6555L6031M1845K5072p864l8789n1330m2668k5010
65540A2265j3970j2262q083O300K0243J7807M58j4763j7546j1779j770J3190K7046K5954P488j1677j6940j3732j3965
65521e736j5238p571N891J0864L555l134K343J5718K3878J9494N237j1521k3945k7110j7990K581K6007L7441K8055
65502F8819O570q574j0711j0918j8364k3934j2365J4534L6707L7273J8758j689q876k314M766R96q237p281O832J7448
65482I9440R858r635k4717l0178l0795k6983j6545o668p976j5881j2954O164K4749K4777Q071r511j7518j8186j9093
65463g3581k4198l0187k9425j8457l285P428J2644J6878K0100J8309J3792J4582K0752K0853P722r310j5167q551m444
65444f3545j6985m2042n7673m4501q059K3102K7021J1877K082O029J0736P031L526J0601K4639L6013M1065L7985
65426H902K2451j762j7757j3723P62Q922J0393J6303K5292K1894N95k3279l2423k6692j7440j1073n905n46K116m46
65406c3416n437n855K778J5977K2312J4044n309k5370l7582l7253k2726O80J9583K4006J9225J8242K3182K3517J4211
65387B4809M625L650M783m290k1367k9073j5823R372K6154K3421P519p889j5864j8686k0062j9690j5861q418L527
65368f9163K1851M2111M9686L1861n094l7419m5535l0644r230L486K624o958j4768j1595K132J6185K1728K0164J7018
65349a560J1064l389k4134l8738l7306k2872o513L384M474j275o895k212J5524L3267L2989J3747m238k399J4914
65330b2168K8152K6645J6561P578K316M85L689J0741J5010J1935M290m864j8390l7102n0050m2509j4175J7085L1171
65311a3600K2050l64j9578k4380j6763q676q059j0058n996L007Q871J0261J3120J7440J4841L292n972l167O115R383
65291h233M236j275j654P24J903J209J54J106N699J0345O363r391k6320l0024j9536o905M77P677J8900K5340J4671
65270d534j0950l3842l7996k3061k193R575M924j1762k6713k6326q957J2933K5275K6917K8169L4284L5980K1801l176
65251A0348j9225j4251K817J4897J6629J4921J4744J4197J2474J2424J2515N661q473j7835j2898j749o0q176r990
65232C8970K660J5527R822j2144k9053k6351j0700K076M614n17r617k0350k8009k6904j7177o344k242o033j1809
65213a33581j1038J264K0846L5005L3631K0628J0065R696J3065J0639L246j172r12l065j1821k0130j7028k012J1315
65194c1359Q310r223k1179r529J9134L7431K7043p17j9741j9244j0437n875m050K468J3271K1295K2526J8177J0355
65175D8656J457l447J114J4761K8547K8893O849l1566o3980o7730m1577p057J4966K2919K5839K5353J7193N028j451
65156B4767k777j0846k9475m4717m1512k2201j539J0361J2777Q133N30k203N422J8199K5004K2345J6769J3537J0013
65137A2587K452o626j1084p409L234J4721J6834L326j7537k7367j8625n261m814j5082j9816j4946j4143k3702k6646
65118a59904m691L1745N1360L9427J3692n26J631Q773J4082J9104K2126J6838L427r918j8599k5036k7895j9228J092
65099d2500J7674J6488L800k113M942J3808J4039Q691O592J0191J5054J6333J2921R027J1989K3015K9937J7314j3541
65080A73661m2060n0084l9037k1579m862R809J8052J5081N792J914P417J3505R657n394k3862l5123l1725j4823N564
65061h097J9504K5842K7976K4101R702j0938k5388k7750k4337k1232j5250l696M629j560j8495k7991j7384O502K5338
65042e8524K8321K1261J7538K1496K3357J2860n085j4930j0782m020o932j6037j8268q751M845J2509R434l961k1709
65023a7378l2420k7439j0861L183M868k452p412j995J1242K0899J8022P796N362J6382K8667K9577K3479K0902J8034
65004A08456L661j6941k5208j8851j7644l1333m1381k8904m807O623L501M631J6520K3322J1892r978k5654k7694
64986f9789j8964n704N268R498Q614O539K636m416q683l567M872M172m327n817M733J5248J7358J7682J9927J3839
64966I119m549j8446j4733q973k2594m3890l9339l284L0671L4431J8079P089P345Q138M583m06o901j4352j3784J010
64946g0786J8972K3268J4458P791Q939P847j971j3207j8417k0223k1039j4640K338J9628K4817J9636J4136R536p26
64927A0357j4228j7327l826J3950J9451J1349K324K293R503J6665J9619J8779J6214J3245R379L195m143p452k978
64908A16369M943P216J515l945j386N840Q506M671N38j631q568k4709m1271m2805k3911M543K5324K8595J7465L510
64888H0809l928o532j3861k8541l7990k7410m9K3814L0333K6585K6707L1138K8281J3206n127j5578j6190j2410j0492
64869H2765j4513k4026l2209l1886k5481k2828k5941k3529o616J6434K8429K3016Q523l953p615J194J9719L4431
64851d086L1632J5028K627K894M781l669j7998k6612k7212k3660j4726J308J6167J9206J3267J0275J2198R524m84
64832B0460p643m696K820Q048J3190K1478K7613K4351J2590j114j1088j1961l24J5905J8854J553j9448k3519j1897
64813G5172j648J043N040J2688J2500p01j4280j6651j5446k3278l3539k7156k634J6852J2435n626j1769K466K0390
64794E858K2914Q816r916k3169k6484j7082L377K3325K8275J5798k121j2676j2346l695R119J8911J8912J2829J3390
64775G4035K4282L1719K2652M192o188m736k949o962r282l845J805m398k3205m1324m2763k3549J842J2745O142J979
64755A2192J5313L0770K1321j0419l0869k0147K303P811l402j0470n607K76L87J256P502J2107O734o691j8435k0135
64735h203j1239n71M26q590j3383k684J4439J8624O058o624m517Q831J9872K1113J4082L804l973m945o77K224N17
64714D4584k215l368p446j8756l1106l1562j5485O390J8162J4459L798k994m133m182l710R84P440N741o722j7218
64694d7339j3291m66O657O871J1818K3554K8216J7297J602l850J948J1734K3364L5882M0518L0037J2843L519J044
64675A91958q758k7687l7569k4804k72J4637J3682P466N321O222N504N41j0530k7018m0668l9793k2057J490J7762
64656B5427K3047K1485J7924J5696J6175J5416N495j4851l4083l9257l1412k2210j6568q135O473J9051K1476J8406
64638C9555K0014K5691K3697P171j5622k9049k5180j0604K14j254r421j1923n413N62k145q466q716l794k326m859
64618b1868k219Q019J4095N651j0364j7849j1823j940L563Q025J6708K4268K0118M601q693r449k813J95j410n35L405
64597A9685K928l823r001q800j0653j9999k9045k7705j8383j0712q066r145j5554k5309k5066m649K3457L5369K6416
64578a18055J4774J3758J7725J8862J9623K0940J4773q20j2986j1456k946K208N244R287P685l014j0026j532J2111
64559c845J2921L872K697J1874J6792J3132J3015J9672J7599k341k5112l0230j6457J898J3280J5169J1576J1695
64541H7207K1445L0006J7247j6292m0799l2781p799Q84j1040j6032J399K0969J6657o434k1154j6105p733j3941k8972
64522b3268l1911j3918J1661K6019K4609J6900J1588Q236K392o872j5802j8324r386R089K4577K2539K191k0503k8953
64503i136k1242o781O455J6016K0975K1313J9720J8111J3449K629r430j3222p197j309n101j5809k1481j4779j494
64484h313N460J38r700j1887m281M515Q528J1141J5385J5573O214o177r697k744O511J4339K3554L0311K2295k570
64464A08595k5130k3653m8K1426K1091K296j7378k6418k7000k6378k6608k4563j9087j3926j2709j4041j3871j0130
64446a27532k363J0144K5309L5853L5851K8619K1961J6741P902l241p773l576j398r905k2190k4816j4712R13J6377
64427a7836K9781L6589L1552J7272K426r143j9686k7356k4606j0963L62m262k2185l6190l1544q292K1160M2880N0304
64408B0263M5661L4455J9492R54j8975l4666m1022l7377k7104j4840l934M954J2775J8758J9682J4364P111L966O460
64389C0977J1091J3080R103L4o279q27J2359J4091q304m1357n8582n1027l2193j4308M008K3205L3472K9275J9762
64370a2420J3891P363l840r159R33J4364J2040j771m542Q379J4050m655l3582m6750l8734k4609j5787j0164l954n68
64350a39515m201j1606j4652q843L161J5541K4837L0711L3149L2023K9311K7160K2386R072r895k1209j7923j0473
64332a0966j0781j2056Q27K3922L4743K2715J935j2478k3947l8739m4929k4016K1454O5662Q3847P0720L8713P490
64314A94116p593o303l012j0082k4282l4112l4319k6020r964R366J9084J1308j486R81J8970L1221K2788N09k1936
64295A29234l9516m9959m6684k8482p174M760P806Q312N373m722j6899k1943j9456j5170q326N378J9291J9504P431
64276e1242M368K3688M8479M9946K3235q239k3362k4687k5537k8431k6225j7428q040L18J2722K8647L6691K7631P674
64257E0208p063o593O211K1086K7459J9329p5j8535k5082k0784j5855j6256j7507j2402j060Q301P055n255j8448
64238b5266j9911q247L492K402r097j8475k0721k1552k2885j6177M131K8849M3238M3111L4474K1666M945j1615j9430
64219g068j5305n680J671M968M299l672j9881l3979k9946m604K3906L1953J4516j0302k1149j3588J116J2266J9155
64200e1324K5526L0620K8536J5052o033k3151k5347j3046O53K700o291j4172j1808r57J1668K1618K5821K0660N964
64181C6689j1938k5319l1531l1607k5320j1913N499K0519K8495K8526K1209Q001o375j3774p981Q616K4207K6347
64163D2350J4509K640M610J6735K0325M043k1672l6929l4323k2477j1339k453O163J3689J8670K2328K5577K5442
64145H7888J8325O198k938j612R612K0843K0630P297q714j6164j4773j1703r182l508L167Q9j6897l4386l4751j7614
64125A807N96P779P885R642J2354R041j200j1034j4087j1085o225j587K823N728M351j466o349l427P388J7469J8813
64104D9216J3486R453Q276L595o786j4961j3804p789o103r464j1804j2389j6421k2991k1720o057J5740K7410K0009
64085c104j193k1793k8854k0519p027M2m79j697l70P56J623O160J2463J1737K691k277O630K1141K5153J5490K713
64064A9286n559j1828j9717k6845k8092k0159l221J6008K4325J3168r381k4734k3723j4627r902j0970r529R0J3552
64045a31858K0605J5552M119j836K121P798N872j227l446K056O414l3j5692k6432j6241J6086M9232N6390L5068J1223
64025C5771O501J2274Q248m427q123r00k55j2772k2113j5105j079N281M625L927J01j2204k4726k2787n615J2182
64005d1196J8487J4942J1179J3754K0299K2214J4980N428K729L422l833j6893j7604K190K4821K7873J1652n607j2307
63986I6530j1205q017m829l101m186p369j1975j7514j8497p360J1635K1326J2845j658p109n620o210n574L905J4561
63966D0578J1559j974o348O877K4359L0589K4379J2848J291o881r056n490K760J5842K8415K7194O687j7785k6519
63947A59325k0166j2958o933O509K1480J8371m841k3987k0638m745L693j519j6725l8014n4129m6814j4624J6692
63929d0023K4021J6185J6531K6742K8133J2959o389j8444k3993k4261j4730L736K0592K8301K9671K7792J8737N91
63911A26151j8305k7741k6815j9845o434J4995L5454L8233J8030r592k4707k4714k1382j8842p291J6976L7539L5197
63893A16907J2776j0071k3313l3821m6061n0554l7783j3543P014J5072J3519J1362J5301K2381K1188O538r813j3183
63875C916p815r792j8761j6176L269J9414J6617O549N761Q450J538p999n168L275k326j9672k4931r734P035J0112
63855c6438P779J1477J5517J0159l82o375p426o277J601J8534L2580K9142J0493q101j8170k2485k3035j7577q506
63836a7490l563m540m146K117P853M458o406j3571q554N144J4588R632n851j6421j1507K239R073L215n782o768P62
63815d5518J0713K0161K8952L2909K4734L301k1723l7179l7991l1033k7355l0245l2235k5914j5459j1529j4325j0070
63797b19806J0650L8173N5220N7574N3459M6573L2887J4176N16m870j0581k0508k4308j3570K810J0751J0820J3429
63779E3395J9650J9940R739n825k1774l6339m3940l6509j5157P181J7469J2644j115j3557j6698j1685o850m515L226
63760g0720J8122K5301J2696p531j4543r448r604j6056j1507P097J9649J4516N642O585R011J309j0220j5068j6932
63741f1701k0874j6612N658L2900M1764K7394M435j3931k3858k5184k1986k1835k2742j1052J4593L0953K0351J80q94
63722f2441J3859J6841J522r862n675k648j4823k8824k4179j778K1454L5031M0322M0861L6830K6554R793q388j9192
63703F5257k0513k0895k5330k4813j1962J948L125J022J5017L8442M1874J5755j5258k7787k5907k1699j3047L720
63685b1051J7599J7219Q917N292O316N177K908L821M721N72o165j0975j3492j0745L636K3854K9242J0237j4986k4071
63665C8026j9035j5371j4243n923O451Q424j794j0313r860q146j0885j1483k701J2543K6704L4885L3016J7555p853
63646E9997l0571l8375k9362j2474K09L819N503J5215K9890L3872J9620l37r581p736m428j168P314J8145K1274J5236
63626I6062R533R585R333J064j4931l1659m0430l5863k2501j4230j9343k8573k6300j0779O264J6968K2502K2890
63608e0408J5203L613j338K715O272K178n767j1379j3611j1911l626Q959J7172J6561J2270J0146R841J0124J2476
63589B9490J4568Q708o626k0894k3821j7281q610N48J0220J3866N731o793j0034l177M89o387j4512j2404k534M938
63569d4515Q319J3821K0955J9809O168r710j5452j1247n121Q91R954J8813J8600Q415k635r652j7174k5331k2885l984
63549d1961J6871J8911O90j8639k1489p204J1739K0377J1004q823j9858j0835P854J7669J4285O507j099r414j1743
63530b5158J889K4367L2783J7278n610j6407j5869j4803j3854p448P26J345n453j1508j4430j7549j7468m908J9531
63511g2546M1219M7475M0106K8027J4556k410k1995l7908m3021l3684j2342J0521K0057R042j2405k3375j2038J1903
63493d8818K6654J9747j381j8941k1973j3949o668q713j7919k3279j5343L995K3140L2546L2323K7984K3301K0192
63475C2898K0730K3959K3610J4913J936p498j2784j9764k9338l4495l1044k4782k3323k5033k1550j0207J157L851J63
63456a16601J228J1734K1311J6864J287r119p275m747j2150k0299j2620R338K5892K3617Q126p470j5394j2826m32
63437i9536J3610J6609L910j6418l3561m2113l9113k2449K526K2189K7118K1707J7447K0391K7950L2995K8206J1675
63419f857q128j7698j2552k176J837j381l501K357J4436K2841J7754J754q323L03J7718K1745P294p763r263m833p539
63398A8025j4673j4725o269K738Q715J3581J6069J2792N802Rm906j1834j8105j8268j3161q666o801m402J302J0983
63378c1794K3416L1896K6021M713j7437k5371k0069j1111N60J9568M0025M7629L7792J8515n051l4226o2399p2278
63360b9601n5529k4754J680J8235K8846L3772K9797J9008Q373J739k140m883o258n217J71J1845K7055L6026K8800
63341A16965O057j8299k7599j7619j431M335q26q80J3390K7855K1806k828k2198k1696j3260j6094l1391m5094m7798
63322g6605m0983k7748r110R492J7376R460n639j2786n812O252R850L088j755O584K4138L6703L6115K5850J2917K206
63302A9593j454M595J3710J3757L201m375J542J2511J1917k446j5795j5180l240P303O801m804j9470k6879k1306m774
63282b4793J5969L3620M1414L4647J4939r024k7529l4760k8188j0053P421P426j2235l1561k9954j1202M071O880O830
63263d6082J1358J4444J0538M949K541r81o691l798J3054K7435J8807q195k8730l0121k2658j7745j3414o532k101
63244h3922j099N859K0729K7010J1778j1360j9379j3552j5177k8559l0599n225L0012M4776L2287J1445J51N03P766
63225a6556K0032L4723M3684L7919J6888q193k1616j6977m796k342j4365k8915l4114l1253k6541j8687m191J1208
63207f4092J8082J7415J7708J9166J3116j203j0869m574J4460L3512L9970K5292q027l8973m1280j3576J5102K0561
63189E1790J2758J5040K5140J9482n944k4167j5031N957J1103j210r574l224O317O603N31l304l755m165n332q260
63169G0755j6458k8368l3733k5686j2094o125q774j0193o587m395n800j684J4289L2316L5940K1696K402p514m434
63150E553N167J1824R443m76r663j1068o101j289J047M462J0684J5070J2058K473o783r197m252J799P02j0057k3587
63129b191k9638k4627j3873l844M589J3489K1171K1605J1400l860j2066n154J2318K6798K8698J9745O691p684k2892
63110D0675l3779l3051k1596r680n783r349j6058k2855k3404o867K8647O4409P4208N1891J8026m275j2876k0180
63092E8103l0020l1661j7140N025J8855J8998J3585J0360O276o525k7732m5864m8422l3056q441J3771K6487K8803
63074d8598K3860J6247R392M028K51O21P479J5841J4554n84j9129k8022k7334k4846j8724J06K6666L9405K7146M944
63054B3303p461j0240j3006j3060l852L834o298k5268k5098K55K3975K4483J2284P151R186Q569P012J0397J2243L593
63034D2002r069j3559j2580j7283k6024k6664j6140j948J1570K2724K3506R199o373m446J0808J6842N329q917j3120
63015a4143j0629n854N213K1684L1581K7348J4717Q84j2644k1562j9339j1065r809j3746o245J3850K3702J0245q498
62996A5690j1603n556p732j6711k0172j8202j6463q501J1408K8283K5201J4147K0119L8892M0840J8196j855J080
62978A07061J3447J4511O571K589K405j504q182j4170k4280m0814n1432m3955k7046k0207k6064k7044r487K0300
62960a27301M4880N1291L7344J1068j3767k6692k6927j9023n911R227J9048J8606J4018J6019K5165L1507K9551K4569
62942A12672K1435J6082L674j1404k0946k4252k6343k6930j9880n455M620l30j5980k7141k4507j2360J2Q882J5641
62923c2510K0693K2636K1850K0058J6223P427m423j0798n655N155Q557l21j1508j2532m310R76k925q745q216m582
62903A7050n898j1250j3011j0022p765n612L779J8717K4681J4534K299N318J9356K4718J4001j82n916o850j1670
62884F6277j9967k6348l0574l4384l3119k0743k176Q995P732M615J0491J9623J6438k004j9181j8274k046J2264J3599
62865d8782N710k035l770L070J7595L1420L1935J4811j0766l2106m3184m3228l3482k0333j3228j2284n472J3244
62847a50885L0561L0468J8142J2187J5434J1043q442k4841j7220R834L2365L4771K0256j405k2880l5499k9646o394
62829h2151J7905K6432J9066Q748L229j411q773j3698j1712q985j3275j9085j3073O227K4889L1225K6535J6053J651
62810I797j0941j0169N711J9907J5715j740j2890q306M554J5076J8714J4699N361k664n298q017j7723k9671l1597
62791b9482j9736k171J2271J9861J9019J1184L539J738J437m412j3298j8336k1318k7279k9578j6533P430K3918K5543
62772e6203K2072J8694O977j4592k8467j9426K883J4894O423j1292j9158o598J9000L5938K9282R960J826Q752J0637
62753C1602l551j7906j5429l986j105p140j1182j2969j9308k4767j5376R062L1473L7163K6102O849j1017j9203j5631
62734c6319p863n047p755j0252q314J41J4658K5622J7664r708l3483l1805j0578P163J1158Q767O779N772Q775J7590
62714c7035K2034J0485q615j3503P02J5910J8474J4604J2165N378j0561k3475j7689L120J9190J8316P097n60L91K888
62694C9316k112j3941k2528k0821j2500m292K934Q977P754k958j0804k100J6249K3155J2247n71r68P018J2921J4642
62674E1618J4613J2807J0656J1997J4238Q913l595j1465j0189j0806j9766k3345o128K3560M1833L8398K3724R710
62656A76773k756j5648k5799l0648l4459m2182m9417m4097k0625R261K4751J8344N485N500J6828K1561J2619K072n79
62637B6984l114j4500k6719k5708j2760j689J651M593J3213K2901K4657J4461l504j8370j9726q589J957K727O92P324
62617a3519J9271K2019J2000K549M041R103N599l021j723J2497K2261J1119j3500k8265k3006j0597n403m525R01P524
62597B5325P500O393J4710K4764J7557m809j5883k536J4729J2633j562n012N609J3166O040j2612l5088n1868m9757
62578c0701k5016M759J8028J5397J2523J1876K131j5312k1804q860R102J7262J8860K1872K2153J1997m505j6273
62560D3489j9410j8268j7351j8082j8670j3357K077K1168L0973K7966K0738J4483M954p621j2952p711m415j1274
62542A6737j6071o178O102o44k0562k3512J901K9646L0771J0217n389n698m662j3866k5377k6105j7025r273p518n991
62522i2497J283J3944K8267L9836M3214L6015K4882K0109K1633J7879K955j2809j6582j1131j0864k3576m3281n7141
62504a7864n2828k5721J1129L0218J6008j4987l3182l0943k3230j7323l775J8900L2900K5091N559r217j6517j8622
62486a24404r440J3569L5418L9467L0301K4591K5216K0905P444p564j9326k9585l6016l2401k0562r624k314O562
62468h7763J7799K5410K6648K3291J4080j150j1034k239J8416K7247J3897o104j4299j0864o332n354p382j2119j5575
62449a3427j0865n24L059k422j479J5989L5743L7140K0747L857l846n249k993K144L963k351q574l875N084J039j6479
62428E6681k7583j9331j589Q944O823m888k0734k8933j5358J7119M2861L8642R271k0271l2778l0909k6764k7900
62410g6697l1233k5953o124J7319K5099J4107L082P276J9259K5078K7029L4518M1898L5125J6438J980m857j6649
62392A06695l4604l8952j7230J3708K7045J6951q65j0737q616L26M903n074k5265l6342k6628q761k932r819j3211
62373f9408n311N109R119Q573Q695J0782J4586J9040J9437J2480L945J676K000m859j6053j7512o562K789K850M060
62353E436J4317K2360J5796L073R39Q898J3407J0996Q574M547j0407l2279m2028l0116q176Q508J6416J7086J0121L56
62333C7824j959K732L44j3040j8630j995J8869J3165j9425m5937m2215j9137j416L185L408N463P802R786J4257K1773
62313b5146K9400L5380L9942M1120L3854J5623p770k4043k5159j7786j8849l5496n2828m9744k5873k736L680M19K679
62294h3333J2167J9067J7716J0585K805K246J8202M6906O3518M5191K485k8433k8967j7825k0205l2581l2400j3590
62276a6446M994O174m136o971N377K0724K1608O235p678l404J2511J7322L524q734P3J8884K0143q44j9279j6015j714
62255E2348K500n469j1129o645K103P967R698P406J627k040K676J1039Q921r287l1664m3262m3114l9463l3558j9230
62235a38576J808J5783J3393K770j674J002j318j4077k5454j9376N462L3603M7714M3044K9067J8827J5722J0820m402
62216C4138k4260l3979k9060k0975j9196j6868l801J2946J5133q43j7137j6865k541J3050K4702L4875M2009L9058
62198C0386K3605L161j1162j3930q784m289n173p047k603O655J0298L348n573o382k950p546k1339l0305k3907r924
62178h3461m035q867j2149n654L607O603Q538J9862L3733K9008K198j9176r808J7308K7850J4167K774J1274K3202
62159E6974J7995M030J792R137P429m797q540M925K0814K2717J1192m540j8404k4478j6075K887J5160P968j2353
62140I3833k9280l3171k4916j0711J91l78j0255j6786j1708j180L844N20q278k0707l1299k7077j634K9310L9628
62121f0054K2233k915j3011n845N133J0458J1053R206L289o071j1614p322J615L153o408j7636k0884j7554j3283o475
62101a22932O937K1088K4347J6161Q734R632J3181J2295P694O68j1767k6937l2827k4429j4448j5838k0980j1830
62083a61251J3624L8867N0873N1214M5016L1993J2423p705k2395l0728l3630l0250j9336j172K0461L5130K9963M723
62065B7820k1647k9435k0305j0662o683k14J1252J7180J1432K677L98K348L320N003Q168N714n440j3512n014J5697
62045a903L0592K8810J4371l604j8999k8300l0512k7895k1786r917P152K1196K5205K3581K4639K5588J5804m407
62027F9615j9340j7111o069n677k3945m8187n6973l9294l663K9227M3197L7778K5010J7270J7901K0368J4923j136
62009E3894j7905k1035q162O293O553p084k0427k2414j4910o820l439k530J433R394J4142P734o718j5739j1130L36
61989e8534P188P804Q640J2713J7376K0343K0053J2473l793k0115k3865j3001J691R421Q725M325Q56M38J645R14j552
61968A3745l90N355O691k450j1870p596M652M452j2231k3492j1478J1644K0487J0777K344R516K1602J7898m683k6474
61948B8499k8907j8439j9007l9219n6798m4737o110K9786M2216L5057J9696P81j5892j9230p525N353Q501P399R144
61929f9432P599l239j2712p093Q046J6225J5410J6985K2009J7583m47j7495j8765o132Q385J5818J2026m203k7394
61910b6826m4117m1200j5717K1590N0536N4265L4747J2316K989J319n222j2266m731J5684K7825J9685L462m561m954
61891H4824p063j1768j3279j0590p578o774j0329k1580l8097m7613l8807j4321J1790K7448L0270K5222J8355J1794
61873a8096M391j523J141J2578J9079R527n168n203O835P960q228j9119q322Q010O627q916j9876k3480k9104l2757
61853a03644k0801L713K1172K2495J7074J3619J1798J3102K0146K3192P938j8904l2174k3127j1182j1610j2447J804
61835g7836K1387K5733J5180Q569J5032K5589L0082K7072J7426J523j5500k5613k6396k0882j0596L042J2307Q601
61817C4720m747j4112j2161n272k031k190j778l125j2385k7985l7706l0675j0488P669J4041J4230J8790K7830L3429
61798a3946L4046L5050L4344K1101n335k7561l1041k3369k1174k5674k4714j4031j734O876J4841K2939K5949K1754
61780B8321J3576J699j5866l2601l6065k5601j5266j2787p464J1347L3476L8060K0161l467j3725o423Q229J5905Q434
61761I943r445k2352j7336L986K7127L6697K6301K075j9593k3100q991M017j547k1668l5468k9265j0968j09p067
61742i6763k2517k5777n430K6576M4534L5308J0971p980j5478j8989k1973j8753o189J0035K3111L1112L3106K6695
61724A599J2812k364j3154j8094j7131j0770k905J415K495M792Q855J1423J3475J8998K4483K0745Q598N51Q87k610
61704F4100j7224k8451j9424J821J1866M053o156o448q89L337N573L854o565k0022j9831J29K4082L3352K7134J6339
61684G0630P086k1l652n658j3258k6332l0545j5679O614J7141J4798J2392J2630P078l483q247p321j2586k2760j9389
61664b0562K287J8815J0108j1115j9068j0672j423M082J3730K4382K1355L949r746r353m887n616m469N184J2764N895
61644B5640p740r782L316J8296K4728K2987J4922P88j3344j7679j1442l806N01O256J4526J5474K093j6526k4622
61625D4586j8036n160O532J5751K0309J4369l359k3494l2056k2236j48J9724K6253K1685J8960K6137L5253L1417
61607A76487J2061q794j6897j3204r966j5201k4512k6800j6117J038J0319M385o996o783Q051K1049J5597o024k7726
61588F9967l8054l6357k5479q466Q021J6572J7623J8475K2053K3697K0770J7467J6006J0235n775k7045m1106l9516
61570A9088k3313j624J2279J0271K31Q53J7866L1604J8902j6004m4153m4918k5004l644Q440J0376L227r458j8901
61551e3882j8063r803l034k844p918j3446j2177K321K6403M3957M1488K4397J0326O662L642p800k0417j9676l656
61532a3520J3661J8258R445l251j1452j3283j0560n155J303O999J0840J2840J2851J0286O189M012O480J2610J9034
61513H7587K2159J7159r69k9342n2163n2123k9234k194J1886J3028J0717Q659M509n74j721J324L612L163L249N395
61493B4127N554o95j2207k1771j9363N93K8925M1724K1061k1706n1972m5958j2846K0232L6976L9178L3334K2562
61475H7748J1139N447N375J378j3391l0835l4540j9538l12M483p901k4256l3041l3995k8950j3729J2295L5756M1054
61456c5813L0830K1892J9372Q896j8863m7786n2026k6308R664L3629L8404K9979J8636J3188J5945K0449J8208Q067
61438A06363m626j6239k6024l0294k3681q523L491L240n782j2285r377K25Q626R876M309j761q08R726K4482L2505
61418F3443K4646K909j7298j9919o267M960j59j4405k1439j7980j3992j3948j0343K280J7018K2732J6121K874p687
61399A3546p584L415J4034J0681o850k4671l1365k8306k1849j4479q136p184j1138j1372k434Q903J3199J2010J4317
61380h5263K3380L4946M5208N2151N0972L7155J4982l852j2105j3218j4664j8301j8387q224J0429K4482J9985k495
61362A37181k6764l7224l1632j6518J618J5207J4724q65j7324j9053q199j567r599k5827l5941l0701j1566R828K0085
61343g4137J8352J8652L0106L9867K7677m740l2167l5474k1229q817q418j5720j9210q301J7704M3585M7454K1512
61325C6696j9254n0289n5796l6133n621J6580K1735J9569K4509L5291L7915K7572J4590P209K336k763l909j216k920
61306F6101j0421j3119p259n802j7434k8838k3349p191K44m425o913J73Q463J0224Q656Q518Q296N840L618M697Q451
61285H530J1257Q013m414k0494k7296j8997n279K056M660J0353J6772J5243O614o60n592j3531k1129j7833l973O986
61265d8714P269L338L000O410J2292J9968K2344J1220o050j0446J985J2803R364M423J4243L0309L0228R820j2171
61246A21635j9293j3620o585m285l731K267J6481L0142K8703R548j2149k2601k7729m1531o0523o3597l9006r36K5109
61227h1701K7015J2867j897r851j4572j9739j8711j729K5150L8830K5709J949n134Q090J9723J5222N601O165J1358
61208D4345M434j4226k3525q744J7852K9659J5081j1336k6698k4009j5685j5018j9751j7341l436J1098J3261L275
61190d0764p446j1482j2841j7919k4247k2690q280J5565M1129N8517N6191L0638j487j2899L700K3540J9781j685
61172H7321j2422k153R401L695j2101k0377j8249j5075j4088r591J311J4053K1894J9685N492j5680l2696l7598l1790
61153e8968k1162j0524m282m130k827R801K9612L8037K6248P600l039r085j8443k2942j0662R136J4400J755r003k735
61133d1213J4456K7676K7738J2330j2339k9138k3385j699J4679J6143J0737M384o818k0916k5260j5235k571K993N584
61114d1854Q883O448k648m512Q512K0690J3789m461j0586J862J7061K1260J6191Q714J791k148n52L786N151L702L792
61093G4871L912k214j3375j8890j1959J741J1485J2145N837j800n203l388k482r888k4791l7740m0121l0941j4935
61074a07736J913J4582K0718K1548J9502J5361R476L981J103P35J844L728L486l565j6187k3651j6499N78J2694J1104
61054b5285Q32o927m484R044K7206L7889L1627J1009j0981k2824k2051j2528m06O211J37j7111l2561l1285j0166
61035g2654J8044L4220K7348K427k3642l4191k3470N37K1717K7248J8333R339J2155K1917K3538J1475m796j5965
61017E3580k3556l0899l3267k5439j2007r91P307J5615J9263J2199L82l710qj582j3784k4441k0323m236J1121J9323
60997e5453K2742K3636K0972J5194R757O591L827j38k726m60L786N78j5121l4349m1268l1171j5789q046p447m628
60977a09513N415K0316L5200M3605L8253J9206j126q938m040J765j177j3370k8926l7946l0688q577J2139J6901R937
60958d1564N653P637Q049L844o52n011j1035j0897N189K7243L0343P812j7239k1848r651J595L874r24j1072k1862
60938e0516k3259j3508n717q749j1957k581J2099J6302J0852Q398R887N738k296j628P230P538o753j8566j1631O736
60918g2381J7630J5757J1467J3205J8386K0337J7187J3088J3193J7371J9189J3796N839M485J0484J4271Q578l028
60900A58854j3214k1344l2432m7795o0389n9867m2535j7147J238N780M013O688J4502K1364K6117L1686L4565K6414
60882C6498P906r149j6818j9021k0632j8532j0215k318j024L7J1340K9258L7113K5955N944o742q574r344j6984k6972
60862a2274k8058j5748K525J4887J4926M309r724j6735q330J2114K7591K3634O208m711m75O871M083m747o955p25
60842H666M817M964M363P157J1339J3954J4745J3330R224N809P470J0881O247q773k2487k2056q970L998Q505P017
60822H0200M429O1r002k0115k4413j4626O786K7662L5745K9721J9702J5076J3347M422j4364l2246l6537k6939j4445
60803D4464p608m783q17L966N837O031J0342J8441J9467M465j8536k9044j6297Q279K4738K6197K0959J6829J2338
60784A45268M118o021j5331k4319l1274k8905j4114K842P568j022r647o696P424K5349L9765M3318K9825J611k7839
60765A41920m3314m0114k6791j7422j9624k6329k1322J495K6483L1741J5377l027p616j829L598N038K058q135k1809
60746i622k4188o418J9320L3533L2584K6013J6973J461j4867j6766q38J6262J7485M198r820j5065j1489l407M593
60727E9942R174R137M139n610j5135j4657j648J0350N658j1885k2869j8562j0428j0478j5666j8032j7611j6147q489
60708h8817Q716K6806L4378L2139K9084K8118K4917J8066J0885M094n042j5814k2481k0736j2373l867k037q501j6260
60689B1275j5747o852j20k889r753j0625k366J1668K6480L4624K8755J2571J470L659Q018Q05j3073j7959j0490o50
60669E8801O025J2120J6536J5116J3213K1116L4101L3048J0430j8459l6169m1298l8812k6704l866J9214L0155K8731
60651A33298K1713J1138j983r746o244j85n614k1203l0465k3439q121J443L73o221j1251j1627r574q730p319J021
60631G264J5108K0765P036j5125k2449q896N754J527j7046k8717k1535l642Q343N325q406k0318k0873j1953l261J37
60611a10962K947J0595J9920K3089J7608Q041o4l822k388K854Q033J0167J0038R184N987j263q495q034K197J4605
60591A0237J8593J0664j444m440P798K5191K8765J0793j5675l2012l4558l2742l0686k2437o863M977M092k930k939
60572f5616N893J2999R896o07q398m824J0348K6422K9252J6456K393K177J3187J9099J0486o049j8530k1566j6564
60553A6454p290J328M221j097j3681k9286l8798l1806r319J0750J1388j360n631O271J8569J6327M986j902j438K639
60533d8675J1436K4927L2703K5468J1080M965P851P353m00o011m145o54K4L48q95r985k3747k8256j9684j2141j4730
60512d3168j5158n18J7702J7998J161j1632j0425o000n878j315J3068K3295J3270j1409k9615k9556j7119l605M280
60493i4624M029l017j0102r677r77J0511J9451K2155J5186J28j2118j0861l37L742n259j6053j4849j634J4599K9588
60473f0119M4136N4481N1989L4111J0177o187q902l934l163j2447k4791k7722j8168n980j141k992n138m370O62J2522
60453B3024K8119L4064J9956n427k1759k1035j3993j2122j3865j1936n098K070M799N4j1138k1265k2919j9414k0536
60434h8421k5997k3555p775J0478J9942K3714K9031L2233K5985J4638Q958Q921M432p769j9236k2184j6772n236J1299
60415b7314K7732L5359L1279K1462J1734J366j1281k2105k5165k0988j6677j7149j8437j2181K532J5187J5740P716
60397a190K304J458j910n914L013K6952M4447L4655M148k3614l6521l6789k5281l154J5628J5576M075L556J6804
60378C8243K1856P664p508n229N182M241o950j2343q078m823o634m752O139J8314K1221J3712L230k962m278n882
60358G0363j0367j1422j393J4962K3209J8422J1415J0670R090k472j8001k3953j7909q851l500k353m987r492j0514
60339C2917p141q251k0046l3212l3925k3611j4881j0459n65J8292L5693M1832L8709L3196K8093K3205J7614Q954k333
60320A24081p873R2J4735K0232J3361P511J1135J4292L898j7499l6350m3778l8729k2896j701J4842K1087K2055K3783
60301A22278K2335J1350l559r206l335J452n286j8834k6698k2996j1747m11O090P802R305J4291J8105R188j7373
60282A02751m9174o4610n3397k6582n170j092r951j8552j6115m02K1914L9538M4254L6581K3397J0529n24r476j4624
60263I295j4280q234K429J3762J7578P321j2241k6264k5000j4622q820j2306j7173j4161k993Q857J4916J5713J5912
60244e0311J6570J4276J0827J7127L7760N5417M5911J0907k0530k9631k9729l8187m4616k8817J257J6527R132Q88
60226e222N550Q311o257k7679l6554l1675k3053j0475J1574L4655M1580L0076J5618R538P250M52j0464j9901k3903
60207c0579j9443m611J5613K9168K7581J4278j06p798p665k948J594K813K398N090J1233J3317L914j3618k6558k6342
60187a2669j7146q506l006L510J1293J4101R699N812R644J6163J4238K421q762j0071k504P198J3480J3155N758m619
60167E9189j1646j2403q301k057J704l993k0092l4181l1698j4865J20O076J1796K2214K7115J9633J1998J7763K8057
60148F6429K3666O052l122N905J8248J9686J7294K2622K6838J0262k6486n7262o0482m2858k5963j7824r071O154
60130a9912J9208K0870J5101J0308M646q403k3509k5731j0566R602K2041K6514K7441K3766J3580J086q276j4076
60112H3690j7330j7915k0471l3047n1589n5668l1817N728L0514L4800L1345K8574K0680L389j5851k7971l1014k5432
60094h9385j2256J07j77j0625j1974P204L2136L8872K3820M958l221l940o602j2135j5609j7121k2159l1222l4550
60075a63879k1166P326L4846M4523L3467J3471q94l319K061N343j268j5961k7067k3190m250J8630L2590L0690J4590
60056b3457m685j1655o71J4116J1504j0979l1302k7618k550K2923L4219L3274K6695J4885k937k0255k7363k2469
60038b8325j3202o997m659m109m582l927K416J3875K0813J6306Q563J1224K2485K6721J8983J3118J8524K3178J1982
60019A42387r438k4501l1022l9180m8511m6037k8583r988j620M52M055R422J4429J9414K0967J2142m482j4689j1310
60000d6093m981p832j5684j6786j0877q152j3078j9266j8499p637J1244L1268M3360M3357L4559K0953L353j4937
59982D272k6700l0020l0230k6907j0349J8856L8667L0511Q193L186K2885M2038L7455J3593j1543k8680l6062l0448
59964a1283j3410J435R85j0501j7269j2139j293Q670J6939K0534J1976p997k2965j6371O802K3009J7587J900k604
59945e995P755J6008Q551p976j7894j6716j2715j2134j1078k883J1515K2590K0564N492j0396j3458l470N943L905
59926a2392n548j1032p344L926K0421L6922M2539L1231J3172M527O525N607n412j8900k7474l4230m1594m1735k7701
59907f8492o262R439J4464J1366J424j3258k3359j9244l770J0257J5104J3597J1103J0259J3246K0692K7078K5032
59889D8676J5732P786M255p34r252j2477l176J1029J5129M896r128j4827j0432l745l369j0214j5131p218J2206K7000
59869D7006K2680L394j3648j9258k0281k5572l1899k8871j3987K702R175M820J965J2168L0409L7819K4585M647j124
59850D6730P639J2709N756j016K763R051P251K012J149j845j5185k7839k2403m582K815m837q120K353R929P52j2578
59829A2504j1996k321p76r457j5990j3645m351J1697L2647M6005L9599J9187R20j0048j8405k1262j1386L160L503
59810D9585j2210k4538k1861j5275j6276j7775r453L174R272J0331J2635J1830Q44j3849j9742j7443j6701j6520o360
59791a10332J2510K3989K0184J2863J4671K0834J9029Q618n62l255k338j87L243M232k444j2089r923J1125L7564
59772D7732M7334L2518M149k2855m0886m5958l4521j1196P605P812o222j7239j5727q085m698p315r902o422L754
59753h0122J3650J2240l948k3140k9141j9672n745O651K2013L9226M4011K7443K420j0397p240n00J711J859L52q616
59733a6945k3784l0459j6369R884K3828J0554j7105k8995r043K4808L7929J8100r903j4090P612K9373L1620K0002
59715D7017R604L511m991j5937j8700o039J2734J7634m34k6067l3126j3742J2487K1595J0476o635j8393k2690j8916
59696e0612p623L642O993O883J4252K7890L5015L1583K6552K1884N814k3926m5723l8190r207J3937J7230Q762l6o208
59676C8912q996o047R91O606R240J1433J2174Q035K160K524R164J2169N310o512j6418k3793k8821k6559j3596L402
59656h622J2175P096n962j5802j5710q617k336J753J1133K7854L7175K2425r631l2405l2261k3869k5730l4173l3329
59637a28836j9253P48K3588M7126N7150L9612P383o465R950L0072K4476p60j6407j0888o95k621j2558j6216r451q90
59617A5065N42m781r143o959j551j43j924K650J6106K4641J4313p285j8116j0636o93l070j0578o603J0168K4982
59597B6985K7157K0234J2425O290L25n458r040q934n777k830m062r471j3848j3168j0333j0596j3257j3110r441p918
59577d3827j2718k0845k4811j8002N23K1345K7310R642j7844k9838j7772J496Q851N053L185Q581J6710K4188K9371
59558b9402K5590P554j5077k3569j3234J53K160k052J201J2849K0467J5187P33j2535j5660n089J3641K6245K0898
59539C0060J228j6756k1779j6229p018N047K1509L6700L9856K7215O909r972j9576k4589k6618k3623j4575k870O692
59520h389J2322J4884J5132J4044J4550J8955K3818K1007O320j4554l0565l4737k8017j5767k789Q950J9464K7797
59502F2425K9939K1709M695j2747k2057k0708j1820j251L615k387j5042k1199j2206N570J9117K4296K5400K2420
59484I9769J0412o985j5627r053N05k301j5667k5056k3460j7096j2457q213k309J247k276j0386j4933j0053L439
59465f0500J9932L3201L8783L3434J5033j2900l6796m0523k3106m133l419j7242k3314r179J3491K4789J7655q89
59447c5683k0381l1396k6434o872J2759J6692N631l724J631J7191K8709K8022J7122J158j5675k7541k7054j2208R259
59428f8794K6150L3702L4132K9004J6785p94j5940k2411k1594j6527m646J6197L7293M3983L2157J2637k454j0850
59410A18030j5651j7430j5263j0382m658L92R49o201j4673j0529R525K8260K5252J232k2500k7150j2374Q024J8749
59391E3602J2937l077j4787j4243p409j842O459K3103L7195K9781K280j9934j9757j0237j3142k6743l0113j4719L818
59372f828P085m517j5368j2356M655K4758L4658K8679J2537m045j7076k6717k8509j5276R751L0421L4870K9005K5206
59353A10933K3025J2793l455r280K625J6901J5526K114o868q427j3530k2727k1198m367R754O045m858n316j74o044
59333I3472j7643j0654J8362L8979K5478r056l1662l0147j9279j4792j7839k2596k4725k0905j0203K291R782J1253
59315b9884Q962J870j0098j8569j4592l375K04p461j2994m280J5603L6417N1904N6679M2828J0675k2537l5895k5547
59296C9910n002J2624K3947K8338K2600P049r752j7966j6065j0401p133p011p045n341l902o460j3140j9072k0693
59277a4515k1315k5334k7214j3756J7802M9112N5912L4097N000o695L333J8279J8981J358k1598l2459k5509j1457
59259D022m272m378o33R767J2598m756l2165m5410l4347j1547P581K1118L2559L8384L3484K2078J2851O792p36q283
59239E4707q794j688M932O094N563O509L974p963k6151m0692m5097m0853l3610k7230k0355q491P747J7593R656j1572
59219a55721k5863j8753K726K1382L0461L4102L2455K0091O01j0559m739P585J1296N995J050k146q947j4431m038
59200g7453K3274M6392M6704L1551K1021J8791J1526n325j7849j3422L460K0867L3002L6568K5176o06k4295k7136
59182A52246r072J2646K3091J9591N783j2946k8021l1765k5093j4621l057R283J5012M191j8677l3647k7876j0990
59164B6078j619n338j2500j2425l153Q836J2881K016j8311l2979l3106k4399j5139l188J6092L4238L4608J3872j1239
59145b4775k2111j6655o288m90Q04K608P806J4991K0578K1512J6435O123n105r319m56J7750L1766K9605J2268o940
59125I0107j3941n608P367R804j879j3271p055J5078L2745L1164J6841M616j659p255j3120j5753j6767k0848k5105
59106F5461k1084q500K398M019j083p799j5533k4289l0354l0115k4237j5451m962Q027K5357M6069O0010N1473J9089
59087I8496j2117j3477J1523K9218J8304n167j4209p225k717p732j0601l083P078R156K975m842r267p452J566J3172
59067I3599J8509J3430K227r749k2001l4145m0419l4389j7558O78J1160J1442O109K448L665M366m459k2839l6656
59048e4582l0204m077K3604L4798K6811R151r095k3408k8767j9378L035K5377L2876K2237L153j1641j5661j0382j867
59029b8020M108O124O840Q138Q484O624M902N332M847q99j0239j6609j6433j1926p089m843o390q670n059N177J1111
59008d4490K571j3335j8614p556P706J6030J8420J6653O401q868j1143J0175L8200M5669K7694L651r915j3783j4944
58989E0522j6179j9220k5854l2000l0104k0066q800K473J9481M0233N0667M1474K0334Q04j2974k2946k6299j8089
58971f543j641J2464J7363J4947J1836J4876K7479M4315N1500L8686J1291j4165k6996l0044l0858l1409k9488k5335
58953D8278k1551j7640r891J711J0033P769l323j3383j4282n566Q668K3595L3163L1424J8660K808q556j4398j6059
58934F1460j2945p759r810k4123m0325m1868k5738n098P066R009N986M222R419K1751L0637K3958N024q679p176M93
58914d496J013n388q173j563R729J6435J3046L367j503M203J1369P228m866q842p64L781o870k2837k7414j8113l268
58893d3926J1907K4293K6626J4925k981j6191k2117k0870p977J5070L2099K9556J6677J2733J8593J7908M453r159
58875A01619j1664o822l651n598j2364k1650k6691k1657j0451j085O837J7502K4619J6892k026j4913j4272q861n197
58856E67l7M581j527j5787j7492L788K9256L4221J8230k172j9081l4481m3700l6440j3639J0613K4921K8939K6799
58837b441K1350J5120J0130O574N046O674P339k240k4345m7215n6555m9547l2742j2926L437R353M582j839k988p65
58817a43998M732K0515M4514N6421M1224J3079k351k696n647j5603j7813p835k314j1052j8424o384J8048L2608K8083
58798B5107J4061K218m469q205j0549j0036k603J2737K7557K9690J7705K571p606j5378k2250k0566o173R756J3307
58779D6874O721K608K816l219j8088k8010k1119m725M987N578R990K5063L8676L5112J7019J782k722o860j9802l3077
58759E9604l3339k3074j5667j4147r311J621Q883N663k954j0874j9039k6842k6652j4736R53J1103J5510J6769J2503
58740f4026K018p216q692n774l486O92Q500J1949M742m436l534L689M897P86K172P605L776r011j1941L231J8078
58719d5981J3830J42P73J8408L2049K7984J6253J1559J1298K386j6956l3063l4098k3443j3223j0187j2577j7271
58701g2117k2963k6522k3198j3105j784Q543K1861L7734M5416L7293K2650J6582J7963J1559p079k2800k2021j0500
58683b488j978J037M594Q500O309k156r032r390n991k489J042M817P760J0583J5119J9385J8112R359l641j7353k9218
58662B2881l3930k5866q322O285R980P769P997R782O719j463r232j4529j8880j9452j1284J242O059J072k20J1502
58642e1890K4925K2560N931o591n238J218K286m09p83J718O683J7033K9747L1103J2930j1809k2313j6376j1119j7568
58622A2038k7460k8684k2179j6753j5166j3205p862J93R945K0532K9843L5419L5279K6921J0029p963j4842o685O433
58603B5833J2366J0506Q590J0521J3926J6338J6190R858l867j6673j6777m498N176p49j8615l3155l3336k0716n643
58584b4725K180J735R02O451J4376J4770N856l785q385j1430j4674j0581N078K0690K1378J0505M742Q255P278n019
58564D5597j4168o305P090K821j9654l4227k1568O285K1450J1798j0206k4751k3396j3224q415j6148k6610k0264Q913
58545a34982M0275M5591K1852m383q954L071R884L855l183k649j834r153j9728k4462k3982k2375j4788M419K5144
58526a16382K9883J9128J1652J5463J6459M675o885n011j658j4436l2485k8927m364J1022M289O8J9863M5384M4620
58507A2358J8280m928j0663j0686j3711j0262N484J8436J0930j1757k6890k1597n522L293j108q231n315O676J3923
58488d1290O833q098j6368j0947M689K3876L9930M5263L5889J7205j53r680j1131p595n612j2178k4160k7509j6927
58469a7963q236j6723l0158k3461K044J7149O660r931r270M795J4773J6790J7460J6608J1049O283P153M389j1693
58450b282k9719k8034n096J8183K6382K4002K0764J7918J2988N662m764j7476k4108j6355j679J814r612j8630j1922
58431d1964O28J665q171j2827m156Q755J3502R215N002P321J1439O674q750k1001j4637P237K4424K3282J1099K795
58411B1532J383p37o465r930p251l170l961q262q414M81J4839K5462K4867J2193o628k1652k3644j0725Q317K1147
58391A9382K4111K3615K3923J9788N475j4992l2422m1414l8491j9606R085K4967R955k3035m0774k9388q403r58n841
58372i5023q102l627L65J722O952J9859L4807M1090L1436R634q959j1506l999m446j7030k5226j6630j608K816l795
58352e1270j0068j1103q826k998M018J505j4546k7727k0618k609K257p129o775J3710L3426L1022J3973L509M463N211
58332e0575q82p995p958J369J4322J8253K880k4635m1573l4695j6165n940o517o524j960J090J623N670J1856R448
58312a38908m291j6439j4936m350K218J120K45O129J5642K0462J5952N332l319n028l291n113j0629j2126n439L054
58292a53715N539M862J0277K2245K8940K0676K908q564l170J5538L4014L9564K9580J2867J121k205l192p840j5011
58273C4434k0531k3488k4806k3544j9278j4456r398O46J6632K8863K8819K4207K9249M0849L9741J8767n995j9738
58255A00973k8528m2043n1175m1167j8550m939o725r993n681o11P55O665K0575K8207J5707p837j9025q084J1324
58236f0152J8520N070k0655m1839m6157l4485j7574m011O003J5243K3076K6625K4332J6939Q681P056J5192K4529
58218c3607K3596J5113J3845K4137L1878K6179J6894J8262K4141J5667r203k9476k7429r648L067p66j4844k5324
58200F2482k4841j7831j4163j7722k2566k0891j1447K074J6328K7513K9949K2472J3812J4431K3403K9495K4740J1270
58182A48508m685j8745k7336k7134j9257j0876r288j4133j6435p351R598J7795N949j3520j5838K753J6658N540j6115
58163F088k0433o980j58r425j7099j0345j330l212n836O903K8494L8194L1105K0932J5141N866j0922k2609j4915Q339
58143C7798K7899K8259J0546j0623k0410j6153p964n429n650P13J3187J9676J2972M55q253j5238k6478l5389k7771
58124b7853m330J4687J4100L170J284J1758K1703K3372K0977J6396L727j5967k7573j9281J198J6527J8921J1566p49
58105H3633j1843j2401j102P227j790k0432k7877j8855p863m580k356M507Q727M262o96M254J5702K2693K2342J9839
58085H3391J7744J3617N563n725j7962k7288l1025l1741l2916l0647j8559r75J1031J8175L1564M8009M5787J6482
58067I4525j6518k6952j7939p608K032J8392L1871K4881L899n310L461Q977j196j1938q446l27l274j3930j8528j3921
58047D2151n618M990J7870K6578K4939J5043L02k0186m1306m7921l4191j6841j4260k0782j7926l908O807R089J1759
58028f3411J6502J2521k909j6329j8050j4918j4462j0558L184J7290J8303J0264R465J9604K5422J3361j0894k9016
58010c4631k8398j1834O412J2536N314k438J932J5163K1256J0869q473k3315k8314k4893j3503L698J6663J5815P320
57991e8821Q378K2478L0186J3688j7277l6199l2455j9334r558J407K0469L8356L8914K1629K878l766J600J3470K8782
57972F4825M2334M3377K5019n039k8708l3021k0364m719Q63n250j3618j4990j0393p449q267p590m844r962k9610
57953b7406n2350n7728m0135j4158N636J9573L1838L6037K4922Q835P549K1619K7546R469j7187k6159j5561o898
57935f4558j2017j8399j1221M485J2759Q623J078j201J538L704j70j2017k6291l0583j6296J0629L3892M2172L7244
57916c6629K7578J8431R674P6r080j4686j5226j2293p675m99R260J5584J0939k159j0564n934M485P762J105q642
57896a8493j6767k3453k6977k3225j2302J308J5099K8111L5244L1015J9872J3384J4605J4552P878J850K803K990q543
57877E8951k7163l5925k6466p412Q060J4633J3427O388l493j1244j3723j2372r798n841N93P785J2164J2177R008L905
57857f346k713q842j0000l336P252J2760P852k880r793r117o169o589p281K36J7873L5965M2775L7168K8076K1208
57837A38099J1834m895k1465k5256j7899j5702k5723l2887k1185J441J4110J3141J2757J6165P382j9769m3211l8582
57819e1645j2227P834P292l170p855k255R568K0105K0127P206o258m685R465J7156P518j0004k0926k1394j3736J696
57799d6188K1948L7307M0172L2647J9580J181k0591l5842l6238k6643j9295j9625k3940k6316k0755k346K4343M2478
57781e8123L9413K3549J3955J4713J1796l274j9725k3390j6405j2635j8561k6512k5297j1965P086K3063L1466L2789
57763a8057K8370J8717P274J380M435R734P881j152r268j1612r270k365R436J8587J3111o827k5299k9787k5957k6059
57743d6728l0338k9514k0572r598r06P203J6081K4091L0568L5480L4885K3874N548r022j2091o326J95J380m844j5891
57723f525k3774k0380o858N762Q190K054m570p111o602m508J08P976J6342J9540J3968L679p25P500K1821K7339J6816
57702G0042j072j1104p065L204O227m325k0957k8320j8555n67R590O843K16k227l490r013j5363j4591n744M705J1545
57681c0021J3964J2426Q535O558Q916J1120O903k674j0913j4544j4386q904L560J5961J6505M853m892k248P275J3496
57661D1490J6199K0069K2882J9845J4519J3233J1105l209k7939m5707m4637l1709j9999j1951k410Q542J4069Q643
57643C035p491k7647l7905k3915J2185M5375M8750K1278j3015l2897l7556l5368k7074q686J4921K9455K5109O127
57625d5319j4033k3693j9520o709N013Q145L476m67L968J4669K1078J5736L079n570m600J608O258O953M078j495n905
57604c3250l386M909Q457M80j0810j2381m455J404N43L2M397Q611R128J0543J4747J3557J047j4298j9379j3653p436
57583d1193o688q277q072n178J099J1025K0770K4288J8801N250j3397k9431l0457j0652J8821L7363L3544J2971r108
57564B1479j8447r908P484J6827J1441K502J568K814n456j7931j7687k781R810Q965J458m975j3734k6647l4423l0440
57544i8081k2247j8696j5913o658N906J4850K1018K6434K4699J1216l792o277K205R248J1634J6662K5702L0336K5185
57525E3431J3151j872j6745k4703k1137j3275j2111j4941r192N682J5015J1301N401Q897J7516K0001J3309J489j1287
57506C9930j8980j4455r09O138j733j2081q837L283N555o378j5851r072P228J7907J9432J9285K0385J5888O48j8657
57486D8726k9528k8002k2200k0089j8156p411J1161K4460K2956J2881P816J1290J3105K732j7420l3238l2242j5499
57468f8658L603J3254J4923J8399K6188K8551J7109j492j1410o038M745P209l19p951r144r159j4611j9230r854J2052
57448a1833K6124J8280J119k931P150J2295M060m216j464L379j836j1279r980M406K0763K9183K5239O257k3279m6393
57428D5044m7169k9035r219K680Q819Q827k866k2456l3430k4540k395J8597L0475L1828K2879P282o935j3916j3446
57409b8976n597J1309L3356M8850M9144L6697J8157m037k7339m2804m1683k6246q168K253J859o058j3328j2010l363
57390a7984K228l88k576M484J3347R330n870j3086j505J6134K1450J5307J4699K7702M1432L7818J5602q560j9795
57371A49769k0473k3163l2087l8735l6139k8261j9735n091K0368M3535M2788J6871r113j3735l872L97m511n620J962
57352C5155P443L486k115r30J438m967j7879k6746k8605k8164k3776o513K3156M8486N3446M0055K2094P477m627
57333I7914j3325j4069q427o150j3038k2778k5160j7612m781P882J4777R864n924j9523j7275j893J0535J1579Q555
57314h849P932K455j4671l1157k6972l804J2564N338j0480q573J3922L5126L7927K6646J3534K931m839n544J943P278
57294E2707q29j7700k7046k2088j1677l775M876J6245J9353L383k2877l8106l4744k5907k3255k0307n760J5861K8778
57275a12868K7387K1425J9457J8069J1190J210n175n985k588N304J5475J8261O325j0829j2483Q726L5358M3655K8691
57256A10605N860q055q717k238K408j591j4777k9345l4768k7487j2965J742J3281J9327J6441M741q435j3932q770
57237C325L681J8806L1599L4814K3624M631o011L41J1624O114k0777m6320m3356j1979J8923K4270J0062J708J0353
57218G5432K2062K1132J1614P540J0061O653q832k6638l3991k8763j6845l796N729O839l2n909k532O494R158j124
57198E4252j9164l3766l5746k2805k032J3695J6936J2070O583O06p075p954P765L1758M1469K8311Q891J078J822j193
57178I5501p879j0016q507j0237j2261n492P502J3706Q828J163l793p751q602k360J806j1627l6619m5645k8404q905
57158g9592p993j0314P091L0713K7731J33j3376O397L2957L5839K0629R354L405j0068k8264l4171k3196p657L927
57139c6455J4071K2157J9971N905r253j5333j1351J421K2608M3241M5360K1382j2850l3394l2251j9227n997J671J39
57120B1815j0444j9328j1935J0765K7881K1388j592j7467j4663m380k041p402q971j793Q247J5950K2574K7565K3906
57101H0075Q964o315r097l057l926j5850k4404j8468p103m256n998J809J7419K2560J0192l683l434N259Q624O869
57081E6180Q416J0371K224j3499k1216j4588m073R09K905M421q2j1334j7669j2600r193k1763m0233m0000j5580J2639
57061a23765K7426L4108M3505M9583L8244J2727m334K804K3507L3016J9628o723l0847m7869n7745n3084k5769J4120
57043e1468L9661L4877J2568l523o231m737m648k768J283L153M226J0113J6711J2173k612j0565l915P83j3849l7507
57023f275m3115k1847P487K3194K1531J1661K551n23L470Q061L480j0086j9027j2009N722K0118K5637K6095K1183
57004F7308M662k0307l5436k6984n403O251J894k464M237J0032j314k3715l5401k8126j4740p161j617Q958K0744
56985g8582K6354K7446K9657L0398K2277O540o054p737k07J0938K1144K5765K0962Q631l774j0823j3751j6516k0517
56966G2151k4648k7340k6238j8294l278J3319K3687K4929K1394J8104J2940n94k0847l2616k0872J0105L7764M4063
56948A03729L2099J6636M116j0097k6439l2921j8109J0783K9462J9530j2074m0007m6387l4988j8985k719J6343L3066
56930B3038L5332K1823Q476J0229K2636K8362J8582J843p177l648L059L67j2045k0856j6897r058j1600k1900k4715
56911D5851j7603j4384j9079j6323J099J3847L036j7891j9339M309L1208M3292M0112K4762o22k3201k5164p814P714
56892E3810J0224J1570K2066L0311K0383k949j9413j6978j277J2869J3521J712p162o60J0909N438j8015l5726l5466
56873E5167l4354m6668n5743m0403j2693j042n003K761L0728N4340N3554L8992L0275K9259K7072K0693R451j0207
56855A46179l2568l8687k0846o32m397k6932l8809k7717j2194j0256j3764o067Q214Q698q785k2717j4003Q008J8141
56836h9134Q691k504J641J5178K0559J4021Q396J3271K3378K8029K2986J0054p235k2748k8284k0289l636J3276K3447
56817B9097K1092M117j9172l2323k5637n290J5427K7990K8225J3570r796k3882j5311O769J9570J2453o023k4956
56799A5920m1519n1739m4848j6537J9151M0297L7555J9898L483j662K027K643q302k3429k5136p031J6686K8014K4607
56780i922J5887O762m555j6252k1740j9043j2955p208j573L511P167J2977K4984L7354L6969K0307M91p380k840K125
56760F5066k160j4233k4534k4657j5668p301n920n506K773J4220J4677K586n012N246K4642L4253K7355J1500m821
56741I2506j7465k3157k0846j4833r279k448P175J3956J2892R594J2004J5691R503n431j5294j3721r944j2972j8591
56722I340j8202j1958n949k257J243M739O217N609N121O045P301O122k19j1258k1587k4703j8812p219N522J5255
56702d9650J9063J8830K1024K7254K8334J5320n899k0302k3062k3135k6971l0028k8154k6844l2144l9192l6946k0887
56684b33389L091K4247L4136L2565K8630L1735M0377M4386L7911K3887O445j2222k6489k9067k1547j4165j1614q559
56666d9642l411n802k2303m1945m4473k0817J7325M4903M2189J4909n821M190L0747L8148J8060n1O453K2933K5561
56647G1153J6274Q732m31j9178l3163k1889M849J6451N874m058n00J751j0192k5889l1646l1569l5210l9729l6862
56628a65232k5843r892Q983K4042K5044J3544M804O527Q354J249o370l035P069J2288J0695P349L347o95J051R530
56608f7191J3136L250r567q319P293K3563L2794L6384L2918J9419K619o610r912j7817k9003k9361j5168j323J129
56589b1766K007J5667L6849M5377L1565O922j0210j2210m124N959J3840J7550J3703N80j5155k1458j5187q078j1539
56570G0292j9711j7579m143M810j30q325n925L444N902n37l922K056Q924Q112M605P832J5200J4949L833q260j3403
56549F8024j5620k0025k0453q156J1269K1489J6299O290K351L228M337Q120J6751K2603J6804K794q824j5271k0907
56530I1103k4387j9014o203L180L493O7k200n253r280r222n658p692j6560j7412R33K6473L7786L1051J8624N708
56510I5537j2794l1808l2868r917J7010K4933J3376m111k2080m1465n3646m5214j9015M798J1801N826l287j1140
56492a14064j3604l723J7039L3584L2930J9420O506k49l362k751L799J1999J3325O359j750m926k940J928N913L182
56472H615p550j6815j3598o62Q533Q774R014J6739K6342K7979K0310Q854k216j1094j5687j5047j1128o968n854j1553
56452A6988k3351l1279k4582o039J0913K0124K6427K9923K2118M694m288M396J3573L867j5659k0876r481j767o088
56433I613p206N630J9992J9915Q059l459j1576j8907k1831j5724o160k464m242n054n334r756j4643j1229j501K160
56413g3717m096r170m920O08l704j4013j7104r111K132J0951J8542K3590K0402J0652N785R995J0235n666k7667l4365
56393i0641k2573j0274q205n700O600J5791M709j7893k4579o077J6622K1713J3058Q204J1450J2144M789k640j618
56374g5120N779J2335J5372J5963J3423O692p13l293j175O25J887R162K3129L0278J6660j1957l4123l8328l4016
56355d7420l2654k9592j5122M535J1581K19j6453k3884j9072m571J7728M0480M9195L6755J4724J764L386R945J1910
56336A3454R721R047J2704J8296J9896J1846n644k4655l6025l7110l0964k0361o819O398J5865K2046K6569K5930
56318C0194J4750l197j4258r853K377P372k81j2784k0314k0301j5964j0617n223R29Q255J4569J5523R392N97m200
56298a3034l379j504l830j1711k1676k5958j6657N110K5558L0564K1493J1182M371o829k4137l2380j8226Q601K5141
56279d7301K1928Q293n065j4965j8340j1405j16J605r411j8932j3880J515J4701K0945K2281J8570J0077L870P162
56260h468J6444K1560J9048J4183J1318R159M909k397j1579j7834j4194N59J8125K9444L3083K9767J5447j0363l4115
56241A24096l8801k4995j0577q761j6639k6434l5625m1150l5246j6161M047J1987R634R747J6199J8293P711o393p219
56222f6287O050J3539n12k3737k6854O97L6786N2700M3604K6023J4327J1101J4980K4325L3200L4213K6488J3896k530
56203B32009k1914l6396l7934l0988k6973k6461j9391l425J1516J9401K5005L0619K9808K0227R525J593r658k4155
56185A42408k7305j0281J2117J8026N525r926j8117k0005j6018m131J0918J9441J8669J2788K366j4490l0078k9383
56167F2524r591J2036J5962P82j8274k6603k1791j1327l201Q33L563N043Q95r428j6665j0284P840K3564K4754J1617
56147D2249o500j9886k3378j7117n387O060J3156J5266J5161J5812J4702L666j9590m1368m2643k1737L383J8589
56129d9562K7640L6536L7992K4713P438K035M151m220k3427l0981j3616J1492J7814J897j5866j7827p231j95m953
56110C830j1969o119J1968K3476J5575O17K97J4929K2926J1053r484k1060k0067j2824l315N562P411r12j2883k0302
56090a291k3230k5961k8304k6938k0786r743O535K3672L3266L4265L5529L9636L3765Q662k0868k9993j5747K64J633
56071A4366n313p530m637l945o016n186O20Q657J6750K3146K3721J6136N200k316p650j7978l2923l9701k6571K029
56051d9141K8858M1266M0382L2955K0717K835j5201k3358j9100j1457r679j2722j4623j5921k1989l0452k8751r074
56033i4455J8322L2717K4227L881q968o528K949Q835J0555J3154J5198R359l815j1009j619J5955K1504O543j5968
56014D0837k7346k2723j1388k636K359O049Q698R935J2317J9037K8154L1872K3366M359j4282j9934q214J2060K4205
55995A16725J7157m200k3279k7818k0456j2359r230p425k346M849J0251J2495J2086Q404P09r032j6578j8110j1945
55976A9898j42J0298J1473L105n869q073p111j0907j8091j8865r867qJ993q17K76P347J5496K0287J8504N506j8201
55955A6232l8912l9654k1571n350n387j1414n045J2313K1004J1416j942J016K1794M2883M6108K7443q65j8239j1272
55936D0558J2044K6583J5153j2012k8435k1008k342O409j674j6227k3753j9868r333J030P488R153N943m08m332k85
55916a5316Q682J0615j589j8377k2493j0101M229O462J95r34O805J3248R669j09o959q570q451o452J905J5460K3495
55895A414J6532j709j7350k0138j0935K638J3361J7364J4869R627N121Q94m858j0469j2923j3287j3772j0474J614
55876c2481J5188J4076l422j5914m885J8366K5808R223j1033j4892o211k186j0013k2091k8121k4365j3709k247M788
55857a04121O225L578k499j0321j2698j600J9964L6969L7420K4069Q101l310q389n401N980J9251K4253J7702O898
55838F2071J133J372K5r254k2553k8136j9413l763M879J539n804p699l575R93K242J92l592o662o354k432K883Q693
55816c3215J5614K0619J7092M327p220o345M966J3361R378l698j5805j9973j5137l836R407J9214K2027J8254J0555
55797E9585J03j3858k9769m1035m0619k8517j1845K723J2959J7310J3779O330N706J6695K9112K9521J8479P296J312
55778E5267k227j810Q438K4300L0993K2433Q825n81q970j8217j7798j020J7947J8851J626j6199k3999k5500k4920
55759D7439k1592j8959k4109l4977m0188l4985k6054j7489m979J0240J4891J689j5110j4448N456K6164L1895K3624
55741i1492J1099Q03n506p791p845q312q042k022J0302K0188J8845J0090O720J2876J7777J2131L942Q382K4806L5329
55721F2280K8047J0808k824j1124j9693k7570k8706k3367j7812j4235j0032n844n119n976k719L825O593M559N325
55702e3584J2134J7114J2512J242q995j5182j6440r014P451K2939K6025J8752J4047J8185K3728K1557J2121J175q741
55683I7026j6638j8125j0121J032M097l407j2375j4421j0194k949P787J9747K3061J2148k168m900M18m680k4880
55664D0458m0465l2676p856J3341K1044J8946R935o297k3617l1059k6081j7167j1761q965n127L37N873R319Q539N157
55644g8122N638J2961K0152J9147J2845R545Q759L651l912l720N805J3144R658m25r345j4381j3524m712M638o47
55624b845k2921m2544l9814j9283j979P37n142r943r509k492R722J8672J4293j365j2706p205J0886K6863L1585K6696
55604c8294J6575K190j4295k4177j8756j316J4601K1540K5602L2638L5234K3567L906o542j785Q093J3696J4552R830
55585A16859l377j7541j5939M809K6272L1362K3410J2415l146k5662m2062l8180k2811j7290k3549k2279l937J7394
55567c252K5648K1588J3231K618q283j0533J056J7199K4518K2106J8636J6653R748m391j6624j6263m788M810K808
55548A16485o131r805m881n24m157j1116j3687j3096j3932j3006n892m00q389k3916k5659o155J5493J7712J530j6600
55528b6126k5425k2318o996J5031L0101L0805K7116L0398L2523J7131j2062l2681l4231k8695k6146j9049j271J3518
55510c8377Q295j1700k5161k1438p818N883J5738J7945R044m922j0394j601J3660K5469L0550K7573J3960o901k2758
55491A7047k3348j0214P152J9418J9817P187q708j3454n840j116r031j7771j0677P813J6388M403j6594k8180k2086
55472f7794l184J4935J8788Q758J688R643K0332J2925r274k0237p369J2613K0593J9873K2919K8254K4864J0091r620
55453A08798k8208l9314l4834j6587j813l425j0840m593J4775K7855K4288J3961R152R683R871R168J0081J2014J1184
55434A21216L778j0001k1639j8586K38J8276J9923J0107L575l5j3627l6267m8297l8279j9025q881j0235j5426k1408
55415h4593k6848k3993p165J4713K5765K2555J7466K2748L7106M8431M6211L1486J6144J0785J3401J3744P605l89
55397A85172p962j8660l0644l3176k1618o822p40p25J711L703m412k0856l1615k7858j3709L218J8280K5676J9022P27
55377C8712j6939k4939k6053k6980k7798k4109j5374n770K012J0019K1428L4164L8725K5628j988k6357l1332j9035
55359g5986m565L481Q500J3196J3496Q683N703O170k5j7388k9875j8079J2264L4250L2987K0483J3889J3481J0796
55340E1461O809Q843J4730J2862j948k1629l4502l5149k4704q395N537J0139N505k163o810m929N479K1914L4173
55321C7223L1274J3044r958k7263l3439k4981l003J9774K6110J3427k680q234m900J32O329J3268J3070J997p876j941
55301E1373J6304L0217L1651K5049J3743k509j6748j7347n507K220o029k4295l9034m2512l2647j0714J4426K8849
55283A6490K7619K0194J6829J6302J2191L863n477j5735k7489l5969l3786j8717L531K1750K4596R944r408j6042o233
55264D453Q627J9260K6872L1416K4532K674k2214l4781l2436k2051q629L790Q250K866l060j357K409j123r379j4384
55244a4265j8235k6487l0626j5719J3494L1605K3024J56j4356j1762J879J7123K5196J9292J119j7524k5070j9136
55226f0292m176J2985K3243J9586N864n768r673j1058j1981m292J5442L3518L3023J5052l831j1456q428j378J681
55207B8061p279k7517m3001l6498j1743R020J1741M481J644N723J0802J4022J4442P839p008k0833k2302j1993J21
55188h0278Q522J4437J6530J1131L121M724J8087K8331K0921p96k1721l2142l1695k2859j0232k398m664j1356j2993
55169a05330q378j429R038K3897L1416J7180j1125k5480j1522J3095K3144J5600M059l502n882K340K3287M0967L3887
55150F5262M884j8346j7421l618K563j043j593O928J7648K3596K6140K8934K9583K0864m84k7636m7896n4014m9373
55131D978m0633k9602j6499o082k316k07P264J5613J3603K044m541J901J3405K1379K8061L4250K8860M598k4087
55112E1989l3863k0409j120Q044O428J05q167j7137k3357k2936j3637L346J9502K2011R016l035J176J2887J0488p410
55092f079j7714n641J5240K4047J8561R262P33p230j0149n519j825o200r536L3J3913J2339m261j3400m011P456L132
55071A3151j0304j4209m877N705Q790N869O61m905q137p135l678M16O173J1966J1435L873m02N522J1894N542q780
55050B8570j4971j0970j0703j8729k0302m483J7150K6133K1689J7288J8696J8373J0549N91l333q31K104J279j894
55031G6206l210l62N028Q905P617j70j1912k0459j8373o434M959P359M543N563J0315J0260K845l933l357J573M107
55010H1070J401n915j4631j7512r203L537N806p247k3727k9391k0603j195K1695L4571K4575j732j9312j4780l366
54991D041l927j0591o306O796J2018P119O107J3345J7551J4005J2025J4764J0528p183k6827l5420l4609l0939k3021
54972f0524r350J858K650k450m509l441l477k279M948J5733K4436L1064L6835L6638K6563J3834P382K500j1761l1766
54952G4884m0737l2691k0669j6293j4539o864K200M141M624J7049L8285M5709K5232p414k3717j6355m986p552j7258
54933C049j5221J798J7694J9621J2824R304J0811J0559O167J997L58j163k925j479K633K449m878j0949p178M36k092
54912E3815j4942k0582p659J0608J2444l553j7896j7035p139J440R351J9472K3459R464k0114m7787n6792m2591j2739
54893a28776J7654L3732L1975K2419J5432J0603M288R05O298J4320J2258j598j6459k4117k4856j9747r466j005k097
54874e8237o621L11J7453K1596l214m0017n3983k9712J4231M5707M7971K9651J0680O93o787j8906k9965l0440k2497
54855a12086j4647n565J1590L0968L7993L2732K9934L1675K1898k182j5768r00K2812K3613J734j4856j1680j327K123
54836F8061l58n136j5417l0787m0852l7424k4559j1378k100L268N580P522J2477J9913K6441L1276L4490L0611J3135
54817H4763j2454k8710k4134n645J0687J6099J1916J222j4013k7723k9746j6940j264R76j0514j8084r392N568R692
54798e7696L379r7J207k604r425k909J8633L2139K1215o34j3042j7023k1069j6180R084L8808M3493K0877k545j0513
54778C5098j2242j6159j4506k869P006N724M38r14m639j8392l4913m0354l0650j1365J0128K5083K5659J4757N363
54759e7747L469Q52q606j5843q924R890K7942L5741K9424Q692j7888l2430k3268J973K4899L3430K6363R548n383p009
54739C5125K251N538o710k2029k3147j2519o809j1718j6283j1255j47R726J6590K1144K1984J8061J1086K833o897
54720B6824j8102k8371l3341k9216j6854l506L623O472J3282K5384L4645L7059L8972M3275M0062K2189J904k461P818
54701A69658J4266P870j988o663j0427j7687k2463k0661k1671l4511m9059m5976k4176m336k001r637j1919p561m513
54682a03455j398J0137K5895K8920J4052k190n296k631o668j0357K070K6105L9391L2374J7252N249m863j1255l849
54663D9483J5229K5335J5172Q90J168Q843N056j0222k1484k2786j9244r727J0202L0402L2730J7005J189o551j6258
54644A06432l1538l6897k0843L536J4316P622k322k754P631K1808K8226J7123p190k4067j6339Q411K4329J5618p695
54625A05407k3462k1711j2101r423j5862k0228j3419L15J0219J2490J1285R062K904r512k5574l8969m1190k5263M158
54606a00874K7361K7176J0125r60L410J0135P527L384R429K0361K2770J7035J4718J7256J2672n345k8031m4081n0008
54587b5940m4283k3668N871K4380J7121m616j4400l814O752l521k5830l1250p769K4321L7700K8702J4693Q058N717
54568a1776L543O537J6749K0990L725k9236n1419m3938j5752Q923J7638J7302J8403K1367K0970J6702J2297Q427K433
54549D3885n201j0210j1368j2403j4776j3994p213p3K09l763k039Q477J9047K1440J9928K5061L7354M4047L4745
54530A73153J5396J231k110l117r152j5533j5835j5020k1232k8806k3919q041q1q470j5334o54K7637M2247L0377N189
54510A27926j4134k0090j4550k555O995M116j2959l5405n1687n3333l5864l707K6571L9057L6375L4767M0163M1325
54492A13011K9637J1502n560k5140m9519o6419o1793l8975j2805R157K6865L4917K5393L448j3474j4339k975J2074
54474b4995K5131L0055K1518L844j0717j6000j5604j0673M116K6626M0902L4580J5533J584j499l071j2395k8509
54456H0426m2962m6147l3731j2469M112J0901J5778K2530J9003m409l2168l8280k1916q267j0445j1465N611K8134
54438g5764L0962J1587r032j4463o105P201J7491J6736J605j9124l1748l2408k6483j6379j144J4114K1643K3576
54420h7735K8145L3427K9102J5636O134N458L241o386j3870j1524p218j0339j6445j6816j1734l795R651K4937K5805
54401d326M431k1657l0406k3598j6467q656J1225L6960M6547L4994K2051K1197K2086J2677l57n579n562p940r637
54382G7983m148M130O553M545M105J688r441k1269j6006P200K4718J6632o471j6804n648P452M399o983r607p252
54362E5776j7494l5865l1840P463M9845N4579K3842n472j3804j5667k4453k9688k0502q899j2305k6770l3607k3976
54344a08837l219K1749M5531N8821N2456K7273n700l2585m1580k8626m572J0773Q879l3n325j0622k0242k2859n357
54325f4075K2932L7323K8229R771k152n743n349k172J576J053k088J545J4361K4434K0690Q613J605J558j714j3091
54305G7306k4201k4997j5653l117Q285J7429K1566J7561P319l497j1944j7448j5278R21K6190M1915L4317J0812r191
54286A38295j5907j4123j1260j0692j4240k0012j8788m322J2880J5158K622n625J110J1511J2370O592J118p962k3913
54267E4812l5520l1941k2323k1940k5394j4774P902J9635J1643L205J0358K0401J3518m375r960L646K1469L2793
54249C3155M1459M5819L0136r405m5136m4828j2545J7106K4207K1482K2888J8276n044l3437m1571k7313j1103m988
54231A9158k667J185K545J406M568J0809J0448L809K248N762m64j8832k8725j5766O140J6602J6222J5642J1923l636
54211E8377k3666l1329k4218j4609r796p501p231j0956j4704j2805q606r304j2919j1720n435k87J796L106L851M858
54191a33098J0133J7230J4125k620j6474j1750M294J5934K4331L8400M9971M2338J9124J033m477p884j3517j4319
54173C2774j1176j3619j8417j0601R750K4035K3781K0764K2497K0268R874K080J619l737k0691l5207l2703j7696j782
54154A813J2408K3654K4383J3369K466j157n987j8382k8325k5108j3266q45J3250K6985K6155M281k1476l1261k8005
54135b5048k5534k3297j2228L494J0756Q086L861r62j0363j7159p894J6087L7465M3400L5411K0453M979k971J420
54116E9956J1097J2867L368p207p235M945J9216K0044M05k6699l8580k9000j3690n293J740J1727J1793o538k4035
54097a119j5251J3898L2569K5826P748n498j4509k4461l1500k8416j3812P356K4435K4155M047j8680k3136q550Q443
54078c6455J7248K1065K3290K0771J2581M235Q22K768O812N465q039k6198k8375p069J7764K5270K1669K2300K0006
54059A15930o65k7146l0843j4344j1686l5473n7376n3018l4710k2547j1692Q743K6669K2891K581j1531q526N569
54041a37174K2298L3565K9198Q790j0556j2671j943P212J0748J1487O196p049j6915j1756J382O827L233k64m448
54022f1840j6829l0937k9327r097J2947K3273K4241K1241J3662M072J734R125J6150J5322J3049J8100K6880K8848
54004H0614K1447J1750N848K690k320j1516k2582l0645l3483l4034l5466l5055k7077j1405N181J6211J9801J6264
53986f3777P279j548l171K705Q097O316j45m414n132p424j4630k2560k3404j3882J774J6125K3777K2593J3477J900
53966e6044l282K123J1373J3628O990q04m739p986j2949j5120j0965m953k099R10R780K1716K7962K4538J3969m00
53946A3648j4337k0107j3162p08N049K398J73J690q42j1272j8280q048J6075L5342L6561K4270J0877J644n806j1651
53926D3514j1960p305n080q151p628M301J8181J5852l682j9268j4498O82M331q914k4444k8469k0746p577O848J9663
53906e4350K7794L0513K8826K1266N587j4341k8805l1104k2082n857J2729K5152K1577J626k1214l1148k4410r153
53888f7394N370J4405J4959N544q471j5205q150M251P218j939j0860r796m123l012l443L448J4526J7406J0842O812
53868b7612Q159Q82k0888l6856k4000J0009L4335L2939J8961J1365J3457J8587K2868K4097J7390Q03j8823l1240
53850E4433l1434k0778m663Q171R327j489j4703j9999j5527p227j839j474k162K619J4149K4913K6654K0609J4331
53831E3911R627J186j1857k1062j9158r543j273J255L43L28L899J0293J5203J4814J0345N826K682J227N273J6899
53811I0218K6990K1349k82k0743k5985k0458j6057j4629j0439l394J079K595O718J5717K5185K9031K2514L395k2453
53792A10351l8960l2566p862J6375K6977K5223J6514J644j7478l2008l3467k3155q929L908J3418J6542J1378L522
53774E1427L238J4064K8614L7481L7940L1361J7262l818k3614k9866j9605m485L64r195k5014l6807m0057l5362k4479
53755c0551q917Q684K3430L0488L0287K9628L3192L4575K2552j627k1089k3171j5358j2959j6565j3668r77Q077J889
53736G7920j3236k1333j4781P23J4186J7663J0329j504r958j2582j2004j0070p348p383j3966k2791k3080j0723N393
53717e4545J2333M546j2695k5360j9136M113K0626R370j7349k4780j127K6645L0682J5975K443o862j8348k4042j2149
53698h9660N967P037o916r294R287K5370J8259p17p938M35J1234J6353J6109Q781o905k1668k1390m866J1848J1455
53678b7219o356k2619j6397J1438L4023K6674j600j7014l745J7076J8794N129P19J5204L2888L5036J8428p782l1413
53659H1264m1569l3902j5890j221L813M613Q467J4892J7477J2842N844M972J1566J5942Q955m451j1260r417r354
53640F3583j3865j1068L806J3842K844j7093j8633L705K7202L2155K3314J6194J5707J5173P611q003k6153l7164
53622I3157l5128k4823j6144j2643j1298j0488r312j886J6243L6654M5100M0133L2269K4272P723j7225l4727l3507
53604H8370k0855q751O88O823J905j5694l0565k7686j3821p573j3404j9039j4895l088J0242J9492J8889R251L491
53585a6220J2978K9363L2651J7739o9q103j1564k0156l0698l2133k2353j1758j0562j6286j5186K455K7947M0126
53567c1829L0085J3952J2546K3067K3163J804k7097m4125m4692l4768j8294J750J6839J7795N296r765j5961j0390
53549i0624j342k353j7688l2341k4137R564M3714N0518K8738K566n782L254J1705M786j4474k9326k7235j2402J676
53530a01183R131J4694K0691K0883J1900K695M521J5217K1328J4834J190r990j6434k2139k7889k8253k0264j1314
53512a00382j1809j9390j8614j801J7034J8289K443j1170r196L376J4825J8260J0641o084j9286j4313N400J9241
53494a02536J6705J0699J5170K3327K0943J0118M239O369Q313O997O715O560q6j2445k0232j6980p163R35K587k295
53474b2060q411o949M550J5958J5101K071j3168k2619k1955p671J5454K9925K3270O763J049O009L427j0632j7830
53455g718p901L926J636o989o429j258q498k7536l6593k1714M193J7673J2800N659J1653K4401K3211J488k1204k2703
53435f1903o905L445j231q571q348o785r315o235J0607K8699K8893J2814J267O944K0751K5427J3564p768k3063j9953
53415g666j439J5032J6584R579Q112J2324R163o205k1274k1818q902L521L403q876k0937j8941j868J5210J7250P576
53395a72L249J1755K0789J5413j621j3868j2459n513m859r827r905j098Q248J0660J1104J7712K5555K1097L183j2316
53375G7127j3650q716j1927k3677l2027k9206j6803J678K3133M0578M5107L3669J1007j4159l1026l0194j3450L047
53357A0511M016p863j7529j7638j3671j0334m195O894J5823J3440K52j2653j3804k647R183J0976P064J0124J8812
53338F761J5338o455k5445k1581p532r743k5839k8423j0666K206m975j2571N99K3432L3068L0542L1852L6114K8478
53319E5160Q818o477r925r456r556n944j219o546k1802l0156k0065o61J1264R463j404j2880j5067k656J5200K0435
53299c3474P525r294j5010r681J27J2752K4533K3693N355j5191j9101r043k950o246o842K099J1557J3514J3232J6410
53279C965J6648O763o062q783j098O235Q961J2621J7676J4064l406k3161k8871j9171p461l951o004p300q571j3795
53259e0701k0181j9258q261N078J1243Q768L151l50R04Q566K1364L1991L1971K1426R402K270l554j3909k6490l3474
53239b0044l1896k5447j7171o419O256J6786K2373K4611K5743K5093K1240J4922P499r94j0015j6452j6338q143N244
53220A6848J5949J4302j783j9981k2416m925J7109K5434J6891J711r855j3319q183J248O397L880J986R156J8286
53201F8735J3801m765j7917r855J1957K6802K3089M823j7357l3456l6952k9118j9537j6181j5824r192O048K2654
53183c2245L2529L2520K2839O577q474j3550p340K412O968L674m657j3167j7008j4642j0959j3087k0759k4793j8357
53164i1519o107K356N224Q386J3512J4244P848L574J1175K4106K4727Q628o602m294P899R474k235q503J168J1612
53144C4673M031j6097k6977k0498r489o121p405n743k093j477k614M02Q758J6197J4876K801j2694j9739j4400o837
53124g0446q615j5379j2066L690J5820J3016N412Q066J7450J7965O509l617k211O989J5669J9938J8195J0147J074
53105D7606j381K574N347L821J958M28n115j2191j0562M68O129k506j1982l755J9518L8371M1875L4869K3854J0638
53085A89964j200q319j6548l2814m6863l8720j0348Q070m221k8764l1555p124J8567K4473J5026L312q563k3963l7613
53066c7203l8019k1438K101J6375J1827n739j8565j3342M635J7792J7072J0394Q649J0593P136m239j6154k1015j8585
53047h7725j3439q139n6J5028L4576M5327L3225P92k9574l5141j4483J3405K8820K6315J3954M887Q623K3480L6374
53028I6249L5138K1361N946o696k1102l6195l9346k2423L849K0894K3616K1803K3101K4943K3653K1475K0401J6093
53010B32760L265j6305l4574m3959m1949l2618k4550k2890k1955j0996J0303K7837K8834J6712N183J964M328P382
52992H8772R351R707Q349O699M898q24j2277k1915j8667k725J1703J1157l935k2414l3618l3081k2405q086K328O778
52972b0205J0036J6158K2029K1574J4799Q775R212J3440J3021K803j3490k7026l2468l1120k5934j7441p162j150m724
52953d8873j4733k1775j9733r446N298J9780K7239K2778J0383J072K026J0663J9058J9738Q487j1306k6665k4790o827
52934c7626J4138K8565L5627L3261J6399r849k7828k7639k0463k1398k7071k2439m343J4896K5029K6485K1678R885
52916B7307n838j5795j2917o21J1254J5578J2835J0124J4473K4035K8014J9421N212j506K942J0431J1613K548j6495
52897A42615m0441n7601n6267l6048r142J0215J5476R868L125L737J0147J2578P519M537J2033K2479K1729Q686n564
52878G9681j5137k3088k8377k2841m936J3813K0921J4963L308n547o324l19M735L637N86M50j938j2443k1710j4143
52858a4709P092J9973J2069n490j6703j8898j6509j1179o323q782j6695j6473j002J8540K7405K4667J7988J0715L145
52839H831j726k277j066K439J2721K6315L0699K1878J0141O27j5633l9673n1216l5249p880M703J993J890P432O661
52819a8390J298P795K6846L6111K0533r235l5197n0696n3591l9306j2545P724P936l462q151L78J4466K4026K3355
52800f0105J2852Q68j169R268K2967L0724L1354K5819J2626n818k0534k5950k5878k4086j6888k498R432P918k918
52781b2016p503Q93J1092P759j0066k7170k7596r720J4476L2628M0229L6351J9889l742j9372j6087j531P999R200
52762C5713J1314J5401J0065p620k1737j7489j262Q920N428n578j6058k1322j7610m299J2211K3215K5289J9842R238
52743F3661k047p115l602K302L665P09l471q940j4062j0932M676K2472K7127J7309O065K968N244O514M077m485k1162
52722I0973l8744m1401k2417L779J5417O770r098j8587j9893j6369p210Q594K3615K5585J0732j1018k5506k6017
52704e0795j5117O20J5184K5456L2130L6710L6364K5297L945j7188k7663k8128k5884k1923j0110R979K6678K7064
52686D2619J1154p665j5132p955M924J1416P130k257q541q646m561M65L308J721l677j0599j8777k7129k7032r170
52666f8404J7728K7424O968k2738l2060k0556j1346j2339o703J4303L2123K6868O565m268L900J8456K3380J4879J526
52647A5706m090L186J4041J4040K159p936p742m360n869p966l581M466J0044J3599J5115O779j4110l2141k8749p298
52627b4707J0234J0616J883j420N158J5609K1421J7858P370k814r015j3966j8522j7058o909M451R122R161R325P147
52607C4944L60l597J610P499K618o679l933J1075K0841J5592L698n809j4333k2324k2299j1426J064O665P530P439
52587C0535M431J12M549K1115L5541L1857J2807o667k0349l2578m2979m3870l4263k4033j9361j3629M29J6206J9873
52568f0274R462j455j351M893M610m042r764l929R113J9926K4875K4570J8053N997l972l101P801J8590J9666Q022
52548H7690j2993l3923m2329l2970j3995K268J2180J8743K1158J5719N033l218o261o585l833L671J0129O699l537
52529B3646o359L996J5821J5022J315j4395k1256j4330K204J4312R150r037k2171k0756j3820j2605j5441j5651j4049
52510i4404j4030j2125l988N123N487m128j5693k0984j5654R06K2446L6218L4138K1925J2059J0439J4199J7982J6803
52491A6719P629n193j0227j876J0116J0789k827j9900k7523j9306K239K4743L2661K3041J0246P258Q657K825n889
52472F4182l670O308L065k0844m3263l8697j0249J6413K4628J9989J4488J0363L862l742o850m898l647n398m007N274
52452B3307J5279J4710N782L856J5817K8537K6257J1051m201j6368l1639m7008m8141k9888o288O648Q626Q010N660
52433i993l472j6601k2463j6209p162p474j7008k4426k2625j8161k1511l0143k8089n492K6893M8462N0403M0009
52415h5062K7142J6386J1706J6537K4957K3433Q376o473q259k743l411r320p464M492J2241N093r077j4721o231J0325
52395G927K5055K7965J3368j0528k2878j2134O630Q040j0584k5079j6268O267J9594J7036J1421J3318J8080J6098
52377I3328O898j726m168j740J655M518O901O675O33q583j0375K745K2144K8086J1089j6973l6412l8666k7559q947
52357B9523J2297K8839L3621K5757Q477j5417l9338m9700l8542j7253n300n337k720Q771J6248R076l351n580K773
52338g156J1336J5957J8422J4840j566k6736m6230n0534m1705k4924k650K0873L7042L9255K9165J5538Q738J4042
52320B3707K5857L0537K0261K699q607j1149j3156j7668j7004o375N633P086j409p935n097J868M533L839Q033J9016
52300F4669K7080K3316J2723P499Q702M415j0987k5458k4507j1124j489m553j4634k2355k4266k1928j8855j8788
52282e0540k1060j8409n887R187J4253Q573M595J0284J8553J8176Q475j514l767K323R746P393j0307l3184m0537
52263g3647k2759N738K1318J6640N442L331J0800J7173J5834J0824R529J2806J4330Q660k218j1117j2812p812p47
52244B1313K456k954j6694l0867l4667k4847j0548m693r956j5538r918M415J2645N440q963j4712p791R58K053j222
52224a44090r04K982M232J283l16M164J2512J7802J5200P385L032O713J1078N628o033p289Q370K5038K3880P639m418
52203f112m93J5006L1600L9822L2264J1280n770k920J2046J5440O1j4932j2198p80k698k3955m9145o0281n2843l5594
52183a10202k0552j2262m733R142K5548L2430K4605R614k767r400r957k659J1047K3356K6775K1311J3528J1642J9945
52164E6411L1831L1236J0744j3984k0863j1313o895j4376j5334P43J4643N483j6056k3370j1962j26J876J389L933
52145B4010M646J112k251n293j2755k1711k2821j6277j1712r781p4J7982K9055K4553J5588J3102R979l524j9196
52126A4632k2523j6862j8166k9132l5925l1024k3176k0112j4822K935K9460M9095M9516L1164O185q394k214J7933
52108b1430L2326K7646R519p267j5752j7874j4019k161J2754J8842J0621m636j6989k3256k2686j1903Q054K5579
52090a2632K8494J7197Q98j4554k6084k6219j0437R439J4286L327l264P203K2514K4973J5723Q137O507M397k172
52071F7733j2324k5595l6799l1151p52L5500M5060J8233k1318m5006m4852k7574n06K5946L5304K0618j793p797O417
52052f56K2018K2843J2843O483J0650K0803K9261L1705K7179J5969j038k0673l5435l6387k2456n729j532j1386k1063
52033D3399j8738r256m581n232j170R988J7294J2641K467l277m868o572m870M335J2187N942r662j6253q817j833l154
52012I970l90J4946K6316J3772j3073k4363r747R737J1382l453j8039k1780j5881o332J103K769r81o738j1089j0865
51992e2736l073J0682K2380K5814K3515J9723J2096n86q731l806L576n819l0282m5122l4922j2052L629Q187P407K245
51972e7875n830o397O794K0594J6061m943k0374j5459J697J3510J2793O259M114Q940J3124Q025l371p870O52J1852
51952B296J3086O484L020M477K514n872j2979j1530k264J0817K4169L1860K7809J4956N183M845N204p085l1726n1598
51932C3666m9009k4543J177O784p721k1591j8393m962R05l468l121J0775K6122K4811N415j5649k2233j2454L016
51913g0473J1969J0431M549K942O763R221N525j63l75N200Q485K772q169j2516l131J2645J8931Q923o858j3826j1496
51892a8651j1419j8148k1532j1540P042K1515K7836L2246L7966L8446K6178K978k1112l5887l6110k2660k542J4164
51874H770K1416K1337J8984J4689N917m307q004m149k932j1314j9576j2425P866K1065J4996Q86m450k416o861j8944
51854D0548k1631k530K6928M1432K8114j04j6593o529J7786K8294J0444k1044l9259l4385j9497j0060p919p241o049
51835G05n428l530K346J0173J5065J5452J3603J1157P283P51p821j5017j5911r162j141o12p473j1403m958N909Q481
51814H469k030j7833k6220j9228P57K0895K6286J3327o475j9088k1677k0148j7095r391L279J4877J9928J9273J6792
51795a5302J3567P145m880k0849l3646l5294k5086j0548K297J4762K6487K7537J0939j0093j3033K918J2794J518
51777d8767j1892k106K1084K2051r842m1529l8419q319J2658P992m477l420R518K0380K5116K8937L1470K6262J3889
51758E0586L923J389L91m811j0497j1051r042r686r892k684R359J5805J4669J5812K3521K6493J4451l093p203L905
51738A12345J1314N81k0141l2125k8485j8224j2553j3561j4825r240K718J1231O774p227j6786j5154j1071j3681
51720f8110j7165j0912K15M37j1520j6410o70K3087L2307K3995J5873K0605L0875L2266K1467O251o818j7737k7456
51701C0580l2777k9593j9360r176l882J63J0228K5973L6966L4256K1772J2377J3381J9589K0954J3856L313m208q038
51682A36374j2414j8586k0199j0486O006J4545O703q613j5878j1617n995q068j7213k8516l7382l6714j9578Q544
51664g9087K7725K2893J788j4619j7212j5003j6843j7703q196R641K3111K2331Q056j0965k3458k1355o881O668P548
51645a01561n22l223M833J3229J1790M792J748J468k781n589P916L7858O1572N8966L7034J8214J0635L532r925k0947
51625A29039k1462j9360k6631l8793l8673k0777j260J465j0300j7056o245J4661L0207L4589L2234K6666J7713P627n5
51606I3589q968k6410m6653m9105k3021J4068L4887L4200K8368K6490J9485J369j5175j4397J366J6111J9256J2250
51588A17710J786n367n071n88j113r731j7524j5523o765O31N857J1567J3563O104n920j2390j3569j7585k2958j8103
51568E011j277J2774J2499M759L034R505J6956K1044K1802J7992Q677k002q188q853o926m707l403l314j461N342
51548I9264J1667N366j5783l7042m4179m0533l6796l1650j7025J755Q255p82q891l075R092J2669N276m355r716r691
51528a06174m200M776J1507J2654J1921J3074J2456M965o485j4628j8138k1266k5097k5654j9130m044J8218L8707
51510a16538M2247K4059K244J227K1909M0194L7844K2955J4678J8658K5639K5849J6092j156j7379k2117j5583j2037
51492A08785k1892l5804l7055k5708j7560j9780k1181j0490O839J6505J2887K324o643j0844j2421j4384j5421j0200
51474a12043J613R174J343j6205k4490j4841L30N549J896R50O639J3133J6326J7310J6058J0710L525N43M362J2035
51454d6083J9607K3996K1835J2348J026m940m835l699m710p690j3880k5289l8203m2881l2105q036J8509L3444K8055
51435g3531Q191p725o427O169J4497J2895O864j160j4070k7570k9095j4245O039J9690K5462K6005J9944Q684J958
51416a7425O780J6298J8021Q869m587j5468j8867j0511P209K0575J5211p796l1121l6181j7298J4180L6371L3410
51398A7670J1106q449j1742o562n613p893n670r20k062r589j7111k2989k9531l3893l0694k0504n946J4604L7365
51379a38423M5131K6433j966j1574l3Q108j22q991j503J6558K9733L2969K8629J8762J0009J1792K0906K3331J8862
51360A28611K3656L6761K8620j5699o2671o8267l6514r769q338j2920o886k066j1619k4319k2151o283Q938J5171
51342d5745J1569r63j4731j4337O292L1683M0125K7139N968j0052j7031j6712j2754j0794j5526k5744l4155l2557
51324a28325j8490P90J2808J3112J1519J8272K6967K2201L892r327m616R749J9573K2994K4959K4128J6483M868n312
51305F6245j4330k2868k4610j4563j96O182L186m19J293Q089J8701K8715K7238Q098j7105k9242k5045j8863k0772
51286b0266k4925k1893j1049L058J6275K2610J6277J042j0508j1339n750J477J0476J6328P744j3872k5927j0177
51268f0419J9935L3216J9617L06j915J1657K3567K2649J2162K787L109J2447J9741J4188j090j1798j0934p180j1248
51249I0797k1606k9490l1219k8149k0279q759p44k101o947l657R263K1681K5686K1840J1767l947j7521j5572L393
51230e564K1575K0982M456j0526j4455j2880j3565j6279j6357j1394k603O098R789O838J108l170o686j1479j5041
51211f9153j3542q533m417j241L352P144O157L388O129J4560K1474K3871K5688K7555K3968J4284P081Q253J2659
51192A08677J3274J1552J2404J4556J2043J381j6536l6496m8348m4025k9475k0883k3242k2492p078J2893K0095J5346
51174b6354J3540J8738J9823J1496M143P793J7569K1456J5149L814n632r477p798l360J520O895J1825J1762M090n989
51154A11003j1057j1050j0998j1458q794l454K47J673K982K074m288j1692j3477j3983k3087l6460l7330k3168j4043
51135a16360k3438l5083k4205O973L1534L1654J4760k983j4277j8711j5955p944n62L425R251K2938M1165N2506M8814
51116C502L3649J9089J4203J6296J3807j807k7269m9843n6983m4793k0330L499J7829K3208K3828J9543R383Q71N718
51097C400K3087L6216L1770J5682L084j501n716j5109k5707k9569k2024n602Q611Q068o286j6732q582J0793K2069
51078B5952J9072J2116Q416L297o991j7104k2365k5441k7395k2850j1739n203r295j1544K616K5100L2278J6977j384
51059a5487l437N566O440p098k2993k8613k3166j2097J251J4165K1680K1344J7567J5656J3888P410j615n360k917
51040B184l636j3567k4666k3890r620O922J4451J0100k736j7964k7965k7423j7893n036Q164K0831K8340K4579J1516
51021d7309p16n877p281q775p877k891R08l47m75Q097K1251K8040K5394J7611L854j9959m5219n1544l1208j264J8245
51000a07342K7945L8611M5618L2582M16k4878k1096M888K8624L5685K8724J4660k619j8044k4419j8832n642P272
50982D2153J2098L689j5157l2041l4890k3868q780L564J2844J7910J5484P745K386J740n28q477j7234k1090k0048
50963f2500j3514K770K5311L7413K7218O089l593L658J3293J4468J2422J3540J1839m50j7163k3617j4880n85P529
50944C9248O310j217j2977k8567m4359n1809m3524k1235M299K2362K9698K8766K2839J5566J1306J0793Q756P17r853
50925a2881j5873j5386j0155O62J6890K9760K8788J6679O590K856l636j6510k3303j2644P665K0313J9361J1124N6
50906E0356j4335k9152l7901l8397l2484j9559M75J8987K3942J4884L904J48J385K116J388L65L28M924J5786K4162
50886h678J7689o48j1920o108M344N294L250J2019K5334K2315j28j8842j4399M341J4458Q033l003n893j336O48o433
50865D0337j7707k1258j2151n67O05m137L724K8498M7470L7590P111j3766j0395L056Q016L702n10j883m030p424q943
50844G7338o900p08R803J9705J9249N003j4244k8127l4929l4687k1220O752L2563L5390J7046J043K581J2169J2705
50825A10532M33j6773l0523l4045k3527o303R06q393j9606j5262K622J8769K6307K9014K6873J5329j091r616p407
50806E8239o467j5171k5185k3027o927J3039K5041K1911N185j2523j6272m883P860J1058P158J239q164j9522k1476
50787h887p856Q845J2217L744l579o829j1949j5286n941J2508K1667J4674N712O267Q396J688p838r143n540q323
50767D547j8119k5746k6757k3540j7216q523k594j973J284J5187L3024M0820L6767L0684K6083J6838K231q400r122
50748F5475m141J880R329J6264J6195P566l368j2103j9043k1305j3392l34K450j0436k4827k5789j5993o498J149
50729c6921J2147K4258K8387K1306R275J01k705k6M177O518P893R241M703j0892k7159k5209m726J1340P705l541n884
50708B9988l961q815j2973l420J0583Q426p562j4170l484P607P212M309Q434J4496J6261J6402J4886N414p336n638
50688G6659J4012K8379J6755j1165l1232l5820l2940k6078j4010m130o723j7076j8637m963J3246K3586K4597K2308
50670A6768K2108K4852K5585J7286K32j5350k0418j6681j0877o018l754p431j4548j4050j428J0012M818j2176k1060
50651b2130j1933N791J6822J3229k497j7808j7672k575O144p963l0027k9658j612K7033L2485J9659O968K473L917
50632i354Q545J1372L540j5898l2731l2379j7787m041J372M225J1172J9782K2483J5740L277q038j4017j4482j0005
50613e7224j075P988R462J692o318o147j282J052M207J5790L0027L1836J9881R845J0017R367j801j4271j5644j2041
50593C5361j8226l2383l6691k2321r98J0069N590o846j5470j2145K078J6549K0016J1621P74l554q07L113K813j515
50573d2972m536j707N359J1397J4459J6190J6054J1627N009J173j572j0046k1943k4247j2637j177k284o974Q69J7209
50553c0749K1314N131j5988k3523j3956N320K5236L5590K8355P854j0319j6418j5227j3057o518O406J3382R23k1717
50534a7961k7550n972K0040K0587m082k5114k1899m318O142N297N164J1084J4902J0992N191L159J437l191n418j180
50514a2690K496k629j2503j7551j7792j9622k0773j1348R561K8660L2122J8097l573j7363j0936J2246L1070K7863
50496A5335R670k499k999n201j5674k2625j6072l689L054N591J0134J3517R616K690K268Q828J4395J4128R446L325
50476E3238m72K265J0143J5110J2925Q103L023p515k1446k1291K976L0836L1016K557k3322k4556j2088n735m574M444
50456E5637J9595K2920M648k2115l4181k1426M135K0664J7537L442o890j0068j2975j8343k1170j9825j9984k3080
50438f1479k0387o207R702J2298J506o221K221K1020L2445K6400R833k600l574L716J4148K5214L1649K4531L004
50419A17219j8884k6026j9728j2888j1421j0945r074q313p340k806p16j1337k9569l5790k2283m335K108r84n834
50400a18946j2527j7736o932K3010M6179L5555K088j6494l698K0194L0763K6296J7473R338K156k911o177q261m602
50381A4768P156J4268K36k7494m0016k5295n928o896k1972k7468j5799K485J9984L5942M3652L4099J2617l708o696
50362C935k629K909J1925K3440K9030K3830J2081j831j7461k8974k3500J647K7663L1463J2321p786j1076l457l636
50343G9894j8009l3262l4135k2074j0873p361n063J710P114L420n298q160k711L959Q108J3915K3801L2088L1337
50324E8400J9595m27k3722m2189m6799l4675j2303Q935J8957J3712k31p797m28J1205R142o140j4029l018J1323Q450
50304c2039p013j2651j453R552O078l535l386O184J1557P368K924O577J3432J3211M816k503p30Q579J7590K0604
50284F5162J8144J4481J2601J0899M031j2060l4533n2825n4903l6475n660K1516L2163K4839P463j1874k9395m1197
50266f7623m0632k6301r494m519r848p304J4835M4324N7781M7134K5574R364K755K074N581J3139K0502K0778J2163
50247A10283L35q387j4189k1691l1423l7119l3766k5033j7609j0322L354K1169L0097K3395J0876M045j326j6066
50229a3377l5533m1370k6577n480O632J2712K4011L8462M0592K3009q41j0317j611O908l754k8934m3647l1228j432
50210i1775K3721L3328K8946J2385j2749l1726k9018j0202K486O36n80R772J8327Q704j0626j7590q647k039j0461
50191h7108k5477l0735j9267M347K9357M3872M2090K9620J7771J3224J7010K8731M2967M5275K4634q807k9977k7314
50173A10213j5781j6303k9813l8396k7624j649K1616K6431J2492m733q729R59Q521K21j9753l3715k8718q605J0828
50154d2538J7217J2120N979M010J618m844r627n941K483O815O791R433J5613J8228J3781N610m343j5214j8271l762
50134A5158J8407K1282n257l6652m2800k3884k556R134J6078J9926J4842L750j645j330q485k3765k7218p989J4030
50115d8974J3098o461j7238o314J1967J9850J6197R295L295j772n583r272j5424k1790k0462p366J1743K7644L5472
50096a2095L4238K4348Q986o808k0649l1125l1299j3878J2863K6155J5890J603Q577L2149M1789K1041j1970k8751
50078G1064k2611q981l139p327j5243k0093j8678j2929p206j934P298K1138L0824K6606J0510m370p974l426j889q784
50058B2856j6478j2029O713K4760K3882L203j8714k4152j4539n844r323k0866k7750k2325q716K757P105Q921J3841
50039f6698J9427J9474J4565J0646Q152J977o708r483n524o053j6626k5101j7716N27J3164J4552J2486J1999R793
50020a7147M444l88m819j4045k7632l6512l4012k2372o340J1164K4256K4488J1552l579j1350j2930j1978n036J1629
50001a20607L0846L9840L5201K4970J6317Q403j320j0085j2501p307J143O813O514K404R12O958J7397K1902J3293
49982H1093l242j4249j2458m116M66O11M606J6329K8256K9542J6687n256k7013l7976l0518p260J7986L0908K7994
49963A12390J6397O105L562P799R795O48j6824l0659l6412m2010n0708n1007l4240j2143k054j444O125K3358L5227
49944e6095L2040J9395M408r904j4151K712L0546L9863J9078o545q391P223J2611M82r365k839Q393M246j8637m4005
49924A1065n1470l3332j559K1642K4949J7889J5734J9772K0794J7329J8124K5991L0434K0829M55j6705j9830j0338
49906A11773K10J129o352j0882o080N53j327r981j5512j5083j4402j5121j1121M42J2954J8457J5806Q441K74l891m11
49885E9876O767P074m428j8862k1952r476Q247J6604J0103m054j5123k0270k3965k6775k2179r015R55k464j0817o777
49865h6531J0380K2435J7389L765n248r226j3345j4441o415O158J1746P135p40o826j2241j6292j3567k453R224J0873
49845h8220n76j7449k6514j9516k184J0042J0304J0178K3005M1179M3096K3274P53q031r503j5194j7928l998J8651
49826b8631K6165J2805j522k925k812j4487k7707k3507l757J2357J5402J1439L975j0080k4273k1811K24J9796J4460
49807d4889j1105l1530k9087p895J4888K4294J7480N013K53L984M015o571j7705j5097J059J7470K3360J7764N909
49788b8390l718k582R032J8970J7073R191Q411J5147J7271R924L297O591J3588J0275q069l1906m6444m3268k6230
49769e1837p174O346J7766L1923M2193L6423J5995j157q97J1243J9017J3274m297k7549m7676n3682m1110j9591l794
49750f4584L318J0931K3116K9728J9633k732k1090k5603k0603j4104o850M663J9546L2535M0029M0789L2860J6620N33
49731A18735l936M184J2977J1693J371j1586k5055l7857m2656l1757r308R620J3671N280l953m907J579O645L693l040
49711A5393l822K283N260q62r072j1143r608r104m201J0805K4769J8274r121l3346l1789n975K4418M1471L9830K5467
49691G9927Q511o259k1929l8679m5090l0542m190J1324O760n375j1901j4663j9315k1516j4113N09J4340K3399K5978
49672f2824J8144r3j8763k5809j8059k76K0747L6171L6907K3422Q259J468j056p488j5007j4534n725L111P375Q754
49652e276P716L476M14M705J3757J7779J3186O505L021m94q008j5769j6872j0657k455M477J1859J9863K1773J0690
49632G9690p849j6704o546J0017J2768J99j0506j0700j2736k8052m6246m8604l3718j5975l893N840J5163J9355J6079
49613h2418R125K269j846J862J4476K3443J3041j2108k6518j3750J2829K6907J9510L779n315o036m989n157k880N236
49593b8540J5938K2207K2110K0979K2639K3211J8654J3861J5992K0704J4879n591k9192m2555m3506l7437k8294j7859
49575b1800q225K47R750K0143K6432K3871J2487m323k0463k5683j1783J4991L4531L2108J2905o775j6814j6468q237
49556D6894J276p10k1595m8996n8757m0931j0062J3609K4707K9026K7548J5316n028j9180j5564J068J5146J6819R116
49537b0298R43j506L398J3080K0214J7002M443n988n120J816J572r690k1608k2683j2289J589J0897J1156J992j1577
49517b2657k1068k1375j4350m500N526J3144J3647M103j1796k5206k7489j4308J1000L6100M6442L7622J8546L73
49499B3754j2793j9823j7492p219m87o604j7674j7071k216J3033J9690K3431K7990K3478L303j7178j4918J0645L5447
49480D7296L9358K4855N578j0994k3101k7075k0084o720M356Q625O562L8o833o931K936J5328J8621J0439Q5k948R68
49459H0359L905J24p214q732R9J0720R493m047j4267j0343j975m024j2123q768P613J6794N145j4943k3503j9542
49439D771j6906k0415j9589n398J6891L3959L7786L0684J9897Q974m235j9411k7205j8674r27P083j826j3655j3179
49420a375l100M983Q724J2762J6004J4583J2808J7687K4861K2917J0697j512p369r251q521m084j410r063k2956k7270
49400E0115j6201l204k399j1291j8772k0604j8603j2279q27J0628J4292P790m343j4020j3240o61J3144J4489M226
49381b1760j097R542K6769L2605K0175l708k7833m1449l7317j8936l38Q527J1703J6310J8555J0244n512j5996j5002
49362c4518q143k418J641O422J1567J3159O428q307k0327j5156Q061L1298L6658K5784J3267O877M125L154M435L381
49342H7388o276k0954k9614k8575k3918j8721r495J788M017q483k5823l3134k5629r256P228J6751J6693J2119J1868
49323h2026J8026K3622K2495J5421M865q447k0630k5092k2930k4266l2564l5850k2144L208K5243L8554M7104M8759
49305b6652L3986K341l0346m5794l8428j5134J2764L3867L9885L1067J7132Q915Q546Q364n72j7629k9763k3392k120
49286c2963J2411L947j7885k9533k3805j6477k1108l0287k8866j5185J154J5377K9604M2160M6499M0705K8805J3047
49268A7600n359j7636j2085P750K0688J2464n093r689K082J3313J3167J0596J6761K5004J9036k938k2994k4213r756
49249D8698K535N31j1638k1377k0845j1242K112J5198K5992L2233L0435J8413k66j5584j8507j1208p224j7843l9244
49230A169n5958n5940l8990j2653J3705L0530L1887K2148J3779J3415J4258P404l848q733n617m484j1534j9563j7743
49211h6768n292R086J6970J4794K618j4982k7836k6612j2632K425R020R540J3061K1979K7106J6927r029l6192m4697
49192a20514k6091O850K9135K6942J1565N135J3233K0092J3039L17l964k511q071j9558k2566j3844p157r539q957
49173a16464M918K2244K7291J9358P322n094j4374r151J4374L6721L4735J2727n272j0529j4792k1359j6323M856
49155b8812K4688K8478K3385K1140J8476Q154m873j2893j9229k8217l1956k2477q629m995r981j0094j416P951J3672
49136c7628J8742K2492J9597J0839L629P11k555r458j7961k4157k2900r395J0818J9045L632k0190k5155o456J3146
49117e3204J4380K784n553n350o51P212J9199L1232L6431L3203K5705J7795J0379L087m734j3919k3844l0986l0803
49098C2363k2613j3050j1782j9683k3646j0917J1460K2331J4764N883J0996K1573K2084J6681K0567L1844L2790J7865
49080A59510O49q951j5824k3607k5042j5959m741L40J787L787L320k344q342q921l633O756K0712K9296K1699K880
49060A33372p418r62O060m053k5762l9327l6195k4876j7805k0690k8851k8177p696K3305M0961L5576K2310J5963
49042C5735J1118l72q969l606M270m273k3104k6646o969J5785K2243J4573M273m628j3569k2518l0508l4676k7195
49023i9036l288K5834L8953K7063J838j8427k2419p468J8684L6390K8682K294j7332j6208n398j11J277Q798K1886
49004B2012K9312K2979M977j4728k4127j9000r696j0229j8372j7520k216J1744J0869M070O431J3783J0163m778j2998
48985B676l157J5003K3953J6219k787k0787k5479j3687K983P738l411j7760k0962j1077L103J2010J1887O520M469
48966a2546J0917K1411K7275K6443K3249J8292P215q138j6942j4057j0055j7689l2763l8476k7422r590K475O893P675
48947c5833O237M542R039K1646L0776K2487K46j7255k0190j8625k4168l1425k8000j5742q513j0405r405L667K0399
48928a00522K5462J5900L362J14P993J9553K6009K4074J6803Q191j281j1259j6288j0653J420Q102N580M115J3268
48909C9943K7041L0563J8105j847j6718j9118r051N583J1616J301j8062l0065k5759j0818K929P903L316o174j2578
48890a890j0454k859J995P20k804m618m113M18J1310K3004K2495N720j2882j6742r595j0629k6843m1102l2497j243
48870a12609L2608N0372M8348L3843J5652j43j0485j5136j5416j2328o306K042J2536K5416L7847M1638K9751P061
48852A64691j0158j0492j210K0j1992k1561j1477J2867K6540J3895j2927k9587k8070k0113j4522n090J2645K5039
48834G8498J5249r986k4297j4497M049R974J194j0865k1089l1574l9050l5837k2502p872L555J4036K3024K7031K9806
48815a1153L9215N0490M6719K3744J543l48J1189J4414K223j4686k8316l9279m3136l0179n057R504l47j9588k3309
48796a6357q586N432N730P6J624J0326J5872J2620M685j283k294J754R745J7589J7884O036j2509k4460k0910o106
48776A6868P927J3535J1082K944r605k2544k8848k6172k0356j6874j2885l229R017J4867J0732Q17j0435k0221k2153
48757a05533r796J0551K0638J1482l571o342J852N395M67O00J3468K7081K7789K0588J8990K1824J5261l493j9306
48738D7945j9960j1919q742j3057j8524k2527k6538k7710k0826p912L905J4457L0110M8764N6000M2603J7509m035
48720G9543j7515k4603j9284N562L8204N1058L1038l643k4864k4233j2692M97J3935K2169J3912j1729l7306m3541
48702C6508k9336r638K847P224P485L382q414k6329m0606m0349k4872o323J688k130o844k312J1692K8427M0361M1420
48682a6119L0016J3665M662O252Q001J5j3944k4003k8445l0374k5196n866J9460L0262J9779N538N200J2653J0018
48663B1574l817j1094k76J9306L0107K4065M846j8867l7200m2135l2682j5314K513J6429K2825J9534J2316J3645
48645B5775K7912M2050L9255K0392L009j818k346j1448k6824l4250k6954j2401K85J0057J7038J4720j552k1736k7501
48626C3663j3349P022J8743K2046K4695K6153J9764P094j979m502q670j8928k6636k2309r622J047P405J3973J9154
48607I4764J4424k231k0054k5710j5384L717J8799J8808L104j5657k3407k0515j9214k4429k6541j7400m054J288k034
48588f1726n619o249p611j0094q864k483M524Q517R707Q546O172P756J6812K5361J9504j618k0658k0774l442J6140
48568b6099K4744J8294J281j4371j6250m797M889J032j0139j4869j0678m932J26Q171J6598J7324J0944P269Q634N971
48548B3142l118o030N295J7928J4447j921j3643j6056k1198l3659l9383k5944j849J3881J3839N309k786o821o345
48529h4912l984n518j2385j6438j0524k037n373k0376k9620k1090l556O804P235Q104J7144L1160L9894L2881P820
48510f4771k1157k9449o295K9310M6332L4232R880n783p738m152m406j2030k0747j6392P747L6316M4299K7493Q454
48491E1143O470J4155J3070R83r400j1461j0375j1112j2940j4686j5295j0422J722J2377J0482q41o192K082J4875
48472B4635J9873J5628Q586L130q60n383j3060k5036l7391m2327l4825j6471O762K7701L9973M1270L5049K6356J7135
48453I0745P858N10m271r319j5107j6198j0007l846m538o133Q21J1782J3623N592J05K597O488J0155K1083L7037
48433A38977M0742K3780J283q808q512r627j3343j5028j8990l1031m2697m0379k7041j8533j9551j8844q940L864
48415g2678J1437J2704P711m797j9102k2209p619J7225M0327N5009N8334M8037K5663k279k8184m4090m1149j8364
48397A5976Q072J6302L730j0076j0093m095o937j7460k2456j6932q140k189K242O555P863M331j162n269q332j2417
48377f0487j7091j8370j1953J168J2530J3338N152j273p14j451j2690k8088l0321j2229J3511K8490K8275K5008L1573
48358c5622M5267M8878K9797k837k5030k3969j1823q769j7483k2558j3099L872J4553J4662R955N981L325O27k657
48339A3070o215q118m179Q518K5529L4385K4028k325k5388k5939m820J7091K1589J1220J37o923j6299k8449l2427
48320e515k1800n787K618K384Q72P05q77l409l008J181P865J8586L3408M3700L9034K1472L780o966j4173j9500j7866
48299G6704q964k340m268q962j0128j1572j7088j8602o826J1691K0345J2654l607j8831k6759k1140j790J6262J4650
48280h571m080j7340j1808R19L677m273j3167j8735k0576j3340O682L0078M1546L7322K5721J2443l485j9026k4295
48261c08j5274j475M962L195J553M668Q578Q632O939Q340J0827N837q713k0080j2793J0874K9873K6861N758j6455
48241F1799k8780l0971k5347j3723j882J461o421j8094k2790j6168l533M963L454l695o550j587M277L867j7J037R523
48220h9177J9727K5031K3119J5901Q817P959J2629J2619j122k3616l9402l9123k7597j5348p492k573K437Q880J5962
48201i2369K1514K3513K0690J1635l682j9160k2757o801K2004M6294N1943L6871R175j8657l4445l1312j2180J0629
48183A2905K2417J6568R12q712n850j751r563k3388k5075j1869j751n967j2553p810J603L722M752J6292K7837J6978
48163I697j3731l3993k4992j895J0034M825p119j6132j6992p618N020O721o035j7101q902J5406L6040L8667K6162
48144a938J1631M746L278k740j5135j8882J371L7138O0742N6095L2522N919j7963l5497l8004k5103j2310j1562j4363
48125A9945p858K136N01j1493j7376r991J245P878J2469J8032J9628J2179o52r740q614K768J7843K6507K2574Q624
48105A06605q668k5312l8698m3925l8162k6553j7281j1435l368R187K0219K1466J0872m592j3671j0497l32P408J0972
48086e5765J5208J8989J3522k959j7728j7243k584J3162J7440O379j1119j5847L284L0036L4605J2023j0163j1557
48068A9683o328j5400l0525k9427j3537m002o649p124R75P583P026N452N229K469K334J5469L5200L9638K2907L595
48048E4568n581j5338l5284n1535m5446k1497K7R470J2657J5424J6460J3230O067k282o817l699L824Q355R320J4062
48028b4015K6214M0290M8805M6585K9444O29k2377k3392j1771j3770l5258n2101m5247k5622j2369n485L975J2624
48010f2841J2503Q046O471Q08j8136l9712m2560k2629L737K1345K6337J9636O552J07Q965K3012K4690J2393r59q895
47990b1130j4490j5178l515J5251K4633K0208J5080J6649J4409m50j7809k2606j5929j0163r844q988m335q70l832
47971d2909j1787j8872j9926j3010j27J3214K0985K1543K0149K4326L4075L8682K8317P742q645j5764k2347l3777
47953B1869m1638l6772k1870k772K1080M5532N2829L1512j628j8120j3007m910l297K494J8186K9939K4401P395p534
47934A03689j6404k0693j8172r681n806j4163k5636k4673j0022M613Q888N747K586j98p900k0948k9462k2205j655
47915a02095J5146J5340M687l087m861n040K15J8876M2873M9755L0642K664j3669j7001j7149j6811j2261m272K031
47896a4017L955K211L54N579K0623L2435K2847l611j8909r137L606o812l0903l7187j7160O585J4948J2754J1038Q421
47876G620j111j4524k2845k1259j1015L178J4383J6997J1776M808J647M191R537R545r35j0819N60L3088N4689L7824
47856A27335k125k6256k3600j7134j9892j6524K086J5985P605o932k614J3620J3650q080k8169l0175k2425j5987p115
47837d6747Q754K2636K4467J9154J7746J9282J3110l770k1969l1787l2014k6508j9475j6006k0032k7203k4792n028
47819a50182K3289M2275M3221L1438J3937p545k7501l2496j7982k174p025k6282l0056o537J8092J3877j1937k5785
47801a59373j3372N017N812q658j9032j4185J651J8670K8627K6546J3850j155j0838j4547j4444r732k28Q971J3954
47782a42466J9620L1683M2576L6803J3213q707j1694j941J747m792o467P601K6479K9633J1986r872j6441o040N283
47763A8204L234q422j3598m647Q316J1791O708M299P237N940l858j0532j428J7997K9366K3480Q797j831m679l229J13
47742I3258N204J0188J1144N852m181j5444k4877l0473l0511k3927j2907l846k261n675m954M931J8105K4301J9363
47723C3290O595q699k1384k5944j9780o779O270J5640J9758J5977M854n047n360m72k487j2304j6342p085K797l863
47703c0365k4014l5380k2325N928K4969K0034Q1j1859k151J9994L3588K8282J1634m077j4264j9282j7725q769L765
47684d1936J5787K7665L8888M1662K7468p55k8493m2064l8229k3987j1283r386j6706k1220j3924q6Q617J0780J5331
47665f1871K4320K5607Q997j6379k9167j9925j679O354J330k340N866J7957J9408J0627N859J0518J1760j710k0615
47646e083k7067j9597j3090j5076j5631m538J2070J8817Q888j0515k6011k7023j1363J2416K9660L0742J8401L850
47628d0150k568K517J4401K3352K2142J2991M964L385M518J897n434j2793j4816q242P068K6052L8243L3354R765
47609A20646k1366m1460l7867j5131Q607J9446K0099K1583K6220K5231J1625j1508l5414n1541n3019l8667j7819l847
47591g4182L84M073J2921J9855J6038M028o311r699p462k698P40o29l601J995K0080L9001M3219L1088J3596p35j0301
47570I1400j3005o519L104M195n370j4643j5344j2746j5151j9882j7389m843J1849K6575L5640L3758J6894q116k4188
47551F6219k0087l148Q307L404j3474l0287l7293l0908j4636J765R597J0489J3722K1933K5514J5654l071j8979k5727
47532b1006k1022q90L1435N5685N0624K1396m480j1592j1069j5488j8093r179K951M375k239n990r762k3107l7315
47513b4766l0541r88K5207K6996J3103L845J779n871k2684l4776k7653l518K0355K7812J7688K457n947o140k157N318
47493b0481J6032K3401K0298R545r47j1318k6014l7606k9858j877K4042K7031J0315p901j6461j5966j0963p658j2010
47474f8396j9618j4868P362K5206J1317k9217n8296m7644j0130J9884K8079K9428L8727M6966L5918Q729q424J173
47456c804K2060K6173Q786p997o383O096J0616R57j3127j8787j0574N521J3879K390k1288l4027k3080J18J7038K2893
47436b540K2859J8542R934K460q21p359k2047l2465k3331j942Q440P70p384j156J1625J4208K475j4192k3807j8154
47416f3885J938K1778K2390J881j9939k3850j1014M029J1160Q997M33o956k480J5922L5133M0196L1327K0735J5791
47397A03586J2647M424j1156l0752m6330m9084l7906k2038j0759l563M218J0781J0941O846O444J2056J8882K4238
47379C475K8899K8326J3420j4651l8275l9312j8007Q474K3203K1634J0667P75k728m482j3249k8381l6212k5929o367
47360h8720J946p190j6394p163J5032K7534K0269P803Q056J8527K2184J1399m960j6524k1111j6951J053K7913M2095
47341B4798K7554j801j5784p233j094j7478m1250m2839j9719J079P7j2536j6298p177M275J0846J2763R282j387j3744
47321a07666j6516n329J1627K2189K0073O769r663j6535m724K0482M1682M6683L9709L1262K2150N661j5916k6664
47303F5274j4414J1049K3535O090l0965n9452n9981l7412j0895O137J2601J1452L918o305j0961n326M712Q783M141
47284g8019k206k875J509L760j517j1175j5309p578O382J3973R680M88m018k436l0r27n627j2723j9042k0514j6016
47263a64220p835K933J6122K5449K0410J972j1617n433J0702J3751j598j6888j5929l463P222J3113J8804K3284K0833
47244e2388J2438O233N325K866o640j5882j1358P690K2892J5130j2322l5687l6430j8312L099J8636K7442K9826K7934
47225i508K7364K7547J6440j2215m0884m3638j9475N798J3275J0408J1359J4607J0902J206o071q460q904o973n31
47206a7753P382J1499J1775J2098J4330J7606J9454J5140K699q874o265Q272J5122L641j1292j0613J303N167m377
47187H6314j4945j7729j6036j2937o092K330L700m749j5139j9591j7818j2905p614n438o787m417P755K1965K4165
47168a5968J4736Q500J1652J3168N116k807N03P930L720j3257k7882k7814j4645K184J3826J5258Q309K544O837J8253
47148C0163K3748J4402n336k3631l3031l4215l0627k3362j2637j848L746L411K823P280J5400K2135K5078K4264J8938
47129B6701R733J701p96p19l961r748j1978q993m893k108p37m659j8429l6422m4498l5679j6498L291J7494J8928K510
47108a19760k0397k4261K418M0017O0130N7315M6534L6540K2442L433q795n344N889Q433m222k1979k8460j7339R13
47089C3507J0518Q849P554J3122J5977O935m685k638J1444J9809J4164M361n96n277j5497k5964k9233k8005k9086
47070E259l0820k5257r786J0117K7574L8652M2068L8528K9171J3721o184k2157k5257j9443k0043l3681m7927m7495
47052h2960l2721j4184K533J6060K1063J5356J0932K1863M1193M5456K5475j397j4620j2679n325K696R221O573r969
47033D4566l0253l7701k7616q160J2955L1941M2008L6183J8935M203j719o613j7984l0839l5612l2329k9858l3323
47015a01216l7407l2096j3268J1996L0694L6107L3197K9294K3202J0036o175j5116j5745j7898k4555k4015p555J4060
46997a06460K2184J3618K867L681J6318L1473M0034L9520L5309L3691L1456J8539m610k1247j9171r547j2005k6033
46979H9617l2346k1432m887M047O399Q230Q307L083m913j1359j6415k0927k2434j9888j6298j2663o352M51p14j1492
46959h1986k0411j7226o406J829P189J6546L0082L9665L8105K3023l747l2050m3823k8907J492K6494L8160M2101
46941C0130L9597K4658P82j5157j3937p786j3163k7026l1267j7804J220R512M885k286l925j809j154k095o85M922
46921b2388J3915K6150L9062M1723K2181j4206m2813m4897k8862j7178j7515j8638j1414L88J0690J8361K0626J2608
46903a2207q09n006M526J3121P165n967r279L45J2124J8917K1237J7739O681l722j395J0661J5369O077l586j683L389
46882I3697j905j1987q592J1592K9803K7430N244k1432l7866l7995k5992j4057j2209j7113j7073r914o380j1229
46864f5978j2483K51J6464J8726J0742J2949K8892L5250J4385j8218l2792k1943l752N777O995M418l251j5973k7557
46845d7098l4665m1296m7585m3711k4527k909M299O91O909L0749N3173N1526K8261O804K586Q304Q307j365j1671
46826e3218j3903q473j767J359J117J125M633J1997K0820K7166K6520J6726K970l360L116J1900P215j0038k0633
46807B5272j2332K905O225j959o153j308J687l703r302p007j389r53o385j3492j9060j8804r129L711P294K223M525
46786e7134J9816K9997K0424O396J1955L1315L5752J6340m920r634n469o520j1923j5425j9103k4443k3433j1939m42
46767a8390J839K774J2425K2015J5291m587j7371j3167j213R026J9327L1459L8381L3496J9898N288n582j0747j1503
46748A28659j5816l2029n4416o3291m5818j1033K0459L5309L1731J4329o301j5235n925J0361J6559R602k87p653
46730I205j7184k9278l2871k0153j31J1326R948L360k806q829j2391p670L565R238J857r653r984L856K0271K7675
46710e0649K5339K0384J9375K2910K3954J2362j2837l5643l5417j0305J7999K7562J8871Q787P229Q562M157n922
46692F6718j6015k2523k4982k4309k3092k2850j8240j45K9220M9501M0471P286k1189k1800J727K8744M3355M0502
46674A12379K0495r755l3258l4192j5817J765M492l323j1625j8562k5257k6433j6663o80J2314K0721K7322K7906
46656C1829J5418m874j6682j2399j697L302K404J920L148L534L722N824P546M447l212j0696j4905j6504j6732j5350
46636b9957j1547n094K792Q622Q205P83q720j1999k388J9273M1159M6768L1060Q639j059M374J1078R987N510J099
46616A28585j0018l0963m8235m4379j9483Q881K4253K3106J2572M272P167J9115K7885K5751J8116J1995M253q387
46598A54486j5912p091R150J2046p28q609J418J6834K0539J4604J0342O302p412k8153m0424l7167k8033k3014j8976
46579C0202r020K897O154k43m533K248J3638J5585L940j1450j9375j7876j1153k799L527K445p287j8142k1413j7285
46559e9940j1356m318O661J7920K0407J2218K070j448K860J2159K0991J9078q1k4757l1898j5384M816J0398Q707
46540a0897J5352K4576J7281n830k0927j3941K048R270Q379Q205O456l777j6404j7949q342q88o14K101J1162J2528
46520A7789o030l1792l8817k1119m14K477p751j1788k340J0164J3988P976j691p135q81J7864L6075L5158J2215j3305
46500A0643k0415r192L846Q456J0384J9596L5924M7633M0025O353m4053q7327r9763p5321k9821J1166K9739K6706
46482a15421J9292K4446M0366M8134L5246J1535m689r580j2308j6039j4744p976l524k478L105J1788P147j8765m7967
46463e2432n5145l6334q461J2137J9362J3350R66m225M131J4806J4920J0577J5726K5336K0423l3j4189r801p76k032
46443c1694p355n354l04q84k169L149O421m430k1050k2938o125J4193K7021L3536L3098K0583N87j2332j2045n968J15
46422F055O934R066m380k9115m2370l0561p407N428L895k083n728n008K867J5520K1055J1537m539j3049j1574p173
46402h0630l903j985k149j379P515K2227K7164J5587M029Q558J7830J0808p228j1869L28O854k014o905P537K6955
46382C7330L0163J9627J1609Q866J189j4182k8142l1808k2341k002J9074K6091J6134M805N394R036p26k0339l0733
46363C9045k7037k4853l3181l8250k3607N436K8542L4813L0040K3082J5837Q184M249P657J3198R600o951k5534l1132
46344I138k1688r718n973p041k475J0850K7212M1390N1835N4977M4612K1066m124j8378k1127k1527k3619k0324o140
46325I8946R409R486q707k8648l4349k8041k1669j7535p997Q328K1789K4555J8200O295j0542k7644l4138k5438j1427
46306e9127m461l547J978J5951K9924L3684K5725J2525J013p013j3608j8728j8497j2251p153q817j0256n27J6237
46287b6948K2734J2212k373p952p113o967n890k429n051j8112k7274j5826R147K3387J6799L813K331J4587K8891
46268G966K9903R018k3794m0789k2961J4576L7381L1892J5842P831M777l620j4543j8159j3934r629r631j2248j4102
46249b4224j1804m339K693J415o559j0077l446O585J2195J3270J0761K358q730j1756l960K063k848p587L962K7119
46229a2909M0338L2730J4637Q42n353r142j4511k0742k3423j8057o848j90n260j4876j5196m010O643P132J675k11
46209d6731K438J654q518k4242l4562l0611j3126Q229K2737K5874K0423J3680J3337K1292K9695K7929J5889N252M388
46190E5027Q142P409K146k734r039k2452l9816m8965m2350k4027k999J3361J9485J4003M656L486J2852K1173J6675
46171a3967K031q432m436R673J9084J2532o174k0436j6373L774K4624L2504K5874J3707O739Q380J0750K008j8713
46152H3149l6594l6365j9645j523P253P491L423k827p452m709N637J6293K0745J8989J3643O036j739o256o461l603
46132E5485K890J3434K1909J9605Q136N87N693J7805K6119K5992J6581l435k9924n0168n4577m7078l6650k4510q285
46113d0391P203J4712J6169J7368J3600n182l3722n0258m1713j9268k332L648N481O601M178r13j124R280K7617M4989
46093b4057N1958M3335K1645l625k2520l0510k8103j8369p303k525o388j1972j0348q11R944J6971K0048J8506R907
46074B5783m027j5395j7640j2773q503r738j4352j6120j1132k164M101N771Q944J7922K5166J9511M492k155P987
46055E678K1208K1244J3126J3907K3508K1610k396l0666l7908k2719o332l373n633K130J8669K6341J4216n092p614
46036E9904J2708L3585K9072P09k4953k8714j6659k860J1395K9695M2478L4664R540j1505j6150j3698j4985j4717
46018A19509n178L693n625l1722n2995n3965m0143k3986r005N299J3527J0495K141N9P166J6713K3207K5399K0063
45999B4652L933j6098k5603k0566j3953j7673k5429k2116n117J3179K1394J8852J0666J877l100k768j467m056p673
45980g1066n355K497P836O511J847m159j3517k3228k3784j2526n8L405J121K017O218O738J301n506q768n098Q432
45959a25142K9362M6012M6128K9098N114j5097k4653j9359q59K0385L2552L2923K6216J5690K788p158p954j897P22
45940H4871o899k1038l1597l0637j9230q144o536p561M928K9312L9283J7660j4477k2317m053J0010K997r443j0247
45921c118n846q195j2787j0308n020n333p224k101P645J4436J8485K1705J7154m83k0012k4393j2753J055Q205J0722
45901a8166J1315J0483J1073J3434R025p976k5165k2816n81K0471K4291J5535O278l27p767j6856k4349k5553j6521
45882d4172M04J3206J0075o438k1606k4602j5917j170J3491K1766K2887K5053L2800L4484J6637j1027k2642j0787
45864C2442L757K795o058o254K998J1272J4524J5067J2190M424m721j2131j9598k5858k3241j1043k310o398j3813
45845c1956j0422J574R783J1139J1183J0512P101O612J4218K0123J0367r932k1480j8243j2050r050j148J4421K5922
45826B8674K5348J9444J3828K554j5280k4443j4684r57m600k1573k7751j3349N518J1495P148N472R718J1009K297
45807A9868j1396j7761j1289r10J77p746j0410N4J2829J4038O850M705R462R615r79j5306k5089k8219k2476n202
45787g9185J5816K3804J3512M16O03R820J2545M987k600l011n25l006j3383k7770l5731k6331k089J7557J7259O155
45767g1157M140J0898O708j3530k7586j7871J147M172p570j0147O267K4348K5665J2685j888j4201k7064l6199l0716
45748a61899p733J9653L1957K1194l57j1153k732J1575J4699Q479R071K1783L3441L3385K9105L2041L7714L1987
45730A52210J1994j0730k5586l0885k7929j8039o433N79M113R672J4323P641j0036k1235j1807R507K1520J5856K114
45711H6849q655j4249j5205j0161j643K245j978p035m728K648O695M460j273r809k1576l0109k5391q608M793K883
45691d9847p804j1821n333Q84k221j0113j0923R34J8938K9359K2083L39j9597k1750m563J9517L6629M0505L2290
45672E7506J8634R792J1812J8162J5103k073k3720l8575m4517m3224l3052j5179q10j911j5907k7479k5740j3382R39
45653a53621J2654K1743K7995K9055K2434R547j681j289J2377K8620L4194K5963J1474n58o947r682j2538j6309j5832
45634A7599o137O551P699n954j8087j3234J860R421P335R470K1529L3091L5001K8806J5646p385l2854m1538k6976
45615D1843q668p464j7653j7928l134J0576R694j884j2950j8345j9146j7014j1671j323J3695K5638K2754L285j8747
45596b8442k8047k3685j3829j920J1381J8247J0152o075j1561K644K6322M4218M9822M3689K8566J0074n592j7733
45578A08231k8345l2788k3060k932J0644O548p957j8432j9366j4188o925P9N730J2044K0640K4578J2636j2789l1438
45559B910k7263p718P182Q156k72j2952k7426l7015l3746j9892p117j794J404R283K0279K7672K7860K2583J5458Q283
45539b4125P9r760j7384j6911q201K636J2612K4823L7576L9026K1584m550k2650k9078l0236k5514r441J0382J6104
45520c3028N262k928M531J4912J0290m618j1161o284n311j5651k4342j7435Q00J6607K6046L4347L9726L1081O231
45501F9075j7117j8244J389J9017J7369J882j1260j4283q478M474K0022K5612J2684p411j3495k095Q659N450m665
45482H8585j1004j6206k5470l1615k5432j2840o819p128k588R115J8096J8298J3662P408j878j1251j3116q217p485
45463b5885j4984j9159q678J0911K4453K5595K0090J4868J1714R839Q255O007M064N769J2139J8554J9173J2494N06
45444A35725j3642k4245k5047j8496j7670l0327m4262l9323j4563P363P236q166j6883q291R136K1929K3814J5053o33
45425d1292j5927k3454k2547j7662q911Q225L0325M2365L4682J7085N880J878n967j7700j9628q081L6r416k5554
45406g5663k6341p710J3931K4414K4530K1447J9144J8567J8197J3369K705m796K268K1666L7622L8013K4327M883
45388A70573j2676k1708k0161j6335k0839k9822k7103p585J2544J5650K830j2853k3207k6269k0260p586J344q52q323
45369e2638j1603j1021j0132l087J6477L7367L8192J5112j0928j8783q921L168N910o65q786r302J091J5611K3902
45350A0964K3690K0988J8744J2334j483j7247k5649k1830q023P437J3479M434j3911l0415l9442m0038k8350k519
45332a16837K5228L5631K7024K0440L1542M7618M4137J7644j0526k1428j7942j5506k2084l1338l1623j8607P5J2238
45314b4314J3990J3594K0722L3191L6956J9877j4550m6932n7144m2601k0251p680m908J96J2091K2786K6364K6950
45296H337K8324K5316J2078p907k5529l3921k9092j1162R686J7657R738J354N140J2909R817k071r143r694j4554
45277b717k4988k7529j5739k725l510j4676k0296j2265L056J5468K1487K4151K5751K3009J1760l126q290K158J5667
45258F646J4785o91j4596j6271j0775o177k748M73q00q174j3546q305M939J6530K1789K2185J8053P666p148k0100
45238C735k5385j9937k565K3630M7721N5427M1396J6226j907l925K885N510P46m385o816j3822l0669m8635n3459
45219a4229m2020k3073m998Q317J2839P370O07L377J2386J3256K390o330j390J1149J8459J7058J1444N912M671J1281
45199D8476K1022K2413J3027M110K366r92j2720k1579j4503Q64O379m77p934j1927j7557k0938j0472J1011K4542
45180C5111K1397J4483J5988J9375J3952M061Q15L459J908o568j3887j2755m454L451K780q615k2023k4078j1796L453
45160C6057J0704J1294J0761P168k726j1056m942J4830L0819K7444O861j5103k3839j5781J216J4207J4405L113j1119
45141A04313k0708k4061k4613k6940l2492l7282l5061k4489j1269j674L393N996O523N104M586P208J0213R902Q942
45122g2409J4044K5460L3775K9722J5000J513L24J1226K2043J9231Q75k1669l6193m1062m1598l8880k9163j4065l413
45103a25239l654q380o043N043J4850J4837Q190M977J0670K2315L3546L9443L7399K8211J7941J4089J6310J3861k844
45084A35522k9023m8179m7764k8802j517K2426L3173K6464R192l779l952K323L940M0j104L994Q645N679l415j1574
45064G2289j4488j3026r930o919m215j519L02j022n938j0009p543O75O756N333R29J673P426R652L753m120o080l968
45042B0011o137j4821k3016k4242j9177j1018o87R815J5251J3613J0304J0289J0633P337M550P386Q849l393k5954
45023a0407l7766k4724K454K1433K2865J5699J3114J9390K7970K8022J4880l935j6028j7422j3258o328N289J7690
45005E8938K0584J2694N876O397M697n708j2418l039J0624O833j3236k7733k7366k4780k8110k6656j1117R997K4621
44986a8902L2917L7487L1758J2456o821j0429l010k131j1985j8837j2317J226Q033l75k4158n3628o8309m9806l762
44967a60593L8180M7328K6521L567j130P657J4151J3001R461M695p003k4796l5616k9103j1978Q92O023J2554K5208
44948f0981L6330L7198K9022J9244J3401J3552J8349K1588J7253Q795N868Q097J751k0118m2984m6960l1882j4329
44930A3194k895R563K7414L9663L3634J3188n671j3864j5828j7929j8662j4300q740j0482j9798k5435j7555J10J4824
44911a9569J8169J0177n682k3679l3934k8965j4006k719o4K878J3872K7770L4917L4157L0633K5803J6364J86k1057
44892F5251m1965n3386m8025k9739j1323K53Q660J4707R930p343k0571j3478O611J8425J5878J2652J8794K7316K6628
44873g25J4597k878j7831k2402j3574J680J2506J5416J2592K286j7444l6478l8264k0963m69J2115K3451M1689N8384
44854B3688N6890L3099O84k0688j9049J462K1908K4715J1879M01j637l552j3209k3539k6470k7413l3148l5502k3074
44835e2555l323L995n356j4200q246O848J7035J7771J4443J2815J5334K1459K5961K0996N569r607j2239k786O009
44816E9923M505l003n067K366J2389J7222J6644J4452J1522O740J127m581j3533k7020l7186l4069k0028q469o716
44797a2782q932p935l818K880J5216K9714L2591J6515o016j7102j6181j7028k5235l0337k0590L161K8553L9883K7740
44778C0297n64k1446j6162P539K3465J7344Mj0977j1827r514p315k183O924J5100J5926P313n978j4706j2795m182N37
44757F800m308j3662j8306j4102l751P227J3983J4408J0235N156J053l093q558j5068k1482k6280k7065k1485r245
44738a27543P458K4534L6186L7034K7233J3996M707n83o530j3418j5323q813m33k384j9264l8900l9566j1700K7287
44719a06022M6866L5655J3784P684J8696K5254J2507j0486k3524j6827K255J7476J5968k781k6184l7915k9803o000
44701f3397K0962L7264L6351K4546J4214Q343j828j9747l3422l0964j7733o294K871J5423K3838J3210j3257l2958
44683b2578l1859j8000l426J0270K1747K2777J2358M185P935J4307J0597O89l617k560n576j4290k1584k3679k1605
44664f3909j4933n172r10p366j4617q919O971J7790J7951J5159J2330K158j5644k6162j7265L361J7628J7887J1123
44645e2539O307M405N62p091j1826l368J8447L8009L8921K3956J1849J2703J5703O075j3849k8333k8619k1169j6361
44626f218j6378j6662j4785j3386j4455j3959n642R178J9192J4455q12j1258p117N843J4458J2803O045K374M892
44607c1432J0889J5620J5208Q110l340j2546j2481k100J2102K2485K6764K5981J9125N609p915j1120l268L831Q65
44588H2387o425n665N123J5701J6810Q897j859j0856j7765k4901l2480l4342k2361J294K1005K2974J0674j121m434
44569B2656k747l22L146O817O942L763L151Q046J3554J2976M476r207k2523k8154k2639j2027n305j510P971K2150
44549A1214K6523J2908o603j5575j5670k0311k9451k6052j553K7750L8289K6451R193J404K655O440J1691J8644K0335
44530I8282Q321j3759l0747l2550k3983j5311r161j603Q725J8662K4868K5030J7513N195l320k878l85p455k5078
44511D0366m1805m6528l7227j8628J359J3780J5641J4927K0009K3979J1102j7827l9020l2626p042J3396J7863J4736
44493e3545J2111O459o488k0021k2864j3689l415k330q104r184L67J3220J8647J6299J4248J5396J4421R466P353
44474a1653J2367J7864J6048R767O373M662k403j4228k1707j9981j3414o210L565J6871K7133K6018J2950m406j6687
44455D2929j7949q306M734J0278M123n765p377J844J2809J6180J2002O170P17p902k1272l3694l6500k6642j0148K323
44435f1446M121j329l651K576J0137P966k971r687n226J675M45n477n072L750J3818K0027K0112Q786j4376l3065
44415d8887k7745m389P284q207l1278l4686j7672O87J0231J4675J5318Q521k091o676l300J789P345J6719K3980J6633
44395f1749l167j5352p905O664J1163R169J7172L7323N2474M8051K7258K580j8224l3083l9520l4577j9528p55J4260
44376g746K0603J7209P202l076q046p645o987r586j1663n725R757K6739L4880L0336J6251k201j9893l0868k9881
44357A9660j6286M681K3895L1586K2456J217j9275k9511l1176k9979k4802j1796L076O968j532p779j707N962j391
44338e5733k0894l2491k5372r201L098J0517J5507J2947o9j1124m519J5091K5653J6573J240m118o94K514O287J5579
44318c9209K4217K1381J0620O487J1050R068q175k7519l0973j8901o889n307j0245j1247j423J7356L4069L6419K3829
44299C4608R468N332R134J0330M272n582j5348k3103k5437j8608l901J1933K1640K1235J1748J04m512J319J2222
44280E6854J9815J8009L322k2098m5128m8511k9296l738J1373J5003J4416J2135R436J3028K5491L6004L3554K3624
44262A43293J8429J6106N215j3503k6502k7601k2788j5047j534J2009J1681l930j8285j8213p828L096R941P511q806
44243F3244k7301k3283P730L5163K8813k281k4791k5890k1362k2704j9793j806K3374M0854M7170M5708L2403N03
44225A55751m0828o5181n3704j7622J1120J2311m720j7486j6742r604k579N674J4798J9466K0423K7033M0548M4640
44207A23298K4119j1893l6892l5915j8322j964O477J2038J8175J8703M439k2876m6375m8014k6673J687K1236K7700
44189H948K3422J1049l336r314j493J3931K5825K6750J3639j1121l4940m1147k7385r995k920r49P227J8575K0928
44170B7694J2510L414P10L437R265J5242J4627M093p894j0265m284J164N765J6349L1067L8916L6247L1375L0263
44151B59695K8046J7179l875l0258n1383n5155m1622k8160k8853l4341k8349j7558k1512l4730k8234L980K9192K1901
44133d4037Q8n090N566R577K162l138m353j2840k7272l1588k1014q182j91R848K3891L1274K6930J9907J6382J0532
44113a548O05k776M656R213K26r992k964J8528L5985M1312M0687L6619K3987M190j2689k2578l0666l7261l4525k2446
44093C8563j3899j5388j5252k536J2652J2248k714j4547j6319j9138k8615l1517j6314N739J4322P370n96l517q910
44074i8368j5637o395K5211N4223N0231J9047j257J0753L3083L2656J0511k315J1219L2355L2299O465k4574l9760
44056A29747l4584j8554m867j761p162j1131p710l509r222k2913k8668j5395P744J9814J0797q353j8839j3866l020
44037d1452J610m92k11Q044J9881K7157K5218J2969p410k6656l1214j7726p54K657o147j1715q392p756j8695l1466
44017a12550k9132p843K1387M5247N5281M7838K6325K431j1818j3741r028m212m196j2379k5918l3212k3697k21K3510
43998f5928L6507L6342K4094J958k3042m0022m2498l3422k1713j5457j5725j3610K205K8599M3921L1139K795r972
43980g3829N026K7175L1479J8375O243M435O668O429N159L994j284j2068k0765j9418j1419q556j5960k4700k2022
43961i5038o287J2073K3306K6822K6163K1791J3410M793P8k249n801r027q000m255k293r84L569P568K793q418j3400
43940a3386q556o341j5738k6878k5554j4243o403n822n257k246j852l002L872K0932L5905L7600L0232K4642K1576
43921C9481J2830l164j5860j4705j400J2945K0211K1773K3438K6743K6702J7338j727k3846l9344m1235k9041q346
43903B2793J2987K7756K9505J4442j2156l3875l5314j8795l683n657k0294k9963k2731j294K1899L3435K7034R038
43885A5127o138j0412r227j0438j1922q043l470q416k0639k4512j1459R105K3871L0449L1287K2927K981j7673k2623
43866b9225r816O502J4635J6358J6451J2009m80j4514j9628j5484j1133j0495p207L306J4322J6425J1467J0685J9257
43847B3435K8647K6387J0162j0001k1681k0760j3404q654q872q295k011N946P559L061K068R892J8126J4341j495
43828E4451j6102j8415j1144n414p223j1592r270J992J3260J2617j667j8032k3606j7356q762n606p656j1191j3588
43809a04304j1900k282J5362L5291N1296O1253O3489N2953K7253m499k5372k6165j4676p633j4737l1314m4385m4000
43791b4370k9454p206J4303K6671K2290O53k3888k8845o988K0418K3973J55k4638k5815n894J6018K8090L0408K5984
43772C1865J9979K1728L3280L8945K0546j6814m7345n3852m1781k3711n591P802J0348N763P085J5852J6084k9j5222
43753B4932j0939M797J1304O830N593J0186R437J697j704K142L099k225n136l131m132p319l48J5966K0976M495j4757
43732G1763j5861m172L743Q137J8149K7092J9449j747j5939j3332m466j321n233j4449k7367l5257k6916n466J1915
43713a1278J5279J1184P043k88j3130k2289j8343o463o4l658r813j0185k785R852K3221L1396K9274J6065l576k0806
43693B0636k6067j5443M664K2206L0443L1927L1459K9084K2100J0452k784j4571k3498k9374l2154l0467k1664n731
43675A218J1114J9982J7727R830L973K452J414m062j4917k6768l2725k7628j0472J4825L8444M7029L3718P653j2391
43656H0416j7246j5263j8022k4302k3736j1396P260K1995K3829J1086n144q628J635P013m862j8843j1847J2760K8962
43637C5667K4388J3167R614Q932K290n399m396M621J4548K1633K2130R414j4591l3283l2186j6210p30P507J0373P423
43617H4912q21m012P301K2850K0405m326k8982l1741j6720m826p200j6447k0242j4843n282J678K372k666r276j1451
43597c9317n112P389J6573J2902l107j9232k2275j0461N605J3238Q241k974r850o755L507J4521K2339K4545J6987
43578B6764j793k3098l2911k7064j5258p134j685M590P137k32j2877j8552j1242N257K4745M0892M4592L0119N987
43559C8237r571p171O425K0764L1472L3876J9186j2047m0143m3937k7057j3941j8070k6828k3405j1283n207o059n72
43540i5331J4985K6962K4968J6701J3328J1438K557p048k424J5418K6520J7626j286j1766q456M95O457O193M59o180
43520E1616p642l754j750o233j2265j2338m800Q511K5280L7429L1952P527j6552k0466q807k345p807j1348k963R322
43500E2567J5562J8841K3476K0393n83k9447m2542l1174j1636l375o955r545m826Q95m1p055j4061j6292j1724M45
43480e7077J8458L5661M3104L6239J8925J003q241o443m47r60j1704k4016k5421j4116j651J9q981j8753k1531j8080
43460f4012j3476r847m832L521J2447J7842K1719L0626M2617M1990J6838k0428m2306l8423k6107k3042k2692r467
43442h7032J1908K0361R878j362K107J2231J3077O081O372J8328K8172K2780O416o001o645k59N145O889N939J545
43422G5930p917j9154k2939j2122R159K6188K5640P817j3331k3033j8555r050m086m741n494j240Q942K1132K7270
43403F0416K0396L395j0675j1926m874j079l448n015j938R52j175o239r305p662n66R924J6808J3883N286J928O358
43382G5444R402M639k417l852J59N285R788J2683J2663J2933J7973K1596J0414j3773k8541j9165o07K430j2630k9523
43362H4901l8727m1315l4319j3686R792J8045J0770M388M356j235j5840k3622j4523j447J199N16J0297K4828K6291
43343A0669J2585j51k037r35o526j5020j5849o857K594J800r936k0933j7093L234K5429L2459K0996R03j7996l2113
43323c4777l7878k8667m477J9574K3621M605j8384k4906j4985l912O56N541J5588K2991J9779J0590L939p72o253n026
43303e3153J0859L1475L7104K5733J6534K1371K7457J6857q070k9368l6797l5730l4106l0151j5828R866L3559L8045
43285B5657K3253J0840J9170L8275M2097K4000M547J158O084K622j0391k1327k3478j8877j1241n143p095j8471l1157
43266E0523l6645l4457k6792j3460Q24M346n430j2394j850J6347J9472K845j6303k4259k4477k4368k3770k1519k0499
43247a91866j8932p332J7024L9640M2471K5146N366n90P976K0333K6408K2903J2251N10m259K867J6433K1655Q679
43228D6683j4503k9021k5397j0740M318J6339K3161J8451J590j4386j6567j0346j2173k4980l2620k1730L60J4827
43210h6734J2886K782k121J987P271N643P3J021J1694K2652K4015J6697O518n659j9429k6275j7455R02J2199J0182
43190b1151N200P201J2558J2426N647k922j0396j5070j2041K409K2993L7870L9776L1285J8732M566j2125k9551m1124
43171E6283m1166l1307j8892r004o24Q902J8243K2148J5564j506j9908k4091o435J9866L1045K0045N321O289J8885
43152F9658K4748J7261N649k779j0382j8641k2516j9055j2781r125r416j4116k3154l0542k6582r700R156J7196J0915
43133e4206m012j8171k2908j6264o445l388n332o44J5351L2829L9505L2528J5402p676k8003l1077r604K3987M5872
43114b256M2632K1663R16q070p525o888j1046j6504j9150k0733k2939j9900n901J1221J5611M350p630p141K857J3115
43094d3318K1083K6570K5144J6689J2200J9212K6117J5575q210k0152n345K1837L4424K0837p896l1742l7694k7642
43076E7689j5716j5106k3773k5834j0103J5301L0507K4958P933j854M602J8125K1349O789j5527k8794k6092j4833
43058I621o614o471j1623j5901j3243q55J7051L0490L2627K7011K2702K2532K0246R932o080k0691k8716k6921j3122
43039D1975P323J8123O287j8821l1625k0483j975K465n612r117l464l78m675n096N285J4615R493l264n915L738R070
43018G949j184j7315k2037j1828J972R532J2593J7286K2672K1249R848n092j5405k0594k5035k8247k4360j2053J412
42999g8637Q956J1814J4726J6914J3493M705k136j530K906L099k832p868n408J472L871k12k635K711R804Q616j33
42978A696o209n435n685j4540k7038l0111j6457Q133K8740L2146J7773r99r927q438o793j0181j3406j2488j1993
42959i1212j5750j8117j2051j173L807j118q601p611P698L3740N7648O4641N0537K6191O582k657n945r341j5767
42940F1501k5113l4103l7454l2483k0971n923Q719J4079J186k4089l9130k7373J587K3494K6623J7745N944n860j3916
42921a05537j2232k206O624R568J1716J6749K0346J9026J5522R720n101k7699m0267k7878j557J2608P068J277J2753
42902g9500L2623L9215K7815J4876J4099J8944J2913q511l1776m0274l1849j9499j5359j7088j3512k308N150O65o299
42883i9675q68J3332J5792j749k0003j5274J0372L3169L6906K5944J1794M07n192k632L453J865j1477k6424l0526
42864f0786k2463q836N637J7520J9517N702j8103l5569l3727j4201Q344J7785R280o914j5494j0360L009J7036K7213
42845i5410K8335J5463o552k2127k0176o026O576J0810J0163J1449J8908L0668L7813L2384J8844J0131R582O715m514
42826I3036j5507j8715k0763k8495l3793k6783j4084p545l155J0058K6677L1570K6570K7639L4980K9983P500j2147
42808A07026j4247j2571k6039m7768n4616l8684j3729M538J1528J0456P423Q850J5875K2096K1770J7196J3446J0358
42790D2908N219q33m977q261j4122k3705l4955m2408l6949j3602J7094L3854K6679P283p316j2974j3144n385J4455
42771g1139L9093N2939M8318L0715R177j0900k5739l1242k5360j0483N786J2544M236j0082j3638l281L755q122l0814
42752c4237m1812l0842q055J0778J7677J3450M497j464k439l154n246k885N154P720k650j2636k528K4681M4141M0048
42732B0198K1469M778n814j4755k3535k9716l0689k4193j0851K559R754J4632K4402L3260K6817O008q621m559M218
42713A5362k589k3567m0139m1078k9308j0285J1559K6684K4977R251n770j0900j0997j3258j4812p408R453K5566
42695h7259K9838K0662N961n900j3298j8447k0202j4936m364L719N100M119N908R198J1087J3185J6819J6457N463
42676a6890j3235k8241l0770k0886n270O800Q476K034j777M015J4233K0598K3744K7754K7450J3589r627k4785k2472
42657b5260j1882n379k094N770J7263K2534J6214L698o399j1870j7626k7635l6594l1799o924K6726M7786M5257K7825
42638B9611J2285O963P721N554m233j7534k4890k1550j2769n466J807J3109K2732K0137P216k300l463o188j5363
42619A3379j9901j1563p09L16j861O336K0867K5396J6382N056k556r258j1514o94J7887K6220J9325J1754J1642P031
42599A23535j0849k7942k6644j2286l893o852j0929r847p281n920m252l138m219l417L270R719O668l132q568p565
42579a3542q254j2894j4021q139J2R308K3709L6711L0139n47l1657l6326j7545k315n739j4708q713J4612L9862N2181
42559C2134M9096L7336K3848J0917j947j3459j9609j7994j1453n530k870j724M55L803O415O489L503j577o185o618
42539H5030n07R627J6066J1740k668j9078k9708l1832k4748p585J5553L2429L1857J6203m66p739q216j0725j8199
42520E7034k4756k2900j2136m34L690Q37l62M771J0524R812M167r97n548j0369q961M152J8296J4669p257k5131k2211
42499a3110q254k525o466o047M724J6356J8735J2266L006m522p901o823m443l702j646P223K0986K9385K5497J3761
42479H6500L193l896j1690k0613k2844j1610P517K0008J8271Q720k38j0472k5996l7760l0379n473J5228J6470P769
42460B705O751J4497J8977J5327Q875J570j0209k3769k8372j8875k689R679J4263J2300O167j181q085j6018k4342
42441b2429k4949j0760J0605K1664J5923M480r55j081J42O298K0048L1166K5254K696k0425l0100k5971j5820o430r59
42421b1603J754Q096K3849M3434M9825L1373k995l1028l9924l6373l2245k7246j2805J0434K9363L4900L2834L2667
42403I4310L2751K4465O859j1604k3825k8380k4908j4795o292q420j6613j4150O358K9847L3498J0710k3959m9442
42385A6410n3687l8759j6058M129J9572L1215L4532K4111O410l501j998j883j0159j3069M378L2962M8166L9831J8523
42366A41125l680k2081l0126k0253M00J1134L283p729n250N084O197n086j7116k2571k4706k6250k4898k0989j8646
42347h2158j6613p270J1340L0347M1094M4389M3474L4233J0857k0537m1700l8782j6586N512J1637K905p143r513q625
42328a3139j2149j6951j3187j401M905j911j1628j1323n236p472j7874j9317k072K1485L3498L2395K8560K5031J4992
42309B7206k702j7333j9360j1822l997Q36O083J3361J8670J6892P812k666p649p664j2349k8021m3447l7046m110
42290a07306L1260M1110K5860J0113R148J4089J2281O039K635o12p541r022N677K7535L4816K1945N343k468q477
42271A12425k1901l6074l8708k9704j7139l993R119J5701J1671O298R878J4506M085j7479k6824j3645N485J3566
42253b733J6390K6616L8363L4831J4505o621j6733j8077j5475q638Q82N903K128o091j2195j4700j5886j8408k4784
42234b0723l4275l8152k4727O163L7864N0336L7001P123k3477m1140l9930k5102r449j761o21j795o263j4383j7203
42215a60514m707J7037K8503K1052R057J0055K0360K1304O211j0859j4684o897j12j390p151r961n631L590R639N623
42195f9475n473j2965j1264n111L76P569J9320L1150L7110L7396L3370K2036M083r930j2599j2428k0384k9139k1748
42176a8106J563K2095K7929K3462J3314l875k1622k5949j7536j4344k2171k2291k672J7267J2638r820k2192j3887
42158g6197J408J1822J9317K6606L0115K7710K0493P615r130j9055j4201l814l196j1963j8529k1242k6594k9400
42140h8235j6720P005K0275J5237P982J1132J5659J0449K513M055J2206J5278J0491L935k93j572O16M247N019M022
42120D3301P040J1845O910j0320k4846k2484p517O546J4291J7021J3701N095j80M141J0383O072r025k4158l1613
42101A6203l0374k0122k112J5718K3550J9667J0072J27q131j2957j2928r056l955q96l868j2838j8739j1783L196
42082e9226J0251M483j484J103L231m718j4570j2268J019J2657J6116J2885M212o641j0575l659L869J344o130o997
42062e5098j486K410L700N368M332r01j123Q448J3733K891p638N721L1724L4092N426j9280j2469J0689K1693J9453
42042G1685K1361L0311L2389J9763j207k0672l2177l2815k5553j7725j1938m772K152P70p879r194M370J9583K0102
42023E8554P449p469k2822m0487n0538l9849j4486L034Q17j0400j4168o095P743J9921K4864K0692J2498Q832J1594
42004c0316J3266O597o686j8726k3578k0004r471M733J6801K0238J3007M77q895j1592j0691q966m550L639J0842
41985f3875J2808J3471J9009K6529K7256J9746J0863L930l994j2104j4301j0443q866j3736j9519k1334k0338j5168
41967g0066o97J8738K8101K2451J6518K2571L0560K4127O970k641J949R949J0217J052j4097k7939k9451j5665j258
41948C1389l400j8930k9705k8142k2051j5243j778J6667K5692J9328J1811J7257K8634K9527J9722J5343K4787L5433
41930A56341K7735j822l4545m6092k9532j193J7273J9193J1568m29j6451k9329k4480J660L0738L8693J9961r283
41912A30006k8743l0696k2141j4661j1813o741N345J5836J2175k355j0228m439P27q521k4354k9618k2978j7325j7003
41893h7527j2128L013J9411K6317K5150K4114K5282K3440J4991L537k829J016J0553J3539L496r348p601J1221K9618
41874A15265L1010J8140M705l969j1639j6989j2414M95N909p802l0818m1415l0627j0271K821L678j391n986r046
41855c44j1303j1307p211r57J832j987p739o932K069J0698J1112P658J1619K4933L6174L5256K5998J9320J8486J7490
41835A74865J1736L385m317j2154k1997l2437l9559l9970l1914j6235J873J4123J4851N664o187j3730j5060j3517
41817b0580j2788j0627O95K3794M6503M8935K4363j0167k9008k3153o903j22p874j8296j7187k740J2537J3623k042
41798H963k1079k7446j8441m545N287J1856J7635J8498J0010k913j0490r596l409P416K3134L5749L4037K0595J1377
41779A06638J2488R623j0074l6672n0396m7486l8510k7131q296J3968K5193K0935J3526J2839J3392O872m894j6548
41761d533k6736l1127k0948Q0R623o799l1163l2314o258K0194K5661J6488Q987O585M417M125J0227J6936J1896o015
41741c0674k2034k2646j1520k828j422K726J7363L1802K7037J678k2201k4253r278K517K727O28L576N120j982j1513
41721f5177j2160m716J9m43M543K0748L5649L2638J4036j552m473l944q774j2026n396K564j245j0444o418J1468
41701a5103K2513J5431L079j465n092j7673l0364k7970j2970m5P019J5900K6771K9205J8506K398r358j2181m577
41682D024J0930K5180K9780K6274K0837J3776K993p183j1681j4386k0373k3079j3003M484J4282J1480K071j1915
41664F4491l0642m3157l6373j7926r635j5189j4903K075K0690K3615J3944M470j71j242M57M74o901j6410j6511r983
41644h8827j1115j7423q036J9756L7918K8030J0078R993K0308J8511O338J666M193k13q430l167J5397K8031K6087
41625H9095J8509J0012l299j5651j4091l183l958k2050l7900l5507k1776j0062k735J798J297k406j696L546L957k875
41605d8975p923o693m183J15J3935L2604L6902K0199n9q540j1510j7545j7562j779J8168K3670J5178N689k355j4067
41585B5269k3113j6938P60J1622P980J161K270Q124R566L004r486k2729k8839k2828j0025j641j547l144K92P682
41565f2560J3081J1815L579o522j0518m418Q353K1736L1402L2833K2492O175j371O267J5792R539j1688l0903l7069
41546A8015l4081k8422j9158l839J3248K3539K2429J3404M621L81l653j2336j8741r827J1720K3337R964j4295k4424
41527b8118j6720q158q893j1969q610J995J8471L7613M7665L6520R927j2482k2731l1086m2381m2710k0073J4604
41509h7136L9519M6079M0267K8676J5622Q099R703J1214r90k5714m4817m2804k2996k291O002K166m149m982l6P026
41489b1542J3984J8823J7133P448k499k785N151R839N932M62M17K895K023k039o423j1494j8240k4944l0257l3823
41469f9939l1044j5326R808K8895L0873K0386Q162j165o162m473m62o231k3204l2495j8689L759N813j6211l3172
41450a50877j8652K1166N7112O6104M7294J8350k08k614j167p354j4040o694J1269K0025J1845J835L591Q879K839
41431F8703j1526j8144j2370p133j3819k6513k8900j2664J3239L0393K7419R257r973k1064k3707j9145o285J3241
41413d8991L2668M5912N1276M7279L0914M276k1777l5814l5750k7901j9035j2133p054k465J341O93p094j7122j9734
41394d0511j2049j843K841L361O309J3450J9558J8222P869n791j3165j0299m668o350j4099j7469j2554o097k368L003
41374g2650J1486J5360J0434N381R322J7967K1077J6541Q708J018n54J2686L5644M3064J7700k1490l9105k7659j0933
41355E3997m306K585J7577K6634J7961N118O178J3348M663k1901m6479n5722n3530m4240k5046J20J6268J5430P422
41336f3923M881P666R539J0075J0305N224p211j5738p995R180J5588M960o415k306J3723K7373L1883K8259J5741n672
41316H5137k6459l2977k2420m739R850J7752J7554Q772l012q423n361j462l048q194j2650j5072j3539n093P283J5383
41296g18J7762K2011K9606K8836J1839j0458k2110k4252l0490m4031n2873m7168l0057j0544M484J0403O227k548r145
41277a53226j3050j5731j2315K110K0170K8492K6438K6121L2539L6626L0888J8765M414j2628k6014k0462P561L7436
41259A8134M5254L0528J1539M62n024r708j3163j3879j1731n804L488J0783J0580M742o26m164q725j3195j2593p217
41239B9681m756j0002j6393j2049N944K4969K6869O476k0925l3958k6660j1906m691q121j5512j8011q183J4623L7786
41220d4819M2623K4421q15j4279j1803K76J5395K4925J8004l398j7760p839J3686J8330m45j9919j9591m256Q923
41201B1659J2768J1524R197N076k464j2328j9323j6666l869R625J4418J2177R541N133n851j6566j2920M679J8288
41182D4098J6310P105K177q21q335j5469j2969k560O679J1977J5754J5589P798j412j487N055K790j5163l5390l9127
41162B599k2482K884K3124L0032K0849n1j8631j9291j849J3684P277j6178l0393j9481K282R851o74j1634j1729q786
41142d8597j1809j5231r681K403J2316J8646K4868K9075K6550J8165O559j0460l0733l7841j7740J5225K7901R492
41124I108j4055j6243l837O07l789J310J8169K4973R291j0217q420J2639K9470K9310K0956J5387J0494n36j5953
41105A08664k6946k7643j9778j0648p694j0893j0466J679J8299K3182J2902J639l4J086l148n020N248J6924R455
41086G6808j5607l2656k6752j3567j5586l1328m0359l1477j3737j808K11j22O613K1389L4417L4833K3365J1250N608
41067h505K176m550j1036j0542m483j567p286j8094k4513j8497j473J4357J8242J4781J7262K5896K5121Q528p195
41048H622m823P309O892j0685k7552k7237r433J6662L8883M3043K3461m866j8645j4111r281j6060k6177l0281l3648
41029h7927m1772m5010l2263j0118O420J4955K2905K9577K7353J8575J5176K0140K2888J6005M570l892o967j072
41011c0457J9448M9155O7698N9074K9162l075k5453l5867l3443j8795q59P798L634p227j9552l0899l4121k0636M309
40992b0106K0426J4508k656r069K931K0900K8593K0975M958q011r994k040Q076J5180K0310K2607J4804n592k6601
40973A10199l4371l2039l3289l8392l2355j0467J0215J3557N122j315o255j7806l0303k8221j0366P098J4852K2050
40955i2086L7228N0958M7848K7465L033j4889k2994j7773L389L1158M4446K9068o222l6707m4618l3787k2614k4304
40937d1401l4202l6155k0605M814K3060K4193J2232k262j1730j2637k704J6473L4670L7769K2099J584m495Q481K5666
40918D4850K8678J3753o881j8701j7562j0226n168l779l35R418K1105K5412J8671O728k731q019j1027j0441k934Q432
40898G9243J1859k759l1023n4324n5640l5398j0107M747P839P578R937J5475K4126L4779M0731L4151J7404K539l388
40879I7769n722j1419j8171j9788j6441j3540j4770k1070l1263l8707l3828j6290J909J2286K0649L2869L9498K9170
40861f859J0525K870P258N644r694k4668k6169j8621j0473j286P632O449n870j2128j079J1514N206j1840j4873k582
40841h9044Q40j4112k5767j5223M441Q558m478j6766j9573j9674k0871j7313p184K008O678J3587K6203L4365K7064
40822a26261J0079R56P568J9671K2797J4455M248K400J1027K3987L1982K8739J5135j208j0647p595M913J5310J1793
40803G9349m921j8401j1942J1810L1825L0980J2272r451k4911l3627l5672k9683j8424q147j083N114R412N915o010
40784a5595j5865j2138L633J7384J7043M117r086j1769l721O848J2549J1939O430k865j2007j2713q89J4415J7707
40765A5417M346j4133k3586k0953j2378l642K937N741L714j083m157k903K85k95p457j5828j5383l488R126R188l732
40744g8264j7509k1424j4074R5J3841J8163J0654L532J1880L1442M0816L0547J6006J2763J3593M048j1038j5510r917
40725C9644j0878k2901l0560k3183r869k571P14N836Q848N428M051J4108K5993K0008l768j9863q137K0779L9641
40706E3320L6664K2621R572l836k2169l9419m5124l9209l0744k2957r560J1874L1571L7729K9109J3258j941j0251
40688B0508p514K124N360n979k2508k7638j8355o498n43L144Q809J1475M488r208j9004j6786k422J7034L0810L0567
40668b136J6624k683j7633k1282j0622R123K2231J4324r645k6601j9801K974K0065J9861R346K989Q337K0072K4606
40649F0149J2834r465k7119l2298k9909k4907j3648N920K3861K7841J8781Q182L396L900Q196J4028J4200L707r011
40630E8638r341L265J3119R381j643j0056j6811k6101l2272k5743p954J0070K2244L1016L6711L3153J7544k038j3824
40611H9358j3844p142m64K981L293K279K243M208O616O903M819L283M852P745O767q62j1622j9143k0985k0077j9494
40590C1714j8177j3159m472L407M833k052j2239j6614j0743p68L215l7j840L337J0318J3052J4787K0433K4149J5944
40570F5088m31q518j127R488R015n72p605p975o118l879O26M754K374n618j0276o333J868Q087J1112J1351P126j074
40548G1363p161m786N936J9019K6825K2720M691k0463m0406m7500m2567k8316o741J3575J7753K118j4563r681J4685
40529b3499L3326K9693J4879R828J7741K2937J2930p163k2607k5399k0044j5511j4135r562M504K4823L9728L9519
40511A11988K4491L792j1169j3118l363Q382J1576M360o004j2350j3920j2530p588N97N988K013p900j0808J076J8997
40491I4510K5029J0882j3054k7673k2232j644J9340K6685J4930r865l4041m6678m6970l9376k3913J453K8123L7211
40473g283K0178p743k4061k4227j9675j5285m523J1462J7359N560q697p234M798P877j369n838M631J8086K0113J5591
40453b80J9174L1363L7115K6934Q308n734j0709r958p411o853j2971k5521l4808l1035j8555j2984k1147l0941k6723
40434a32736r223P273J3962J4203J2105N560n096j0839m355Q386J4860J1542N099L63l903o706j991J0910K1210J8337
40414c1039O392m21L833J0215Q863L168M007J2182J4264p00k4953l8447l1203j3888l887n207o642K312J9032L1780
40394d0339L1979K1034Q103L062R143J9977K4714J7507J485j5945k8290l0012j7578M175K0194J7645J022j1534r278
40375B7064j054l456k1435m4275n6655m9349k3611Q325K9283L0747K0485J1528N761l770j5651j6438J490K7323M3140
40356c0548M1365K5816L478j6164k0471m903J6501K3034J1050k911m195L935R593Q891O846O780N752k88j0502j8158
40336E4901j4856J964K4293L8208L4410J3677j5897m3335n8214n6060m1888k4679q597O040J5200J2861J522p418o711
40317g4579L61R021J9197K8340K7995J6083N051P956K1040K9744K8305K2648J5371l31k7880n5831o5076m7342j5893
40298e5820L529l022k1144k2919j732J7771J3077l664k438K1022L8509K8447K975j2127r350K25P114R435M426j1236
40278C078l1597m2177l4423j4783K765J0603J2830J8112K7805L2773K4582Q089l229m638m907j0928j6738j4536q786
40259d6105r069j3226r351N385J8298J6927L987p685j0686r615j4011k6776l8936l6965j7821M988J4839J0551O003
40240a59268J1343K1550K5788K0999J1386K63j0406j5412r305N469J9412K6453K8769K9811K8222K2159J4940J0685
40222H2858P173n76j0381j3681p656j23Q17l921r667j5977k2416k2045r562N960P996n932k0131k1342j3051l882O755
40201f8784K0941K8636J6239j2840l7966m2627k7602l605J8830L0989K8767J8660J3136J5515J6403Q742k075q757
40183A2602j4303k4593l4448l1360j2229J1298K4211K0253M750r288j0204J458J2970J5137J3639J7270K0336R762
40165B7261j1285k1819j0236R432J6437Q226l538j2992k1984k5544j1586J9886M8290N1655K9994K980j3332k0105
40147F1740k4970k5522j2111J3459L1866K6124K500j7480k3076k0825j5423l81K4180L8998K6536k689k0679j6419
40129D5828n004l194j1665k4035l7508m7377m4075k5285k021J5586K9496M2410M5410K9663M058j2668j4771j2131
40111b7283j1834j0042l656J870Q76m539q822q646j603J3831L3206M6243M5612L1986J0193j3130k7249k2316k051
40092D2646J5759J7956R759L987K985o1o669j1211j2662j7380k7333l4450l1338k1035j1039l017N338J2136J2425
40073e3204O366k37l606m345j923O211J7482K3096J8655J0422N691K640l124p580m752q08p853k2842k8041j8234
40053f5986j2153k5073m2482l7546p950K2532L6679L9652M0112L4541J9249L737k65N077R262R212R326J0383R049
40034E7356O314O627Q873O940M76k482L592J3333J5597L830j9419m4399n9183n6808m0565k1118p165K87M795Q503
40014a14616J0776J1301J2145J5586K0387K1788J6312N240q248k2570l4516l5488j9108O554K3090K2085J3575R022
39996d6685N122n961j7729j4759M545K3837K9438K4075J7423J3745J3550J7555K2245J9362O935n765j0971j3253
39978H2709j9589k5306k0729p750J994M064M757P463P401L090J631O128P183m532k3132l3702l0386k0466j2160o074
39958g7406R90R885J8177K1596J6362L960o848p421O82P537P768O990J2720K2207K3780J0523r825k1106j5848m268
39938B0455k412j2171j9580j4892n568k585k214O537K1105K7014K0390J3598J4432J4498N987l491l976o35n021j5768
39918E5703k0976j5689n249N060J1864Q656p940k7637l4310k4720r373L491J2749J5238P350k702n00J1771J3652m780
39898h342k6826l1756k0765q564p32N562O575m425k0234k2216k979K3715L8677L5396K0881O212p13R68M841M025J52
39877e48K411J5802L2735L9073K8583J0067j713k633l552j4835l0547l5249k4613r509J282J0992K2837K9041K0636
39858I0260J461j5603k1264j3126N811K4213K5890O623j7729k9184k7875k4934k2471j3940Q6J0425J1958N987o972
39839a0384k3510k9985j5214R576K0090J0611J4K385Q843O302j430k521M271J0941J2165P021l258j1217n754J2483
39819A429K6762K4691J4408J0040J0231M562o083j1564j1128j3444j8391j5347l147L262o438k1747k4538j1031P244
39800d0229J8361J8022P550o967j5448j2329m948o489j8990k9577k6245j1827J842Q508R800O481l442j6457k1853
39781a44237j3528J355J0984J3002J4304J8732K1289J5634L327o035l024J2149K7377K8957J6304K728o72M047J0785
39762C3478K0538L3736L9034K5108J776p053M824J5896N843j8158l4056l4083k8681k6295k2405j0114P288J8688
39744B5364J6898N250p314j6171k3345k9311k8085j6175j754M315M027P959J6633J9606J4799J3778K2173K8999K3764
39725H1410J1292j33j2411k6835l1935j8371K393J1549R544J1364J8578J5924k094j9536k0765j0264k818m042q409
39706D441r223l357Q692K1042K4280J4224k977j7182k3493k3367j9253j1353J31J0344R951n389k5251l1117j6822
39687i5679M213J7355K4026L1810L5805K4351J0k0289k6809k5232k1818j4222j483R973J6970K5122L5545L5996J5944
39668G1588j4892l3378k6865l792J7622K5167J8284M220q934j6885j8985j6092j0267m018L041J3571K4255K3126L243
39649E0009k3871l7895l1168j1507J2718L6705M9896M0487J4646m720o408l910j1160k0483j7902o913m8L222J0992
39630D2690J7535Q242j4822l1745l1829k4363j7865o763J1511K1863R315j6575l0127k0160k21J1643J2501J1028
39612d8142J3419J8734K3469K4244J7151O14j9364l0987k7591j5572p771q893j0967m561R010J9659K0715J5258J0144
39593a431O978J731p304j4346j2221l323J53r465k3965k7625j5535K664J6986K7257L6184L9788L1097J0093j4687
39574D3029l2386l5277k2916n254K972k884j1240q856K074Q733O621M077P831J3997J6743J7329J8633J7252Q762k362
39554D6878o154q56L146m145j9741l1081l0137k0642j1410o115k136K501N406M616M098J0658K4877L7553L7250K1279
39534F5845j465j8524k3950k0868j6238j4817j7092k0057j9482j3958p384m530l381L597J8108L0931L3195K8393
39516a677K6399K8663K7969K1808J5813J1883L153j3577k8578l0516k2268j7052k0284k2932j3988N734K4404L1015
39498B5969K4583J2837L544j934o901j3563k0829k5758k4393j3579L596J6293J5986O921p1k910q500j7696k1761
39479d8166j7933j6917k6473l6853l3574j8728p505n721k514J2775L5520N1759N4098M7405M0582L6229L0147K0066
39461A14197J0285L986m278j9842l4134l1835j3697Q45p96r257j1524j0412j3473j4841m831J0861J9463K2686L0672
39442D4075L8068K8592N097p826P72J0566N02j9052k1314q05K0501K1430K684j9423k9802k4684j3172j0269k2453
39423C487l8739m0415k0872P353K5852K7565J9563J1490N147k662r967q666L623J6397J7205P192j150q31J899k681
39403B0790j5990k9890l2720j7544R619L0840L2494K0246J1016J1693J5269J6658J8912K0953J3674l866j6452j1722
39385I3980J488N247l323j1616j0689k775P695J8060K2056J2549o463j9772j8180r568p503j3382j6074p902M665Q714
39365D7207R58p985p698l294r884k9926m3807l0870L445L0895L1909J5841O492J4856L2348M5190M5792L1469L372
39346A76310k8133m5106l8023j7702m346n999j4216j8731j7300j1229k170L396k341j4362j4665M608K6903L1450
39328H344K0286J1372R753K083j8988l9753m0432j6891J5997L6601L2236J0323o494l706Q792J2257N690L146Q289
39309E8905R984M029m12r22q600k5904l5974k6398q584m01k972p766j3304j9402j6639J131K2443L2396L2704L1602
39289B5916K3994K351j9998k0713k545P217n549k4750k9694j9002k139J5445K8484K7525J0886p626j3486q186l281
39270a5151l527m358k790k719q277j5566j3648L309K4130K7177N160k2157k9221j4304L314J1247J3244J1314j766
39251c4589k4776l9233l0768r553K248k447j0414n506J5862M2015N3082L6899M520j6267j0185Q327J4012k75k2476
39232b9524m1244n2729n0950k8546Q023L6604M1161K8639J7235J3689J0912M610J348P009J5530J5877O902j329K
39213C219J0456K4095L4345L4351K0893J843q037m757j802j2223l0769m2531m2777l6958k6398q764R026J4137O631
39194e6020J147N536J0302M835p193j4818j2269Q39K1247L8193L8981K5541J4224J1964O164j1549k6866k4078j2776
39175A3404j2239j7868q172J6655K9336J4557r895k2105k5929l5697m6393m0125j5732Q020J8320K0522K1901J8805
39157g2635P326m883p681l052j276o162j2808j7825k2213k3534j4821M537K3556L0616K5608J6973J0867Q285Q871
39138e0251J1012J0186L681l846n153p0N233Q010J1511J6960J9119J2488j346j3607j3213N555L4411N1960M1752
39119A44392J0870j6116k2828j3960k864L127J335j1148l1698m7207m4007k2242L950J9092J7372M963n585o298j135
39100a9987P63j881k786q62k313p593q062j218K650k289m802O892K4998L2530K7385K0871J6410O671p895j4396o597
39079E8489M088L805o616j6066j7607j2068k644P319J3559J2967O590q23m014j336J978k507j4767k1182q896J5422
39059A5691L0326K5133J1636N906P318L934p263j6511j6760j2730j0805q080J074J1721J1120l990k1127k7297k3525
39040b4229j7544q901P371K5379L0666K0271P904M302M537J766Q68O922J0497l53j8913k5958j5359J98Q864J1497
39020B9785J1924Q312n2o711n442R87L735k890j5666k2860j2569J3684L7805M2351K9066J3254L285m230j1578j5590
39000I6600j7290k2692l0298k9718j7998o298l776m504J638J2953J9067J4621K572j1497k1686k2256j2145K675J4729
38981c5303K0105J7036N848o439q565J981J3240J1590k970j8214k2675j3931J719J4285J8258J7703J9070J9376R653
38962F1767q811k2333k3279j9720j9738j7227l960J2703J7214O661p376j5175j6095j0795K464K1041L4892L4059
38944B6292J7291o176k1685j9693m746R369J5440J7820J9504J4815K040p795o467l858j2957k5993k2792q40K0177
38925I746K4450J4497j915k1057l3967k6419J58K1702J9045K557m594O37J801p389j3078n038N387J476j3472j9139
38905d4612m627J8011K8599J9963O11j7081k4611j7500J874J9802J8838l662k9336l6951k3645l266J2358K3292L4220
38886b7723M4495M6805L3073L202k9376m4898l5440j2989N128J3731J6418J2520k03j4032j7377j2272j1484j6799
38868d7221j5608l544N736J840n817m276K585M045L161J0567K2822K4375J1462k78M465K3316M1121M4380K9788O516
38848A59435q692n908P472J6426J6291J2340M852j1219l0598l7496k7393j4973j1619q564N056J9503J7361K304m501
38829A00077M541J4516J2671M103l469j3029k5000k5537m813K1549K7477J0096q161j1381p627j0537j9069k4555
38811D1852k5783k5225j8474r09J8636K3960J1889m104j2550j6073k0536k1633j1258P161J9598J8738J2901J3424
38793A1614J7958J3703k508j5303q441J2241K2948J0895r509j5188k824R768P452o420j8327j9894j1869K69R654
38774F219J0763L583n840j0733p932K792J9057L3617L6718K5577R577J817N495J1074O959q349k4585k9656k1562r862
38754E4729m090k513M184J9043L3283L5360K1852q19k1086k8566k1715j0787p821j2211j2660m790K142J00n859p619
38734C0157o878q416q509k091M287O13q552q544L889J8155K8658L9279M6079L4839N396j8301j6624p72M246o502
38714A30409j7900k1667k3572k4923j6272N089K5858L2076K4147J1296k73q797j4393j9398k4387k1669k646K4603
38696E7581L6880K2995n66j0457m329K930K758j336p092j6978k7563k8702j7319k735N089N262J989j079k73O269
38676B3324J2907J0092k844j5317j9253j7864j6612j3415m486O179J0689P338Q42m564p073n497o03M001O044O397
38656a9715L960m793j5902j5432L183K4142K3976P80k2434k5556j2509r62J13l881m132J981J0618J6149J6228J3775
38636a0411J2799J2022N629q206k2235k5752j4252O897K6558L5021K9385J4191j918r757k784J7056L5544L5814J7011
38617A52612l095j0565j2664k2562l4478l0682j0863M623M415L16L657N779l841j4981j1251J652K882j1444k2806
38598a3296j8620q013l823l778J979J5353L0350M0660M0076K3279n544l0419l7850k9711j6439l328Q444J2829K981
38579E130j5407k4929j4450R099K9272L5662K9167J7151P649N492R753J4761J5152R813J195p011j1006r010m886p167
38559I5430k0127l5876l9662k5281k532J3387J7619J6909J6802J4044L834j1016k3103k9041k9616k4111j1755J965
38541g2130Q468P260O596J0050J0138N98j1813j5378q643O41Q585J7706K6922K8661J8950L784q114j4272j7657k0864
38521b0512k3615k3505j8293r604l280k297j845K524M919k912j4918j5164j627Q848O449M687J8335L7196L8945K1484
38501E815M423O52M218P178J0675J4343J0926J53m576O556K4445L1798K2595L998j3601k1137j3241M991J8848J8977
38481A38036J0208J17j2005k6198l2181k1901m759M155N696J1192J9704J9112Q768J250j445j3131l7103n3805m7132
38462c1422k7347j3202m881P983K2243K6087K2568K6372L6969L5875J5734o313j3155j0216j2352k0760k6121k5764
38444B298k3261j6672k194J2344J2462k832j8367k3291k2331k1846j6785r05J8693K8522K6273K1064J8014J2658J968
38425E812p443o151P057K3248L0662K4522J2317P507J4344K1691J7019K685r544j6722k5677l5980l5911k0788l289
38406E359L114J923N309J5030K2003K0374J2100Q49r256j1223j355J2781J8541J1734k460j8878l3592l8623k7531
38387a3801p614M196P77p843q794J78J3114K2282J9375P08k2904l0563j3637J1959K3035J4344N1o195n127o306j3959
38366b6724k0183j2585R686L0057L0973J5677M754R211J7510J4856M593J82L396L408m695j2407j0638j676M765K479
38346F2639o608j5907k1097k3849k6859k5703j2330J0143K4640K0007P136M772J3620J7297P675m682q323o308p257
38327I006j1095j2255j0426r268q227l779K831N680J673o414j3173j3382m516Q533J4304P431j255L969K1685L2609
38307A3931K5154J1987J2100K2873K2519l51l1523m9035m6403l1879j3108P155K3415K6690J4590l843j6886k1169
38289c3783k1971k4276k5640j9020l372J0648J0820o6n160M350J5880J2824p65n516M974J5000R366o299j4171n074
38269h1251J5432L5245M3501L5270J5547k990j0539p669j391K854L954L569L138M47q548k0098k0518l708J3804J0319
38249B6368r841k0650j1961j447j749N95J7755L3660K7236O998l535m048j2329k6784k5598n478Q978L483m843K281
38229i09J5789J7553R140M078M933O368J0465K0083K4498J1423r598j4633K092J8618J2408j4320m0401m7331l1277
38210a021k453K1183K4321M458k7315n4436o2780m6893j7194K407l355j9439j3661K2135N5711N0188Q643l0053l5889
38191a25443j4041J2510K9792L5871L1472K0145J0636P553M059n953j3339m140J7618L1389K5484Q055r444k5707
38173C6517m1040m8620m3232k9445j3678K871J7103K1093J4924J0972J5269J6967Q801M113J5825L0906K8795J6928
38155F5069K0603L9445M3340J7637j4712k7930k6424k6989k8631k1656j3106j8556l2933l1537l470L1486M5600L3200
38137E0436J1707j808p402j4048k0132j1953J3730L5699L0545N153j0260l006O645k463k3637l8087m2833m5235m1665
38118a08614k3168K794J7201J6563J6834K6477L2023J8233q934k8823k8935j3891L908J5248J7331J2317N005K31J01
38099b8099K535L364J517O99K914L016l671r855k777J5320K4989J4771k210p221k483m580j6595k3503j6327n624m960
38078e8780j2389j7097j7058j9405k4903k2620n266J5820K0559O363n151M549K4361K8119J2764L883J7787L6067
38060a2397L1109M537j6596j5500j213R583J1432Q836O955O779M415m084j3243r584R837K7227K3485K220j7602k6664
38040B9532k7833j9853P40K2230K4654R327N11Q948J4635n9j9060j5407O385J5032k767k4634k4670n763J0117J2121
38020A4186Q202P516Q359O034K897L186K854n756j9076k2398r210Q522J7164J9999K7067L2234J7687j7145m7539
38001E4783n1899l5943j9307q646L075J6911K2792J5320L175k431k009m555j2913j8606j3232j231L992k654j0211
37982f3589n992O285J0252j598j7802k1575q702J0911K4141K3734J1250m284j2912j2295q414o911p004n489k086K773
37962h9307J1722K6310L9749L9273J9325q730k4113j7179j317O64j7058l6331l7747k3544j1110r236j0545n144Q085
37943a46233K3360L2108K5613L716j7920j9429J019K4818L5046L1985K4073J4505L104p164j3332j6784j8974j7584
37925c8073j1095k040P189J5446J7893R191m728q653J793J2439J0998M935P981J7654J9413Q214p120j8200k3958
37906A9279k4561j9211r787J780J7871L8074N0399M1047J3073j4679k7857k6774j7494m797M015Q93j1511j9480j5576
37887e296q893j1445k0874k4441j6213k527Q338J5077K0609K4592K1904R184p852j6208p796J1060K5496K6862J7900
37868E9477M665r870k2225k5267j4640L764J7222J6839L530j3816k3355j6845K681J9467J6894n482k8835l2524j4047
37849f2367J0537K4580K4792J7604Q626L99m553o032r486j8787k5851j7038O453K3464J5363j1358l2241l1708j6548
37830a04151m581o564j8954k8985k5372p249J6038L3825M1078L7201K4151R035K324O936J2993J0122J447k200R12
37811a994K155k286m763K352J6062K7158K9515K1862O073j2010k4444k8726l0949l7284m4246m1620k4960j783J5567
37792a34321K1259J8943J4935J1655R270J0021J5366J9438J2918l315j5035j0963K683J0627P620J173j898k048n11
37773a2183M124J0207J1838P157K286L927J2456K3791L2120K9016P853k5159m9571m7194j9284J5110L5202L1398Q406
37754H1500j8627l3883l2479k2465j3368n999L403J3418J8322J6944J4148J3258J2328Q905L876q65m623o297m768
37735D2728l149q273k1624l3269l0105j0613J1995K1959J4152l944j8845j8898j146K4704M1430L8275K0101N99j2067
37716E4010j9767k6793l3018l4895k9026j4444M888J9971K3936J9671J5495J3272P329l843j2844j3876j0639q601
37698d9174n856J713J1190J5399J1822L424n522r306k267J1929J7631L954j8277k6649j4194L467R669O333P785K1034
37678e895L7643M3749L5225K1570J3401Q228m795k5305l7483l1332j7478j0215n765P630K5234L0123J9206N631n103
37659A04269k0512l8365m0437j9931L039P718L78N85J1207J8896J6684R041j597j7398l5097m6213m7046l8331j8026
37640a51136J3012L9917M3341K2763j594j3425j5446j6378j5585q958o23K033K86J283N287M837k515q498n035M090
37620a02344P969L254j909k73L602L67q871j2065k601J0883J5242Q106l075j2557j9393k1488j5810n814n55k243o79
37599a60254J4168L7460N3566N3527M2061K6748Q371j2883k8449k8981j9671j6230k1866j9971J578K8574L6682K4427
37581A8857J4225K0503L2296L1620J5276p877k8625l8268k9514p199J0222J0188J88n978p078q954r880n675k463q432
37561f568j7177j5091k358R349J6849K4517K5196N327k5941l6285j1000K4677L8912L2759K8117K9333K0408l375
37543A37649k3931k5414j4899j0166j6426k3067j9173o181N091Q123Q885J6566K7044K4408L100k0336k5518j0868
37525C4887J0271K7132L3166J9893j1935l9174l5864q033J1411P092j589L193Q284m427k1976j7388O245J7006k09
37506C7985k4366l0968k3140j9167k4527k9383k5054j2153K378R443M947j934M630K5868M2143L6492J7199O932J4531
37487A1856K7816L1015J9530n17j7868k2314j4176p179j3528k6749k8602j3727K684N400j598l268M759J1163N603
37468b9700o336r167L508K1145K8946K3394J0696m243j7909k1180o995J3533J8641N599l390N603J6640J0523l910
37449E5398o478l04l254j2425o992J3952K5673J5066k730j2426j7635k2259j8516o982l994j2720j0852J2269K8782
37430A3573R360k9534m4709k2864J0028K9738L5658L2980K0686L067q169r995j0685j2797r021J800R746R137N452
37411C3451L443Q26l057m380l455n145q963r634p690p475n426N166J7879J8045N764l098k470m542j6483k6304k1543
37390d5091p034N813J4313J9220J7103R347P705J8965L2512L3527K1539P297j282k682N76J019q096k0300k0218o884
37370G7349N70j0549k8255l5392l2900k9297k1059j875J8911K6677K3338K0675J8707J0127K60P87O208q98k0011
37351B3373k9396j6318Q693L1683M9359N7316M5196J5661q234q672M945J1396N014m049q266r068j0168j4994k6160
37332A17311l9177m2027k9550j2876n878p499o644Q09J0251J9128K7390K9283J7492l175j7089j6184q904p549j3856
37313A1256k0950k3783k3046k1736k0626j5841k219J6816K5600J1572j4594k4715m640K7956M4388L6524J8851N581
37295B6394j100j791O180K0068K7589K0011L994o714p612n136n404q548j2847j7254j9131j5376p688k267k192l108
37275a1932J505J2400K2719K3160J0197q688j9438j4763k556K426m904j5073j5516l879J0022J3101J447j3503j3812
37256b7087N778L0292M0840L4388K1153Q073m216j1876r785l316l814r589o290Q985J9742J4463L453J15R3n893j1172
37235I4337m149Q242Q540l760j2782j2964j4601k0329j6787K448K2610K7150J8640R477K186q487k0460k4128j6247
37216C8936m993k00l525q896r945o605m795q786j5471j8702j6607j0281O93J3929J9198Q940p375j1903k830L305k802
37195d8715r962n921M099R427J2536K1438L1682L1249J9496P437J097k604m511r83N662O482r21q212q844o230n881
37174D7821p390q567j0140j1322o975M668J5923J7060P185o241j5280j4738k161J8428L4763L5626K2382O040o950
37155A20132j8958k9881l0304j2970J3631L1415L1625K0888R027p62p609p880p48O953Q508O139N206L605l915j2861
37135A31241j1513J263R911o86k7073n0065n1929k9177N776L2213L5590J9353J99j0109j3990j8108k1502j8762j0027
37116b7395j756L17m731j3300j8548j4705l276P918J3946J6922J9501K0318J8735J6850J2395k098k5776m2235l5626
37097f2544j0385J3165J9933J0026o838j7406r753J5761M0834M4877K7281N803o461j2462j8818k3443k0326r159M933
37078a4982J6626K2861K4311K5579K8786K7088J2085j0231j9259j813K9523M5894L0257n896l3673l4243j5143J419
37060A29189L843j388o299j2925k1912k2738r229L913k580k3249l2869k0924m286k591j6155l1976l7640k6086j213
37041a37115J7779J3711k788k556K1063M0609L3580J2044j300o150j3368j7746o898J2566K2453K1147K1425K3474
37023E1930J3540r727k8570k9489j6736m80J2195J3156k130k1785k5478r848P709J3394J0130M211l567r073n406J083
37003c4941n900k4400k8608m549K6316L5788K6381K0700K4407K1922M829j5526k4712j9406m184J3195K2462J8483
36985E2257R319O764R106M273r584j9017j4424l441P79k909m466L083J5786K3469J9091M138j3249k4822k6863k0355
36965H935j0954q356j7997l0113k5692o12K3714K4123M580j0990j1170p481j1404j6653j1321L715J7998K6230L0404
36946b3044L0754K3536Q499o681j1861l562J1067J9285J3033n084k5504l8803l8204k0997O276K7646L1210K2445
36928B0011J6596J8439J8254Q711m280j1391j1935j0786r923q359n240J257J2406K2670K2238J1126K722N634R309
36909A07459j842k4987m1390m0362k8659j5616j660J3322K0863J2992l392j0040L339K7361M2138L6516J7241K93m730
36890A08846q50L027J126o544j5397j8085j0013L525R950L467p554j1935r482o636l428M658J3849J3450K386o759
36870F7601n082R18J652J29N568J5931J7234J094k3511l8192l3017j6763r311k0467l6411l4088j0905R744Q753l638
36850a02761m709P523J4642Q064j14N33L404O8l932K21Q922J3159J2850J2020O979o725k0196j8992l635J1496J9380
36829d1803K5525L0117K1844k302k4498k5596r593K994J784m290k946O487J5716J7855J2209L026l956o194p027j1977
36809b625k1346k8305k5859j4799k590N739J2346J9166J9193L712k0236l0331j5233P288J0340q137k4761k2386p656
36790a46480M731R747Q525J519o537o511J791O962M520N049J3826J7197M990o692M055K9535M0416K6783Q900N295
36770B7621J1331J5343J6894J9283J8494J0353j315j1990k2926l3289l5234k5062j1513n110n446n577k781J685P746
36751c1493J4763J9243J9967K1102K5122K6544J7501k756k6136m0492l6627j6418N999J7771K0894K3780K2643O089
36733H7496k0713l4064k1120L637J9552K2815J8595O259j2700k5101k2316j7153k6334m2405m2147k0480K723J0815
36715a12641Q735R342J5106J9934K0187J7592J5575J6050J7908J8948J9932K2268K0168M194k1594l6308k5880j314
36697B8202J7294K5271K8437K4173O495j5776k6237k4277k2032j9878o797J3172J8464J721j6559j6849n855o33k345
36678E991l38P736J3977J2666M157r084k2480l0052l1017l0503l0048k4696j2835Q01J5679L6620N7740N9096L1251
36659E4661o810k7330k4578j4583j0727j2523j4339j2444m503P822J6532J5551R519P051Q082O016o0m093k928M34
36639i250L174N557P350O624K384m426j0987j1910l016J1160J9269J6447R621N388J018o083r372l588L562K002m090
36618C0834k873N694R623K206j1883k5803l4373l0975j3616O147J2802N687l469j0323j9752k6977j5675J6813M7641
36599e8272N3839L9405K5756K3230K4214J9467Q853l322j4069k1726k6349l0368l4486l4187k5234j1708l234l731
36581g1922p336o398J77Q360J5634K2530K7511K4102P213j7447l4595l3316j7584l76R954J4039J5963J9185K5622
36562A316L2566L2346K2215J2307J4157K1672J5627r437l4773m1158l2670k6563k7463k5091j4523m644l707o839l282
36543g7944R792K4837L1695K5280R456m081m416P857K0521K2396J3872L487k249k611K32K761L19q798j8877k0719
36523C2810j1606J614J0039J0012K976o606j1453o198L742M294r313k1982j5648O206K1780J8218L908q145j5947
36504H701k1388j9527n733J3067K4163K2285J0817l992j2924n892J5082L1239K7059R967j958n880j1946j9372j5086
36485C8682J349J1364L791q632r183j96M902J559n543j3062j8410j6060o026N63m306j1896r380l78J130o343j0043
36464e6118l474N766J0569J3579J8009K0331J7468J3008J1794J4557K0041K5180K2131M618j9757l3220k8084j4493
36446D1905m030L928J3388K0325J9581J4742J0830M386q230j9058j7563o703K739R657J9595K7041J8541m317k2684
36427A24073k6810k8100l6172m0302k7797q192j443q228r046Q365L4409N0330M4561J7750j6812l8817l8876l0197
36409c1304l0327l3590j8556J5885M2214M0037K1806J0426P410N07r541j1183n842q452k2734l2935k4509q55K3756
36390f7787L6738L0589O638j9467k7521j4970n57O50l533L533K2294L7393L8862L1384K2621J2834K19j0090r088M013
36370I4755J6361J1499j3464m2111n3064l9737j3118J3288L3889M5011L8322J0298k4682m1849l0978q004L309k152
36352b427q737l015R389J4390J0417R065J5445J8965R801l581l617J2288K6813K3288L594j7238k8294l0533l0495
36333B5518l0663k7108j6728n195k452q098q559L991J6351R862j1369k1696n526K4650M5787M7975L5216J4846m668
36314H2134j4900j6718k1491l3969m1465l0750q786O178R060R099R645L833p476r888M662K3862K9859K0185N521o373
36294A2222j4694j8052j3839n379q77k911n020j498M448O177L525K286N185Q485Q513O704N436K817l361q568n364
36273a3765M307P332n151k4061l0355j6209O545K0034J8358R955N029M721L172k370o597k311R845K0264K0179J1628
36253D0550N900J1128K2070K4299R966j2409k6707k6321j7662p303O004K2535L3146K8500J2642j461p650r655j1281
36234I6291j3235j7545k3778k2078l523K1223K8640J2297q676j7467j9955k6853l1476k1873l695P652J0811J5498
36216a7742K0138J2897m776j5426j1111m327o398j0278m765O318J0825O559J570N63N38k077p124j2424j4635j0092
36196f1767M27R339R177J162o607r177r845j4754k3955k9355k3130q312K678K921L87O468J8616K3588J7630J2555
36176h1954J7694K5416K2016O640q720j4650j2088o713k947l732r868j7269j8826j1533K4Q933J3053J5086J6448
36157f2990J4489Q167L526P799J7505J9505P956o496j1195q737r417j1513l968J1055J5106j49j7275j4667N934K5035
36137a0330L0884K6478J6578K587j0589j6157j6184j9503k5991k3554n376J8833L4202L5627K6178R293r460j9710
36119D3806j5587m705J022R73K952P025M395n833j1443n204J900m635k1450l1525k6712j5350q006o116o289n830n09
36098a07121J3574K9785L1026R052k0998l4721k5815j1256q787j6621j8600m890J6642K9147K4603J1490M214O892
36080g2384J0909P375l151j3823j8099j1710M474K0066K1733R803M83M548J2364R949J379Q26P553O259p132j6773
36060b5351r291Q158J9270J8320J1431N417J871k304j1972k6606l4972k4670R46K3482K9469K1285P162p884j7435
36041a3674j3642L41Q888L398p393j4482k2444l3992l5006j4362J0592J1485j0577k5040j5574j252m500j7325j5404
36022b09963O095K8163L4356K6176J3300K501r67P381K4345L8111M0235L4147K7193J9593P918m876j2123j4255j6505
36003E0825j5809l256J5728J8618m831l1870l2383q964P576Q89j3483j6833j2197j0185q041J158J0123N494j0851
35984e8292k3055k1508j0655J098Q957J0728O953J770j586l424k451M754J3852J2463j103r995k930M494q961l4356
35964a13247l9935j3755K1832M1781M4812M1310L2980J6736k555j5340j7723j1590k57J0599J4158R945M753K810Q85
35945B8199m749j3647k4775l5973l8630k4784l363L582j1589k9270k6449m288J8155K9972L6224M3302M7927M2528
35927C2372K6189Q432J577P012J1584M085q052r633k489k790j2574j5138n902m737k2268l5345j8926J3404K7241
35908e958J5711J858j883o261j5663j5831k68J5677J9050J7477K0948K3958J9544J4087J2778N458j5442l5558l7176
35889C2506k8297l2002n0948o2804n1013k2093R370L6001N3646N7183M7817L4683K3862J3970N131J943L623J798o921
35870F7455j5893j9946k0545j4586P080L9766N7900M3462J1128j1737k1236l2178m3261l4106j610K5687K2314k698
35852E6996k2602k6635k2296j6527j1878j3143k0691k2336p514J4985K8800L4006M1227M6285L3612O125j2461j2049
35834G3904r905j8506k2096l727K1752K5416N470j2736j4501j1438j7770l0437l8618l8025k8899j1831O851J4887
35816a10209P362n428r306j143J1479K0537K3254K1645K0135K0713J8695P675r675k1723k2394j9887k5335l6349
35798a09954l8257k1418P393L1994M2474M1899L7971L1283J6220o268k3221k2354o777Q740J3465O700p905k4523
35780b2538l3076k5592o453J2372K6643L9979M8194L8694J1850j1422j5052r836j6286l3270m0002k6433n864M593
35762f3499L246o32p72J668J934k971q488k602K0843M8613N7068L8341J0235m096J94J0605J4766R695j972j6135
35742A16041k7143k9527k2896j3346q119q498q760l733K807R97j1342k2620k0671q259K709R387J8626K8874K5866
35723B0393M147j8463j9794j176J5105J3484k33j1192j2258o419m47j53p239j7479k3855k1970j1233O446K4852L3586
35703c3898K6780J0791l106j2001j9647k3780j7100l022K686o974j8002j4048Q65R593O218O27J637Q347J7532K6269
35683d0233K5718O835k2068l6852k5743m833N494Q354J8606L1642K6543J648j5387l413K3382L6307K8773J5012J965
35664H1750j5605l3606l5113j5957L664M768n449p102K605P783j190j5001j9060j0130L581J2404J3126J0828J3322
35645d382K0689K2904J2820j629n550M413J7568K3688K0928R766r439k9647l8324l1412j8677j0050m130M211J3150
35626c103J8941K4715L3820L8455K6167k202l0183m3107m0901l1650j9530m060J2361K2432K1308J3400Q243Q543O146
35607E9795o082k1398k5488j5252l011j19m893j0245j3783j4327p710M822J1458L721r559j2972n473M25k039o431
35587g8561m267O046K0202K9225K2814K487j1893k352K1594L2179J8396l666j6920k1723k3482k0357j2607p605m669
35568e5159Q984L3452M3405J8878k2554m4814l7227j8698l575J2640L1971M1723L2890J4923K351k252l668k341L439
35549E4368R843J0024J721j1100k0710j9342o751N365M668n309r700m534j417n882o541M110J2559L884j1437j0071
35529f252Q475J9389Q777o598n112Q742J2692k021k1911l1252k7863j7004j051J7616K9862K5747Q095o433l813J2081
35509B2166K4034K0225N096q057j0891m826L715Q606O687Q6l935N72J1125J9361K1124J9764J8068J2534M84j1398
35489A54540j3192n729p43m861j0656q549j558K8m354m318L680P390m775k3924k7434o008K4064L9016L2200J5810
35469A60627L067l006l874J034Q918Q564q658l3421m4708l5094k0595j8690k4980k2296p268O183Q981P584Q655P467
35449a510j14o277m039k644j5480l6430m3242k5618K085J9035J9008J0170K886K591Q141J2513R322J307k235J865
35429d8666O149K883o747j6139k0578j8904j3488j0438j3786j8043j3711j403Q800J3721K0300K7881K2279j525k3827
35410a05242k2659k919J3120J7217J8624K0965J7215Q593P260J4716J6548O422l112l789p069k1385l0432j4883J4467
35391e6343K7905J7491M678O018J2098P927k445l782O980J6614J2073n784k3826k8865j9494o205J838P128J6039
35372i955K5531K7458K3862K4903K9981K4740K655k2372l3000k8249j8379r722m201m989j0954j1900j234J1454J1855
35353B7484O67r677j3640j5238j5477j1269n510m032k666Q139K5043L3497K9908K5630K4707J5876m248j7736r534
35334H1924P950J1018k937j5966j7571j5529j8904k4623k4785j8541j2520j2936j7701j5531K251K6672L6471K4432
35316f826Q127M642N802n698k3937k4715j903K1933K6095J5027L423n753j6864k6675k7025j6956k372J2235K3970
35297c7470K7900K1482J0259K601O76J385K847L766q92j5745l5522m5654l5856j1529J0995K0631K0933K1223K1033
35278a6937J0945r082k2213j4490M849J5071J1629P479Q695O993J95J036J5366K7713K3039J0744R880J8336J6140
35259A25388k292j7952j3987J266O241o580k3201k5291r840Q536J3343L368p625q025p13L803R76o013j3519j9694
35239H189k1612j6426n279P569J8230K2903J7226P58j9124l1098k7187o880K0697L8463L3882J3911k03K371J1301
35220F7691J3613J1031R797N600p410k1760k6559k5483k8543l1641k2496l602R895J4283J9647K7189K4785R308o258
35201C9087j4177k1065k7864k0878M759K9588L2613J6507k798j8077k7826k4891o708J1923J4295M079l942q228j6993
35182d0596k5586j9165J158J4838R940j392k092Q446J9624K5285K5284J8885N646r675j8807j6456m359R512J6989
35163A7479J7710J8261K0088J4753j104j3444o886J0585J5189M24j4310j2770l178j487p721j1228q600k661Q062
35144C9162K3450L0325J3852j8850m1257l8104k1847j2573j1548m612J3371K8719K5697O288j1328j2052K310J8295
35126B9298K5596K3375J4441n89k0663l9105m5240l2100k947K8308M4494L8212J9722P676Q691J0205k183k4636l9317
35107D3238l6324k2781r548J830J4190K4110K3824J1076r140l0378m5963m7107k9923o356K369r577k1555r638K2989
35088a34664M9638N3222M3635L8669L9599L4564J8256k779k0762l1798l1745j8367l12N657p813k9171m0663l6331
35070g1165k3591j1534l391J807N648Q609Q620J962j1156k2258j9807r94K2951L5420K9449J3882L607L933P037M545
35050a6426j050k180N65n74o401p228K555J4592J8086J4869J4412J8030J8016J1266L534j224n971j1451j1160k040
35030E0220P131O602J80q77L869L249o420j2907n523P352Q203n531j7752j4875j892O650N195Q80J745O940Q684R54
35008E2077j3878k5393k3085o323J3764K4071K1442J4191J2106J5837J6719P622o574j2365l361J1162J7787J5035
34990A30834J0403M930o984k1405k3197p473R694J2126M137j608n703j4762k1203j2082M444N045j2202k0239k805
34971C1950J8168J2066j6435l2530j5909J6421L2857K1030l881j7984j2659r59K51q137j0883k364N325K368m378n923
34951H394p098j4684k0254j1786L884Q424p4m199N722J7136J3090o712k7930l6467k7999r591N932J2599J7139K5953
34931d8521L1328K2621P207L239J0948J0090p824k3517j8078j920Q58j2450k1651j4245n99M656L675R722K5720L6579
34911A7838K5380n648l5031m4442l5888k2295q421P798J9883J5966L58m971J0614K9255K7765P542j1424j8239j8366
34892d2326j8028j6108j1342n729N04Q379J4091J1636K474m416l005M590J2992J8469J9979K0069K2755K5986K0071o3
34872H0978k4988m0548m3515l9390k9725j3248L550J0485Q613Q550J2955J3694Q728P105J1530J0472k640j4280p806
34853c9480J2108K5288K2026J0670J466m182p166n620j442k534j1293j6893p458J2562K5715K2839J3188R597J0877
34834G0268O750l723r831o781m834j4242k8348l1123j8404k832K123l798j0089o549Q105K3882K6295J0826r653j6911
34814a8869o411R948J8231J4090K506o715m828O663J4313Q640r53J527J3548J6785O526J37Q093J3756l208l4793
34794E8986n2587m1973j4093J2216K6328K6166J7035J0999J5796K3310J9479N199m772m601m763j2202j7775j2899
34776D9849o934j4515l1910m0265l1275j6901j1057j2185r516Q66J3548K3362K9974L4004L5169L5103L5995L4454
34758A17766K2428j394k5370l5537l0049j7991o529L924J3410J9480K1702K1988J8997R409l872j2972j6793k1980
34740G6617k8547k6078j1417J337l13q022n709N773J2888J2704J3383J3637K684j6075k2577j0137R83o743k0919
34721a6531j8833k315P332L132l84N534R465J47j3323j2504O309K7971L5350K4482N091r434j2880r218n783n858r679
34700H071j7752k6715k5876q293J4973K2927R966p075j1485n568p16K61Q02l22m783n593M255J7519K0853J5201J3327
34679A3977J7227J4688K121o044M63J0424Q192k382m992M422J3808J3273N182l909j1698j9085k6673l2120k7896p140
34659c8162K1900L5211J9042q225j5205K330J6588O461j4781j9631k722J5223J5096M87r846n279L798j548k2582
34640a845l5661j9503J4994L5530K8541J2952R866J5186J2660N81r105j0487q366o773m483j78O524J6541K6632K7780
34620A11386J6393K108m570o908j3657k1574j9374o598M885P497L864l472j5135k6498k9390k5197k4091k7240k2057
34601i9628j428K2631L2004K1744P25j9346k9463k5303j1358J111N674O480R359J3271J4795J4579J4258J3018J2478
34582d399J8307L0468L8144L2186J7695N929k027j4080l1801m5787m6822l4479j4587M678J3739P137q216j6310q267
34563e8492P921J7515J5719R757O727N816L761J670J458m45q189j6171j2506L984J8540J8165P215k333q874j7741
34543f503k4844j8808J5J6387J9115J1490O21j0179j4364l154J7693K6359J2241o716p171Q789K0637J8679R264l181
34523F6370j9569l2347k7935p910P776N391o683j2791r702m405j642j602l148k074P980K5670L7537L0587P141j7403
34503D1241k9347k6029j4348m290j644l821m317j591O88J910N665J0687R787K993K764J7176L4536L5456J7430k814
34483I2132j0263n320L168Q278O018m868j8821k5190j9100p168P77J977k24l262o939j0737j3502j4485j2501o650N
34462d6675J406l101n229J671J1210J0496j951j2212p306J0208K7492L6360L7778L4164K3644L777k1451m0544m1810
34443A7927k4011k72J1647N579p618j2524n138N660J0190P541L716M194R425J5382J7135J2546K998q951k0906k9211
34423A5309k9244j9689m861R394K0189K5894K3151J0299o967j7319j2218P364K9692L7235K0021j0625k7758j6820
34405E3047N976J2568k993k1178k6015k2994k4090k8051k3979p136J5589L1118K8372Q507j0838j1425K237P836j752
34386a5201o620Q025K4688J7708o393j6013J112K3278K7407J5969M385j414m317n168m059n422j2361k0304k2977
34367B323k0546j6654j1940n681J83L360M196K965j903r292j3237r206K65Q869J2385R585J403q341j4620j4880q339
34346h9105O185K5093L4694K2351m679k2704j8757l909O278J2534K3033L3952L2996J8052M9j0776j1926m982N061
34327E3440R448M828M41N815J4095J0085o531k0035k2057k1548k7135l3290l1134k1207p382J0877K9891L5294J7678
34308A573j0455k6713k5764k2212k6429k9620j7359J0140L7341M9527M5769L6958L2501K9359J6968n791k4076k3532
34290D8185r013J760J231j598J797P575R500J0518J6203K3395K4476J8942J1983M097q466k2879k8531j9947m796M864
34270H9296N488K667J860K595J266l437r310j4072j8148k2454k4387j9650r309j069k30k486j94O179Q007j65j3291
34249b0844k0240j3437M698K2568K8911K4155J8774J7604J2850k38r226k84J5830J1992j7229m2972l7242p766J4823
34230B727J5629P358P577J7503K4903J9915N275o587p280l385q080k1051k6560j6436l653l614j2279j5940j4205
34211c8183j6714k1440j4587O498K6196L0986K4649J8445J6318J4958J0622J811q725j3063o141M841P242l59p120
34192C6234n705R05Q511J5874J8345J0271k727o518J508P353J115r448j2671q364j771N862J1824Q757k807r546l958
34171F3044K780j203q228l502J0806J9880J8327J1777J926j2318k1849j4425M160J3150M291q833j2741j0775j2236
34152D4031j7614k1522k0265j0949O610K1540J6967p877l0008k7443n578J0635O153j1832k7420l1226k2186l898
34134a31882J6215K8623K7470J5256J295m918k07J0797K0197K2592J6654L644j2484k4685k6348j6618j145J1875
34116d3669J5919R963J215k4O675Q217m980k1572k0306Q50J8740J3665o228j7793j2967n020p113j5266j5444r71
34096i6109K1024L7285L9030K6381O277j1924k0302j5853k954Q822J2179Q096L490L802Q970J4780J6119J0805K219
34077G2137m363r864k0455l4182l6150j7358O688J1034m471j2276M876K8045K7157J868j9393j8036o081m712j6121
34058e1657k5635k3448j3116r42J1995K3841K6150J2186j0507k3535j6724M10R850M961m725o436K695J4816J9637
34039e0184J3436K815p83P344K0219K7613K5935J6510J72j8589k7087j6319K906Q177p273k6437l1204k1549o826R198
34019g1926K4658L1699K5182J3072N895J102r545k1429k0974p200N586Q928J0132J6271K1158J6205M711l233l426
34000D6866K027J0143J5108P884j1933k8157k3311p23J8710K1571J3454M598m108j5507k6455l1875l2324k9813k1375
33981h5220n427R715J3743R258Q608J5494J9928J3859K114o604j0813j2491r832j002J0152J8457K2574K0908J0277
33962D3698l524k867K0879M8851N2117K6705k909j5926j5962j6086j8495j7669j2831p621m148m225r410j3926o546
33943D0105J2530K5630J8591L08j0047q995q783j5623k2631k3631j9608r732R591L1336L6821J7780q749j7976n335
33924D1582J1826J7239J0393j225j3946k6758l5170l4330k7035k1740k0587j4627M713L2045N1029N1050L7419K4710
33906H6588K3009L0782L7796L4041J7928l422k2544l7279m5849m2200k4252l167O696O265Q132J3618Q798j0855k7612
33887E6473k4887j1070n419r496r470j612K553l644j2249j3375n008J1586L3531N0068M6802K2581o073k1869k1647
33868G7775j2598k640J993k004j1130j7580j7554j1700Q36J8441K7868J3970j6652l6225k8449q094K139K096P461
33849a2047K1680L1951L0497K3567J7361Q281p734k5219l4143k9823j4427O737K6364L5599K8408P612j4308k3500
33831G6856j7239p366p004j4358j5967o500L706M963K600O854J5394J6381N676q719j7859j9192j4153o658l168o279
33811a2032q873k622Q341J1447L999k259K097J1263J2696K435j2405k1706j9583q126L029M959M8J66J1842K7442
33791A2158L3755K5332P510q733j2472J27J9081K5630J0689j3724k6707k0787p120L68j14r82J745K940l618j4694
33771C0384j8780r264O387J4162R021j007n704k795L423Q534J0641J0117Q853P086M27j5556l6223m8370m2844k2994
33751i4502J239K2508L6392L8978L0649J9045J2231J0241P509J358o362j3958k1373k8295l4450l9987m2415l6533
33733a37725k1927p115l37J098N984J6156K5211K8422K6146J8436N420n647k802J6557L9562M9470L9809J6264r341
33714A03641k4576k2776r378J273m58j0480j6830j2048R08J1618J1036J468l104P387K3915K6955J1117q341j6147
33695G5180j3449q600l065M135P268J575n160r75J2523K1624J8910J0619N659N931Q102P445n76j5815k9990l3210
33675F8131k3628o665J1275K2342J7352k235j7216r893J1081K0283R799l361p256j2375k8990m4725m0860k0185k129
33656e9255L723M183N976P065M541J73l036k522M238J4795J9387J1799n47o516p974j5108k6570k7770j1887Q985
33636g6320J9258J8064J5848J8324J9899J1500p877k6773k9970j4832L383P980L00m186K756J3755J8936J7755J5354
33617B3154J5387J9396K5943K7861J7867k07j3258j4812j1475j0910j2301j2754j4108j7929k1601k4183k7317k5863
33599g7110r593J7969L5239K9514J7028J9884L1589K5842l001k9367l0161j0979Q146J7097J5697L110j7949l2881
33581A0074k5708J552K8650L7392K7171J0856O29j118k53k167n151m054L91R36n876j4835k1672l1358m8465o2512
33561a05518n3810j7695K4051M1950K7208j546j7789j0514R602K2778J8383L453n850k256M605J378r497j0770O138
33542g5699K6328K8357J1529m537o948l614o532j3609j6400j6036j7904j5614L956L8076O3585O0519L2166k079k5936
33523E9608l3853k7932j5348n336k457l721m271k632Q86N212N681k467j3401j1736Q116L0224L4220J9426J800r243
33503C2776j8153k7973l1858k4727j2534k907N204J4896K1158J7011O244J04J657K327m048j1736j1928n005J836N021
33483d2635N469J351j0483k3621k2442j403K1388K0264q525m1631n3559l8620p730K4726M4999M2593K0944K43j754
33464g0426J0586J9452J8172J5322J6311J5181P076m086j4764k6378l5208l0284j0209Q825J2469O572M730O611L687
33445d6361k45O834K1683K5578J2234j180O73R229O942o670j8050k1900k4721k7369j9533L338K8280L7740K8916
33426A5418J3651K293n294j2857j8358j5253j306J7042K9231K7889J2309j1417l1530l5524k0223J992J2139L555
33408a6243j0719j2884p01J1261R599l768j6590k0560j6866j0342l673J948N056O314J0307K0421L1965L5242K8032
33389D7799K0789K4112L2546K7846J342l1845m6293l2917p693O558K821p700j1938q387m082l357l745j639K089L368
33369I674l89p918j4800j6152j0746l155Q17J622N377J4069K0689J8129R092J556k841q621j5476j5862o303N762
33349a5476J0855Q451M249N27m448q706n191Q928K4655K7209J1024j2615k5193j8770k421R336J0641M732m037j1878
33329A1872j2624k644J0595J3677M014n894m465N758J4858J7874J4509L749j2891k7032l0287k3304j2376j160P718
33310b8053Q101l018j6964k1649j7325j4367j5871j3533k807R080J5198J9521K8321L7701L7981K7533J5357J0668
33292G5874J4341K0076K0939J4761M733n384j5370k5129k8919j9816j774R647L985j0662j6613o840Q754J5986R902
33273F8491m439j9190k8555k9147k0055m493J0021J6003J2150M214r86r99L133R384J3306Q190p065k1952k3533j2470
33253b7992l032m906j1300r007M875K1059K9231K6239J5447K907o091r804r903q117m774j357j550p365j5877k1518
33233d2835k0403j2221k07J0216J5535J6892J5532O961j3340l7224m5716k9778l390J1724J1126R500J8622L2066
33215e6940L5182K4687J2357R469J2389P850q212k3226k3050r025P097K0558L4152M2422L1046j125l2322m1311l1762
33196A0236k1446j5351n245Q081J0900j147j2382p517P112J2433J495j3413j6607n293J0033J6863J1489P21o231p083
33176b2352o258o116k793O658J6496J6916O466m781p099k911k132p228j0116o205l123p644j0960o9J8443K2291N153
33155g364j1527p504R957K1626K4999K8912K8969J2304j4286k5313j2512Q48p558k9153m0813l7048k8727j9351k817
33136a16358J7462K6654K0184J2328J5554K2116J6187k352j7562j9291j4455j3169j2586l108J3243K1462J2801l792
33118b4682j4943j9484k3024k2549j0149R079J7569Q605l199k590N054L706q507j6547q703J0543K8466L6759L4742
33099A46K6972K0474J9934K2735K0898Q887j1684l3483m6712m3582k4960k097J3518K1592K8584L2324K0599r627
33081F4518l8807m0581j1030K4729L7778K3170P5j1902j1114q885j2199j6812j6459j2818j2129j4014q908J0755
33063e4633L8334N4827M4936J1913k4198m3940m3548l2589k0149q882j976o765k4048l8676l1383j920K7494L5753
33045a19450K3998Q903J286q09j619q42J246N76m237p731m142O119J9867L5324M7630M6244K5962j708j7571j5497
33025D3549o386j378j96J715M022M399K967j372j1630k3705k4262o509J7060K6860J8212L169o255p875m826j084j025
33004B5450m893m959N485K0047K5149J7619O428k952j3819k5369k7948j8095p538q075j5035j4944m286Q235J4520
32985b4980J4351J2126J2538J7399K2107J8562O165m744n984k957n917j4559j9626j6109n478J1978L5565N5353N7040
32966A62830L9006J5206k104j3039j9643j6761l265O300m367k9342m3695l3687j2478J97L609J0070J9470J5857p103
32947H7061l0555l0717q356J2946J6101P568L564Q501J2711O769p473j9053j8674q143O26k006j2797k0583k0318
32928b2828j6462j2770o654L178J0646R860M813N599J6014K8613L1705K0256J389j0922r843m004p534k2287l6196
32909a7427l9065l1581j7261L989K8735M5399M5084L1837J6503N910K829Q216J6107J4308k62j3470j1214J362Q887
32890I8886Q051P528R539O575l305j1550j1819o327K184J3395K1556J6620j198j7034j7653n868N436P461K12j0476
32870A12213j6381j2363k238M162J264q272j8694k4429k0128o286N523L254q439j2491l409M907L40j0389j3588p024
32850c2468L114J4437K5713K8275J3792j0188k3529j4632P820K4957K4890J0417n460j1043n497L211R764J6246K3532
32831A03351K4404J1528j0698k7497k5649k764K9837N0180L9430Q56l8735n3835m3965k7497j7534j2727p650o30Q721
32812h74J9937K7818K6083J6704Q577N361J630o549j4150j4277p985l357p351j9984l3359l5802k1109M449K6998
32793b7240L7195L5160K5703J4269N951J225o515k0529k8383j3120J8669L4041J1014l0442m9630l3163o022N414L935
32774b2468P511J8646K2404J0513o222j2161m939M809P198K603m65N309J7393K3102J0869j5969l9202m3057l0037
32755d4163j5795r599n832L287J3393J3555L690k406N660K1141K8880K3352J1683J982l322l725%Q85r998k9599m2314
32734c9245l9544l0040k1992o440K5279N5573N4250J8864j9534l5779l5004k9888j7258N518K1126J3949j288Q51
32716h0602J5183J3017r897k2556m293K4871L3795J9788K193p340r154j806J4974K8173K1275k911k3129k5102j5095
32697b8616o270j913L196J1213J6530J1829k611j6396j8222p811N450J5851K5568L2801K5932j202l4319m9614l8403
32678e7007j3774N343J0179M640l49M832J9673L2449L1498J6981o39j0749q731L020J5602J9002J1303p32j1667k1140
32658D9734k5802j8553j805R769Q251K825J079o458k7637m6926m3297k2393q212o605j069J4973K7003K6050K2783
32639d6290K5121K2809P490r106j2051n257k079m579o410p903j3759k0763k0274j0421K627J2134J3737O959m59K385
32619f6089J3747J7652N671r799j3283o514L30O598J5465J9388Q866q941j7329j3199p363l701M890J8772K6314K0737
32599A2212R520K578J260K090K000k155j0007j3123m379Q090Q551l790j3406j1680o614n061j247Q669J5176R945N22
32578I151j526J659K92o242j0263p903K64J4766L2196M0366L1405J5543Q327P090m310k7228m1543l2643j1037L445
32558B1809N865M101P55r286k4960l4764l0280j7219q139p472q388l572N713J3620J9139K5871L2315K9306J2399p295
32538A9518j2161J763J9700K4673J3800l727j8833k7641k8353k0372p586K084L311j696o467q231j1286k1238l5427
32519a18169m0831k5028R283M3258N8369N2989L9997K9610J9994O414o706r554q09R780J4194J4430J3776O779j3220
32500A04556l8964n2029m3276k2758n254O482J7279K4479J8300k202k2552k6811j3823L930J4511J5593J1311N362r40
32481f806o384r100q495n861j799M795J2837J6345R990l167j4415k0102k3686k5947k1230q146L694N427J677K302
32461i8071N873L096m888m753R635K7333L4767L0897K2385J2250P09r044j3678j4510j3633r463j847L335J523k518
32441b0602j268M506Q858J1690J7657K5323K6708J9162R983O652Q214R251P813N714K887n123k1871m1131m6174k5068
32421C181J1400L4977K8616L679j7122k5677k8246k7829k1412j1611o229n362j065R395K1048L0705L5783K5742o979
32402E2994m4991n5288k9172M820J8230J5451J5662J9399J3659m73p409r77R073J3167J0169J890o627m253J3837
32383C9161L2636L1203R611j2195k1200k1617j9545j5373j3450k0602k9852k3287J376K3473K7108K0141J5311Q818
32365C1717p418k5096k8485j6832k764O304J1583J2718Q227L524N985J3441J7582J5939J0686L97j4787k4189j7560
32346I72l233J0j0716j9834j8761j6890k1286k1689o159J9945M1075M8519M1041J8510j2452l3789l1411j3086Q77
32327c8357L050L302Q635J2333P540P26L881J8568L3527L5474J9771n241k2050j7611K390J7050J2169n229j7999
32308G1929j8573j0970J105J7097L1386L3720K1750N411n133r223j0025p563m014q235k4969m3434m7139l4147j8263
32289e9290j0245p578m609k443l503l794K449J4021K3270K2934J0784p515j8277r830J2542K8308K4510J0737M239
32270B6710O848P205J214l386l062n733j7063k9829l3862k9030k0802q610J1497L4266M4793L3976R331j2914k3000
32251a1451k1792j3680k520N091J254j1969j8547o181J3744J6776j028j4355k558K0812K7840J6361R092J4762J4130
32232C5781p035l1783l4694j7703m918p839j3509o919J0001K5243L1273K8018J9359J1404R123J1150J1710Q817N565
32213H3044K325n777j9926l1205k8283j0137J1268K0226R602j2653k8827k7031j2281J056O727J0554J7201K1741
32195G624J7980P249o532k3106l9454m3716k6705K308K2071K2989J5716J4025J7331J5101K987j1262j6439r278K072
32176b9039N629j238p174K35J7542K7933K1820P111m463j2437k1086k4989j3765R233K4530J7905k478j5301q567
32157h599J0966K7134K8377J4437n747k1590k8361k8011k3057j2667K691J5809J7647Q247k291n988n529o882q204
32138c1618l580L983L193q631j7856j0642Q967K5047K9714K7498K2895J5934J1103J7071L1104L5271J8426n452j2352
32119A60075K256J9755K2303R524q703k4645l3704l1676j8483k082O126L26j5351l0232l5814l2853k7858k1241n273
32100f7550K0143L6550K4487r046l3895l0919j1271L223O492N549J908r303k4393k9246j6244N018J7968J5515L736
32081i1278o446p494K177J8694L3540L5995J9299j2145m2850n7015n0400l0455o758J4681K9487L4763L3224L1583
32063e1398L1248K5425R576r623k0875k0976j5683j0072l972K859O766M611o9J263J3083K9764M0350L8917K8031
32044I9225J2893k628j3413j4685j0801j3647k4223k5575p356J1242L312k3986l3234p281K7064L6422K1053K658q890
32025B8150j6458j7417q112R66l084j2236o857J2792K4473J4775o244k3290l0837k6398p303J8172L2016K8178K1404
32006B2690K5833L5305L4007J8448l65j1063j0718l555L083L643j744r602j7466k1303j3056R111L0462L2416J6238
31987A42364J150k255j711l383J48J3288K4257K0730P487l329r660j5194j7087j2274r254j8309l2937l5341k0808
31968B7882m799l218j4003k1466j4140L935J8085J9262J4368J6068K3727K3728J0609l963r197j0090j4748j7876
31950D4164j0314K656P289J783l188k244k89k68J243M535M150r14l369K075J0843J4294R559J911n38M789J0297N465
31928A03929q985j9782j7547p215L076J3749K5656L0426K2139J1202J1539J9185J9438J1299O955Q495M395q247j6280
31909B13427j0833Q34R774J6182J8812R435j1682k8201k7854j9784j9654k6434k7294j9018j0279n407Q43J1294J9312
31890I3473J6927M373j0600j9902k1116j8516j7902j9900k0201j6149r198j019P579J3142J1527N040P94k07m955
31871f810j6254k6379k6965j7852k358J6991L2428L1270J2153p054r022P73L418n815j2976q470p32j546p832o650
31851e9682N763J8199J8911J0814P624J5414K3796J9875O743J63P888K1198K8162K5792J6254J780j0715j0289L446
31832A51136J3764M464k0674m3784n2421m5448k7178o473M428K470P62J0724K1969J4902r105k6711k2910o514P482
31813b9117J4261J1663o804l8447o1674n4599k0323J5924L2493K7445J3226L679M934J2237J5215R346L85m554n350
31794f0060m406M1Q811J4650R955k7k075N494Q610k157j6058j6419n109m62j0167j8991j0919O186J0744j660j2787
31773i6806r653k561n809j2858o284J2931K3439J2609o923j5462r964j938L27j638l663m916p331j3115k1520k5494
31753a96629j5054J1763M2991O1664O0357M5623K9996K1226J7310J0344l188j6092j7986r416k860o876j4150j0160
31735H863Q489K8154L0095P505k6938m9785m6411k3682j148R017R155N956K544J644O057J1453Q226l496j0087l537
31715b7926M828M94j1663j3799k24J6626K3754J9533Q790k119m324Q131K8408M0743L6919K2408O183p091j4670j5924
31695A19077j6870k4583l4685l4562k1875q692l126O82P864J1153M497k364L479J7198K1475R703p637j7782j6201
31676F751m277J1709J8850O397k0012m1018m3941l4212k4299j8294j1967l170L417J546q422j6929j2605N499K4823
31657a60154L1132K1429L043j5118k5263k0339J07K5649M4237N3637N6454M9022K7493K192j0011r252j2754k6544
31639C4960l3613j9530M879J9408K1451K2289K4931K1909J0880k562j5119k5106k4285o158J7471K4067P904j3440
31621G0336k3426k3450k0925j5839q230n812j2186j6584p482R971K1172K0893J4107L826r167j8070j5039l525N796
31602c3634J0022J2814J0460m329k2672k2114K262K4760J9947m724k1331j7805n586L641J0280J4941J1709J26q399
31583a9632m533O678J4772J8124K1171K2638J6117J493j1889j5424j0725o858r259j2635o819Q763J9701J1615j0942
31564C2356k8949l2988l2437l6462l7684k4669k232J3333J4820P960j917j3641k1481j7010k846P533Q273Q822J7772
31545a41447K8697K9250J7312J464r336j1445p316m615q937j4600j0384K366P539m041k1033k7498k1965j0985M876
31526b02098K4557L5118K4890M125m809L067J2201J2911J2662J6810J6390N119n167J113K1072L6229L3382J4863p561
31507E4874k1685k1011q811M697J2177J3928J2322P685K387J740N846O478k264j5011k1537j7174k891J7733L5127
31488F4610L4844J2177j7688l3200k8214j3163J250J0983J1384l106k6904m0810l0498m241J4534J2168k358j0302
31470d8534m944L529M233O59M379J6857K6024K2706J2665P526R531J1669R293N090L849O897J0670Q173n049k3505
31450H1718l4968l5262l3809l8011l8747k2383O258K5805K4346J2090M758M926N734L715r44j0828k7166m0562l5778
31431a49108r320K3152M0799L6189J8148N33p221k133J1018J9138J0286j0643k2084r286J6765L2410K9139J7625P695
31412E3102m76m757J409J2902J1030j0643l2163l2507j7174m639L525J7896L3057K8952L265j8618j4229R881K9702
31393F9515K9334R158j9152l8054l4632j3712O145J3810J4282J3642Q481k449q888k839P330Q471J560l068m052q963
31373D5919j7596j8735o543R376J4990P411m012q319j341J3804K9881L7838K9610M921k2565l2281j6813Q124K0807
31354I4476J7167Q663J271q568j7301j1865Q573K3631J5626q402k8780l6572l3527k0345q32J0244J483j6053k0102
31335b1213o261R089J3721J1276P045o51r455q825M011J5208J1185l140j1469o128N888J1798K755j8978l6646l0415
31315f1205j221K2962J6313j2333k8918j6200P585J6840J1108P202Q921L684j0871j6510l98K2677K8677J6620N851
31296B0784N095L364n925j1014j527J2411J3617J070j2609j9691k0817j5306j481J5039K4661K4924J9580R373n813
31277E5735j7850j5931k233Q944R779O487N825M389l380j4398k0129j6007l633J2456K6709L4066L2361K2733Q710
31258A34633l642q547q003j2135k5126l4553k4096M323L0190L6359K3835N747n074l713K471j640k0353l5501k5936
31239B9239K541K2074J9123Q781P128O914p301l2550n0135m8210l0648q281R361J7405J7811J5388R109n123k0721
31220c8095k1647m398J3823J9049K0343L1912M6291M3303J9724q236k9376m5836n6278m9883k4272M529J9266K0164
31202c9617J9441K4216L1658L5723L2078J9277N17j6903k6946k8928k5489j8713r148L700K0483L8843N0564M5243
31184A55999J9724j6218m4564n0824l4338r233O302M387q164j8846k0292j2704r22Q040Q756K774j857Q56Q708J4729
31164A2313J3363K792j3165k3507j7293L484K3782L1637K8208J9246O347p043j1113j616J0419J1232J353r329j7012
31145F4098k3086k3639j3594J518J1103J4915K0046K4367J7720N43j3043j4056q368m235j964L47K184O220J7448
31126G8524L1464L4007J8549m568k2416l4220m5030n2527m8320k8745J35K4463K8717Q326k0423l2006j8462K668
31108g9864J1296O459n03l716l675J914J5765L1733L7972L0036J4572k0j1725k2961l3703l8447l1621j6846o221n210
31088a04765l378J0211K6911K8242J4645O701J3751K0416J3225J684j490m352k0313m0560m3629k6282m113J4834
31070i8262L5721N6673O4377N4194L6726J9424j047k2223l0043k0523j1682k0053l6718m1358l1407k1033j6504j0125
31052i3863J308Q881P848Q149J9430L4216L6688K4069Q788K87m872j2039j7336j4451o426j904k232q40M758Q689N864
31031A5012j642r459j5257j6012q484L859J1494J0857Q493Q213K509j4842l4057l7346j8753J1995M1567N9904N8739
31012G6790L5563R95k6675l7231l3992k4239j1616P57P315M581m087j0619q442K287J4186J9812K0460K2911K5677
30993G4433J7174o027k8152l1700j9372p291k624j637m775j6407l0714l5363l1224l1427l7002l1237n926K2792L5322
30974a71157L2367K6957K4262K1420J8303J6461J4240J3160K0708L5396L7815J1901k9334n4264m7467k1929J433
30957d9728J2760J2342N340J482Q615K1663K6630J9432J1851J3709J7513Q492j4855l7809m5754l8128k5939j8888
30939g1272j6599j1935j538R660J5222J4724J1091L980q331k2125k9776k7932j8397j678K2283M5497N3338M0518
30921F730J9945R258J2294J9514K2614K0428J2208m411k4792l4898k5596o619J891o990j8307j3792N684K1895K0959
30902C8015O626q169j5645j5544r336P04Q335O296n165j6385j7668r203j81R16o366j6127k2805k4565k0798r727Q300
30881a28492K6259L3882K7838J6029R096Q957Q097l98j3999k2180j6342N99J4685J3066l157k0193k6193k1850j5398
30862a09694j1584r463p754o275k394Q185K4456L6971L5226J8638j011r481l465O585Q681L224R09O846J2940R440
30842A0980j260q286o245R61Q010J2395J1745N190j225J762J4315K5209TJ6661O631j600m602M372K3655L4350J8334
30821A96561j4671l2708j9503N517J3106n33j5958k0261j9570k3046k8514k8109j8846l780J0209J3890L965p431k286
30802H032J8414L0335J5930j0507k1058j1368l984j5186l4263m0885l0825j5894n359L174J5714L0792L8216K8665
30784e7N157j6407k0944p454J3629L2537M3970M2901K7107N039q195o746O51M363N726J0499J6637J5652M218j0659
30764A57624j8825j7969j6819k4827l7005l4710q551K3802L3554J4274j1168j8662p526N420N831q343k7412l5566
30746b6878k4363m453M629j305q093o941o215j2831j7500r843M511J4472J9492K1910J5154l947k0487j7315L39J3402
30726f6262J6806K0548K7158K8629K5353K7399L3422K7718N273j6807k1906j4911j1292j6107k3862l0781l5989l4423
30708f0034j8907Q922L4622M1299K5421J662j1728j2856j4775k2680k4428j1917J135j877j2876r930Q488K0915J5292
30689d4252M087K224P439R943P686M341K421L514O503M154p397j6335p386J3136K2375J3706M409M957K700j2224
30669B6001k4875j5822J0707L4218M2159L3971J3655p253j1045N782K1952J5663p976k6111k5767r846J4021L5376
30651A24810M0548K6463Q736K272J270p679k1792k7913k4195j8411j1297J38Q482M065o873j0400o649m587j095J1637
30631H7530K1645P377k5074m1735k6036j000M735p460j7751j7674j2967q401m270r32L099J1185K0498K2264J5385
30612C0418R445Q484L828r134j9201j4688l20J1920K0062K9012L7446L9049L1726J6202q509l7966n6079m8256j9659
30593B3780Q638K1017J8179R105L26o388j1447j4503j3287o796J145O199J0785J9408K6671K1062M037p120k620N323
30573A13514R16j2942k2668k4801k4475k0153o424J0646J6706Q421l356j0530j5476k0387k1327j6459r725k885O325
30554e5080J4784J3427J474q252n082N954J3107J3482J1720Q653O15j1873k2568k6553k3690j5952o201J544N847
30535h4644J1208K1972L2956L2763J8921L733L83O909R813K063q763j1320l915O042J1879J2331Q668K568k826m141
30515F6600j575J267K029J266p39m640q155o317J058N992J204r763j6005j1897k178N103O380L178r88l238m088q309
30493A6185j9262l1477l3657k2027o345J936L740Q029J5684J7321R541L570R713J9550J5198m489j8652r825J4187
30474a1080L0558K7453J1736n209j8829k7564k6911j4014M476J4785Q781o718j5984j1410k121j407p702o241Q445
30455d8956K1318J5305o009k3443k5733j8169j0237n359l192k308J438J1302K2520K6008K0868J5938J7044J9884
30437B8219J8036J1289L333l164p446j2001k2569l9451m9995m0422j6463k38k880j2125j2207l840L353O877R879
30418a41815J2779J6408K5396L8283M2212K8976R722J933P420J5141J9900K4172K5175J5862q74j2333j2235o371j796
30399A07955j194p915k3743l8995l6804j2681J8099L6019L3280J3964j1376k8432k6983j1745J674M802K710O78m324
30380A4989j3786k0464j9276j6114j6630j4445k219J1583J1073l009j1339j716J4414J8356R719N591J5899K9558
30362A2184K9517J4724j101r869j7239k7441l1699k1817p588o241j6126j6244M056K8679L6603K9841K7885L9303
30344F7427N0797M4510J7640j6825m2597n0898m3438k8890j6311j0361j0656j2964j0744Q47J9811L7540M5723M1888
30326H2499K8123Q062j3117k8977l5498l3283k4903j2382J025R433Q459P33m667L54J4305K4395J7011o066k4803
30307A0703k0361L587K5119K8397J6039j677j8402k9035k7030j2749K542Q625P109M283J60p397j3979j3416o857J399
30287d2940J1862K3605K6003J0344j2826k2953j6664j0968j6161k0921j1933N015J5033J6037J7716K3574K6902K4105
30269D4830K0750K1220K0110R284r492k3224j9904j679J5021J4466k900k1851k8851k3200j1767J00P904M917j1054
30250D680k9175l2551j6266O558J9005J6684P999K684M095J0607J9434K7358L0167K4919J3966M550J355K08o533
30231A09744j7516k0962j0010N038O866p645k3230k4175j0386O248J5505J5122Q223q4n037n097k283J864Q637J8161
30211F8983K5447K4032J2911k684j6321k3808k3313j6052p028j858j740l015j786K736Q875J3905J4433Q036l740
30192G8013j4887j8673j2480K73J2492J8405J7022J0598N56j2555k4851k8967k1152o482N597Q913J886j3957l1004
30173c1253l4396j3297K3862N1621M9989K2978p162k1673j9272j1172o428l836K428J1552J4368M536j2106k3240
30155b501k3135j6103r015n432n839p928o390K491J5431K5301K9051K8047K2510J2491L384K420Q650J3671J3082R697
30135A09883N243j733q219p451m87L064m78m453n848j0997k0858k4270j5594o205o459q331l45J1482J4887J4373
30115C7204K2769L5245L3202J3328p556j7918k2169k2783j2153R589K5705K2373N367j0627j8082j5532l234J1390
30097H6118J5304N976l576l617p77m069r836j1906j5533k6932l6787k9782p271J2602J6312O819l589l753R647K7120
30077B2470L1705J7664j012r366j1571j9966l0978k9039j2479K442N755N456R528J1675M380n397m912O248J6416
30058I019J6500P396l767q640k303J0656J6933P673r862j8848j1280L827J0852L159j2253k3293k4339j9441j5263
30039f3274j3195j0021m230K371Q991J7439K7497L3796L0234J7081K465l862L23O158K192j1027j8583q727R864J6117
30019D1609K228j6583k0592p026J0615J8114J0192r364k9718l8128l0471j6261q070p341o271j985p49o411j1899o778
29999a34889J0387L0861M4183M5153L5040J9412L768j0253k2941l0708k6710j0164Q837J8227J5538P304J56k928j076
29980h03L155L186l602q558q60J5907K5105J6947j127j5988k1808j8728q997K05J49o553o355M297J0022n72j4578
29959b9556j2555K834J4003J6979K1284K4783J3279j1462k7026k2065j1843j0963j0166M413K4968L3225K7090J8355
29941F5577J1599K588p439j2630j5046k1049k6665k1285o778O49q848k5934l3215k2545k38J9036K3937J7453J4195
29922d6638K1472K7818J8502k367j6135j3764m828k919j1401k3101k6109j2502R901J8871K868j9100j7780P453K6829
29903f2930J9401k484j3267l805J6160L1849L1733J3762q051j3458n06J0130L659p728l910J3575K6128K5794K1913
29884I7965K1651J9358Q888m768j1976j0781q236j2033k2630l2332l2744k4401j6471j4619j3106l418J2400K2941
29866b4312K0726R275k592r008r411o091l94Q981K1964L1358K6578P265j1525j3768L76J7337K6809K7866K0510K854
29846A44798j8659k6020p753K1839L2319J0258k4243m0521l1884j7678j3128j1416k105O165l191k6055l7517k3180
29828f7971L392K0160K1760J7404J3635R627M157k175q628j1501m575R804J5487n64k8392m3529l5824j9253j0926
29809a17912j1092r434k083O093J1439J5126J8204K0033K1761K5309K7614K1773P392m593l055Q815J5664P607q816
29790D9845j9136j6599o577J666M201M802J0032K0165K4785J2957r643k1248r037J1978J5248m493k5633k7290j1993
29771D030K102K370r164k0614j9693m152J4027K0285J4731J0149J1302P485q258k3434k0338K05K0132K5726J8357
29752D5248O038n752j4018j6944j5298j1293n762M00L773K195J20N118J8507L2911L9213L3418J7583k160j8216k5060
29732I0021k2243j4529r433j2494k1126k3836j1300J0127K1704J2969n246j2626j668J5296J9458L669k0772l4150
29714a6179k7234r936J585L649M487P824Q232L962K367P220J0846N625m973j3178j6842j6647j1892n449m214p677
29694g8424n648N013J2174O950l88M234J6578K1378J4439L357p052j5018j4033j755P577k304k4292l4421k3701o742
29674a22078K147M376N781O648Q098J4118K1544K0492R902J074J279N126O429P042R462J1716J3774J7819J8766P287
29654G0802j3073k5238k1001j1143o627l513M595J2262J1641N895K232M07j633N29R619J8199J9183J7273J8800J7541
29634A26750L526j8963l4771l6284k7891j5559l222L232M31m270J29J1588J4381k206l0237m9699m5267j8414J2198
29615a14548K4438J2928n150r026K665J2921Q046p838j9138j4121N985K8555L9539L4416J9853N331l336k881P543
29596B6182K1983K9739K6448J7925R838Q44r634j5881j5102j3406j4304j0450J967R658j693k3410l2999k5715j9281
29577c7291k4981l1403k3925n967R174J7265K2789K6433K4049J5271M274o450j5520j7686q284O603J3359P952J949
29558b2389N183R520O68j7298k3591r811P177J0174O287J2140K4373K4491R478l708o194q575j7641k2093j3198k109
29538c7116j498l827M637J8290J8886K546j5712k1478j2544M630J8432J7361L748l611P420K3655K4281Q963p395
29519D9668j8692k6481k2580K106L2995M1232K1362k412j1570j2503j4265j0526M455K0251K3528J3522m506k6608
29501E8976m2908l9578j8884k138k181p582m163M889J2497K2641L5405L4796J1871j4087j9858j2206j3818k4648
29483b0976k4017p491N573L777j231K373R004R513O426N861N996J755p184j7980k6865k7966j8708o969k702k473N446
29462a08838K0244K7492K1311J1781N467m256j8729k2866o702J4425J8028N302k591M676J5344J5247M890o187j1040
29443a7002o629P756K6644L7576L1142J1841n196r513m875j275j8O581J8746K1332J841k8551m5170m0803l2002l0475
29423e8050k4316R43L5397N5005N2339M0827L1104J9962M677p569j1241j1807j5813k0262j9539j5710j3349r363K348
29404C5583J7949K4182J3342p555k4172k8293k3118j7600j6589j6541j1938m997m330j2305j9534j6793p874l768o884
29385a31235q843l154P814J9035K7987L1689K6659J5788Q248Q131R789R237J1544J8900J9865L819j8738k6744j9786
29366A0005k0802m0267n4521l5443P692L4904K3113r465l0225k8741j7766r328l449L412J1816K2702L7212M9677
29348d9474M8902L2005J1096j45k217n161j1719j4949j2243j0635j3731j3020p39J4950J8279P376k808k00J0612
29329F179J7288J4844P393O52j629K345J0388J5746J2499Q14j4629k8191l2990k2294K350K6467L3097J9691J215m751
29309F6484N805K1196K5316J1746j0353k4595k4091j8903k3645l8687m8558m0332j9181k110J605o58L665J5778K4691
29290g4827K2453J4523J1142J2772J1222L640l265m176j604J779Q038J5352J3778r31j6165j6347l809N832O421O566
29270A2394J2437J8371J7675J1255J205j3734l0382l7689k8176p058J4623K9266L0819J3122k0477n1014n7464l6523
29252a21350m579J8279K3220J6161J1286J8212L1619L6092K3325L48k0506l2742l4387k5159j1141l815o667r638l996
29233i5438N465J1161J5668K2490K3562J1810n16N731K7896M2407L4476J1163j4887l6680m5910l4654j1496J186m590
29214c1156j1379k965J2518J7698J1272M647L553O615J3619K1734K1295R197p20M381J4535J0029p899j8050j0752j92
29194F7980j435j0896j5999j1795j430R732J4343O726p550j4029p319J353J092k325L761J8014K4677J3675o877k0990
29174F0708k3272k3206l0738m0747l7214j4698J1145K1503J7788J6315K1968K1423O088j2169j7273j0892o846r271
29156d9388q450K480J6435K0294Q810j0444k3042j9272l205J0289J0012r85j0371r459L84J0308J0261l150k1276
29137f9769k9230k0713m084Q789J4593J5741J2325M255k981l173K054O491Q621J0265Q875N74j0301j4764j2907j3958
29117h9297k0443k2858j4811l331L201Q908K1743L6230L7322K1694M110j733k65m702j5772j9991j0184J792m1j3131
29097h1559j8859p973P170J1380Q138J0987J8697J4995l908j6716l550K3808L3222J2492j5964k5090j5276o658p941
29078f2605p724L793J9133K5871K4000K1444J8849J0407k994j2741j4748j1977l784J4740L7569M4339K2786j2319
29060A14039l3382k9200j0978O213J6044J6572O813p382j3324m493J0036J4128J528j7696k6562j6957K289J3820R769
29041E1277j082o800p992j3237k2280k4412j5312o132j0108k5008l3998k2356Q212L9433N0381L6111J3634M980J3243
29022B8554K0514J0875j1077k8124l0824k4125j7228j3688j1675r223o890o506q635j1342j0857k888J4873L7623
29004h0643N1143M1839J3690j1032j4965n182j500j0076j9411j9466j1566L14J3428J8683N064k0839l3617j8630P323
28985i5443J6974O298n657m844M543J3516K0513K6236K6404J6261j595j7970k4676k0238r169L357J5083K3833K4185
28966A7611J3089j909p837j824N780N841o5o809j1964j0923J879J9550K3208O388j2399j3723k617M387N725R180R572
28945E2140l826k1763k2744p861k492j6916k9658k1138k084P136P450J2944K4515L0870K8616K4426K1374J6916J0953
28926A08858M061p696k4586l5047k8771j3654o151q419r444o053o016j0230r239j401J610n976j3694j2027p090p909
28906i8874j0037m197O600J1715R719P770O863N36j1165j8035j2999n14J1056J7769J8193J1302Q79m552j622L198
28886e6395M000N353J4823K8942L4396K2725k143l0141n1792n8270m3283j0501K4731M6265M9095L8799K2464M200
28868D3268j2260k2634k6093k7365l1532l6890l5347k1536o21J5414K0001J8512K0792K8761L4069K7852J0764o796
28850a641j3518p032M178J0083J0591J3847K1739K3973J2696l039p479N6N007r14j0133j3587j2552j1051p693k144
28830A1387K40j930j193N333P401k810j5677j7493j0940p662p031M27J1882J3254J821r958j5528k1135k6686j8702
28810a05000P268L2556L7061K4322J2093O678Q18q193j2823p660K886J0502J0518M465K69P388K5293L8761L1520M792
28790A23514k2385l1420k0241k954L806l814j3655j2710n028o291j8785k3987q482J4223K1972J6467J9320L6861
28772F6411M7940L3309K201k0663k4530j7725r791j675O884J1374Q261J184k599O74R492J8964K2116J2998o421k3843
28752A34561k6796j6265n489l852p688r877j1120j4387j4074j879J7562K7630J8642j982j9512k3695j1102J1971
28734D2648K5882J1076k6210n3036m5402j5923N478R606J1870K3614L6889L8724K6613O728j2303k1001j4629q75O236
28715E5985K926j602n53K127K290M116J1206J6951J1905l393j9120k6054k0045j878K0175L1186K1749k3j4671j0968
28695H2309M864J9608K6563K5291J3990q904l4677m5011l0605n606N681k911j3384q871M699R543J145q136p386J047
28675B9249P730O119l845j5473j9237j3118o834q354j0039K91J6444J7215l854k6430k8511j1805O776J7968K2661
28656b3047K0267R540k180m677k70j148q900q852Q662L0651L4705J5879q728k1051j8885j0152J21J0458J6785J5338
28636E4516J0070P611M459j0236l5540n2958m6989k3104K138J9702K6907J8227o261k8590k7791p425Q118O398n13O73
28616h0588O370Q402Q133Q782P418M545Q330J8741K1008P524p149q440o099j6991l3289l0946o570J6819K2618J9009
28596c2373J9733K4493K6391K4554K0190J0321o212k3678l6123m2307m0651k8142r056M711Q522J1703K1528K7905
28578a8491J4558j7260m5459m8531k5744M255K1614K1547J4167R900Q387M298r43q89M506Q549R297J1777J7014J9271
28558A1823J7901K1088L1349L7279K8099Q081j2176l0171m5722m8658k8191O898L1873L2079J4826n489k1834l1051
28540A8004k9089j7909q279p082p944k381N868P310K966K477P223P658J55n487k067J272q147k5583l2934k2902p687
28519a24558j151k283j420N373J4840K3055K5922J8251R92j3682j3416l39J3293K1748K7936L0290K1248K839r174
28500C9764n210L710J519j0353j7478j4637j0401j0686j0970p745o027r112r562J083J8317K8719K6374J7937J1042
28481C6284M846m841j5834k0446j5177n218K008M767O194P437N551j060q248j0153o983n990j2969k3306k3431l510
28461i0079L0310N7877O1319L9604O599k2421l8961l9407k4290l401N969n115k4560l0168j4330Q272J9072J4955N683
28442d3072j035m321l561L372J3780J9347J5502P169J954J775M240P240P245j492j7908k7967j8528K183R111j0144
28422c5110l9457n3392m4064k2044Q51J8710K6817K2588J1479K519k582q097j3091j1076j440Q429J4201J8350K0516
28403h5893J4461o28j4881j9317j4833m920J0497K6455K8420Q730j8118k8996j8791k766N622P601R299J1250J2345
28384g4463J5424K2526K9175K8427J8142J545j6321k9778l3074k3701m959J6057L2076L6650K5198J07k4537k9519
28366a1025q948J8231K3778J708k3219k6253j4000j1269k2168k5075r579M676n49j0863m40K7221M3602L6178K2125
28347A4131J9419K4884K6689K1313J0505m470j7398j7683m404R613J3606Q896j052j6977l2658l2086j0664J1511
28329B3175J1854o160k0005j7957q006m31M032Q079J1372J2519J0539M288l890o867k093J608m565j5039j7449j1577
28309b6573q506j2164j5028j3516j3795j7498j3938N607L3833N4556N8232M5714K3295J27j4702j8514j5740r976n73
28290D0841J0543J6353J4251J1315J3895J7584J4165L166j0313k3513l3304l1097j2188J1683K0844J0311n836j4154
28272E4546j5169j3236m721J3693L1542L1706J1681j0687j6014l449J1126J4209Q208N465J1333J6912J0762n100
28254A52807j6742j6592j3225j8095k8285l0690k0608o286N303J5980K5225K3005M099j7538k1969r119J243l339
28236B5174j3341j4539q186m701n548l220L745O830n96j5346k9444l6659l3254j8913O16J6506K4423K5855K2240
28217e8358J3276J486q181j5036k2163k6844j9761N81K0084K4388J7230J3693J7552J6822L701j1869j4967m887O419
28198d6834J1284J2931J5261J4665O699l883o334K921J5160J9403J4370P346L035j997j2446k5033k9380j8437K914
28179a8355K0063K0580O170o773j640K0794M0854L9054J6059r300k0937j9864j6980j7548j8105j5970j4665j7684
28161a4247k1167j6403J065K6416M8622N7756N1335L5894K1568J2997N357r546l3314n7557o9768o2447l8546r818
28143g1803J1178J9720K0276J9763K1167K3235K2391J3526n721k7595l7031k8827j7534k0506l3534l5413j7899K459
28125a42148Q568O459J3421L0269L9293K8431N815j1683j5763r562l21O112O834K455l442o442l887K765P885O996
28105b7945L260M551J2008J6634J1192L28o803r257j2302j5928j3741k952J1368K1999K4365J6920K916q872j0876
28086A6865m012N449J3271J6665J1785M41n173M196J8865J9674L205j4972k3239k6371l1212l3734k7974j7025o527
28067g9823M426J7244K5686K3034J3130O279O608R282Q103J663n938q222l271J793j570j0874j4871r062l81N248R691
28046a825J3725J2689O499L172N420M354n438j4872j4043p279l581k27J1438K8815L7866K7744p99l5519n5062m1472
28026b8395j561L1848L1785M808k1713l0536k1797j091K2246L2183J9701l085j6719j7940j5421r510N015K0985K4254
28007B5057J5366O571o85j3875k6015j8446Q864L2491L7205L0979K1493P05l4596o6066p2278n1287j5436K1653M4700
27988e3600M1386J9291K354p56p029k5730l6207j9186Q085J3597l981j7690j3796n059l619m654j380K451J519k410
27968a06414n306n101M4R281J6384J8342K2302L2493L6077J8390j0498k3287j1279N467Q724M650O562J0830M340
27949C2001j2733k6012k6175j8384j2686j2874j6280j9193j9512j5957p493M964J6859K2778K2345K0936K2565K4440
27931b0411K0885J0164m407j6896k0984j4773n792n032j2410j5021m774R934J6736J5604J4129J3711J0559M516l592
27912g854j7302l5301m2716k6336L867K2876K0009P539P21K661R306J5508J4188K335r761p833N315J0907m11j7017
27892d9299k4194k0629j1740P37J4907K4459K5391J9507P837r475k3687k1337m115Q047K250j0763j4312q196k236
27873i6848J391N670P103J492l868J920J6152K6230K8399K9603L0829K2568J397j9298k2876r743J828m254k3141
27854e446l2989j9703N210J7669J0324r99j569M263O286P375J6287K8657K9420J2927j0302k6616l0269k2110o209
27835a7794J0866K3347K9438K8473J8969M757k514M351J6767K0022J0952k813j6956l1880m2403l9953k6863j6167
27817b9401j3815j2094m233N816J3696K3361L6730M3395L1737O514j4350j9379j2955o097m835q410j3269j6118j5350
27798i057j1036l135R044K3555L3504L1923J9747N680l760j0982k0578k7958k1520J312K5645L2564J8643l165j9518
27779G0908k6489k5152j7539r433q005j1601r371L738J8699K4681K1991J5698M638j2695k7125k6124j0684N312J1485
27760g068Q258K46p278o834M759J7542J6583J024j4305j8107j4447j3670k0466l2775m3182l9501j4359K2041M7636
27741a13903N0276L5782J4176q847k4035j9248J999J6414Q065j0810j9070j6024j5285j7782j1787J880O103n535
27723a27631j5338n245J7519K9771K1108L529m970J301J3042J6229M619j5075l0060l3838k9847k2917j1724O830
27705a82697K8888M4280M6342L8326K9199K4270K0515J0809p154k5975l3470k3609k907J4454J8415J0752J684p91
27687A1331J863J988m763j4237j7783j0296N627K1823L0269K7611J5351l046k2892l6058l3273j4223O934J3279L330
27668a7165q756j2215j0985j2159j1747j036J6836K6565J7964k513j8640j8612k904J6982K6747K0568N798n029n598
27649D101K516J4923K5187K4199Q317j1888k0459j5693j1851j8104k5669k2311j0441j680k1j015k615m828j619J2592
27629e6359K7757K4599J573j8158j5411P81R037N813M366R633J2584R743J0181J7340J9753R287m256q408p512j3346
27609C8997k4182k8557k5457k4372k6438k2072r808k154p323j8006k4054k4419k0518j0355L132J0201R841J4908
27591a90636L1008M3265L7865K4230J8312J5288J079j6746j6092K839J4712P445k229N4M629N24l326K754Q450K564
27571a4011l479N790K0848K1632J1416R471J5978J3179O1m191M615P409j495K51K3061L7135J0501m0886o9304n4789
27551f808k3184n644l513L61J2702K3358K1134Q141k061l16N600L59j6025k5508j8100q014j2400k5248k8258j8863
27531a22287q467J485J9577M1159M7604L3867J6893R303L387q654j6271p128J0168J5854N064q625j1412j024J5850
27512C6343K9047L0594K0857O396r967k9105m3814m0034j7183M672P780l487j4554k0002j9322p386J4257K7875K0690
27493f343P167R745K4183K6817J1862l593j1023j9644k9777k5034k704J2837L905j2696j0846O633J5556O737n979
27474b197j0101q307p158o068q29R849K2423K8807K2038O864j334M086R023l484k7691l9446k5344K438K1094J9320
27454A3983M500n712L33J4759J5312r211m1568n2476l2936k015J6400J5836O271R8J765N967M527k305m350M088J4008
27433c2726J4664J1361J7316L0062L1566J4662n131j0485l193K938Pj1145k6809l9893m0772k8088j3125m968K004
27414i1755J5302K5718J6874p799k3660j5644K046N736o609j4762l783J7999L0361K4249R689L394J1452K3997K5735
27395D8540J1740p343j6509j1996l379k63j358r6K773p28j3065k5784l0243k7845k4577k0172j0114L903J3505J4388
27375i8623J1214J0368J3080J6932J8638J3908R92j2732j4688l177O296r60j7235j8495N893L7459M8160L1518P514
27356E6062k655R43L738m91l367J249M998l044j8690k7047k2361j3136p076j807N648J0381P992M138O848J3609J4768
27335C0700P563j303n802n435k23J0747K3605K9439K3586J0915o76p704r281l032J1060K4190K2588J495k6318l9668
27315I6446k8829n578Q727M918o779j0986l622Q088J6394J8291J3537M076n461j1569j4984j6310j2916o669q918
27296C7856k6002m2891l6880r639J0479M840j2294j7367r704m574n351k412N242P578L084K486R778J6261J8488K5564
27276b5458M0403M8397L5973R420j5766l4049m6398m7571l2933j3352p195j6840k5473j8526J804K4393M1209M8663
27258c3299M5587L4628K1809J2956J2217K0282K8632K1402o102l3946l6301j4413L098l393k2180l1599k9867l0239
27240d0728l4751k9346o119K1525L1874J8922r56o715M650J6048J2336q61p084l154j311p343j1062m078O321J0211
27220c1621J0661J4734J8041J1865p49j0158j6791k7360l6874l1438j1252M748L167o997q534K770J8077K8387K9851
27201c9473K2355J0229O15m217r176j7247k3655k3861k1074j9128j3477K194K3877M0528M7347M6820L8225J7566r677
27182F8771k6935k4619j2326n531o093m908P41M141K601J637K890k25q430r580L846J8817J6636j484j7956k4718
27162b2725k8642l0802k0183M329K3149K0153N025k657j586m831j4589j8701j0997Q64R247J4614J7334J3966N798N11
27142d0723N15j669j1316k2084k3771j4520j515O925P894N961Q639J6022J7240L727j6263k4885j5588J688J4719
27123h9004J8497J2222j11n445P486K8976L4146J4298j0849j9988j5743j2465j0972p09J9788L9624N0065N0285M0504
27104A50605K0981j646j6469j8961j4179r431q314j0588j3070j1922p578n110o741q289o391l398o24N684J4546J4413
27084F3518k164k3180k8513j4536L339J1524J0858Q448P553P686O322j065j5055k5814k1707o059M485J685l934l54
27064a6963P394N500p343j8238j9635j9931k9288m1409l8100j1524K5021N0745N5894M3676K1650k22q851J431J7339
27045A7146J8103J586j2346q278P066J8861K2150J6932m48k6889m4273l8514k0409j1236j2798r405L233J1135O547
27026f1837J101P449K1154K8505K2997Q008q684j8079j4783l223O279R392J0433J3468J7895K1797K1415R715j3539
27007G9463l2432k9784j1243P31j800m577J215L959n633j5346j0454J996N005j882n199m10M787P014J1324J8878
26987A5612K3754K3254K0438J5297L931j0995j8350j1845L03L501p455k2737k7356j7054l737j989j0891j5463o893
26968d8675P186J5767J7960J6917R984n024k0214k4993j9363j1385n783l138m483o716L97K0079L5839K7148l074
26949a571k9721l3863j8032N344K5809L3669K3114K931q345m568J382j263n526q74Q441J1465R410J2845K3084K8942
26929H2673K2746R623j481q071j1731j1345m233P728J7510J9462J4535P733J608n057j1889j4127q350J282O525L820
26909A18961l743j1648j7056j8251j6437j7343k5072l3639l0589j0985J6303L7068M2201L0410P830j3069k1327j8095
26891A5519j4412j5774j5227n690P370J2080M877o813j3617j0704J353J5771K1485J2519m186j5127j4765r787q734
26872d3862j1761j2485p138J067O760R558J3495J8474J6852M002j0582j2006j108L311j1235l3110m0803k7862m805
26853a43238J6791L0020K8022R745r624j0099O740J6989O709r101r836J701Q673R063J5698K9901L4892K0069l585
26834D9530j9379k3566k0394j1039J228M760p019k1081j8258K76J3649R207l303q657n128j018k245r699k0593k6321
26814a19050j7602J462J3577J1271R969K5299M5212M1906R684k6476m2707m0321l1830j8814L319K7920L9688L3276
26796c4217J8555P112J849Q90L364P139O425k289j3090j4824m506O753N710n691j1059n61J4758J6674M182n647j472
26775E5P744O377p663k2562k6872j7905n16J5356J8711O649j0554j8618j3580l471K527J864k808o755m655N228J6518
26754e4930J8835Q840n765j5060j6570j3728q042K033J4147J9258J0560n821j4300o435R587J9189J7510J0694N027
26735d971K269L607Q701J0461J396j1912j1846O708K6293K8787J8158J0585R988P012k351j2122j9255k7067l4276
26716A0165l3619k4890j7791j7469j7170j0139O32J0091J9433K9549L3310K2919K079j4928j5090L291K7745L8649
26698D6767K6326K820j1298j2321j4460k4013k8837k1380j5056k2585l1459k0848M997K1747K0385J5677J7387J4992
26680c1159q41j9521k5523j9768j3946j2150r470k885O538J7778K7597K8724J9005Q089N567N998l117j9213k2745
26661f1042k266K6903L7008J8763q036j6499k048J4083J0981p889k1820j9632r141k24P943J6181J4837k052j9402
26642b3352j4822J0513L0237K5699O636p161j1290j2275q522O977K6865K9725O949k2173l2207k2102j2437j3954
26624c6694j2422Q352L7978M7001K2930j2691k8625j7770J103J0402J1254J3151J6945J5882Q699K484J299j206j3128
26605G4944l1144m1472l4436j3753J0158L0846M5217M6794K8991l304l2903m5310m0165k5553p801P956J4237P938
26587h760k185m072J724K964o295j6534j4470J768K2044L4034L1419J7141J434o899q719j0367j1425m157J1838K2613
26567E3096J4950n875k1312k1063j2561q725j2480j5641r361O779K3745K9092J6514o772k2285j4596J2568L6200
26549D2273L5255J3009o856q187P0j309j6475l2212l6183k6968q402J3750K8265K3869L323j6607k3901k2202j8916
26530e8404j1990M120K5638M0153L7159J5055j6458l8343l5304j2460Q139J1993N130l51j032M064J9248L9572M5845
26511H1774K8037K916q396r484j5099j9391n284J8428K0600o037l0793k8966j4707j3816k5057k9341k2116j4062q472
26492i9266O41J2037J7673J7930J9906K1049J0438j1608k9068Tj4578M164K0069K7950K4098J3272P754J2782J8763
26473D4938J3839o85j3429j7465j5704j4005j4719j6293j4561n006J1709K6369K8138J6215M60j0991j9275k6535
26455b7000k6652j2944P681J9231J7000J3055J6938K1538J6435O087K684O544P108J070l956m046m121o284n448n31
26435D4389J197m205j1215j5021j7547j8033q490J3291L4589M0187K8439R360o756j3991j2061q732j3496k4101k7933
26416a0129k0440j0447k418J0898K9060L4222J5864q901j7137j0394m895l222K257P319K864j376J2448L6512M1919
26397A04004K0939j937q434r924k0781l2520l1297k2588k0055k2986k1384j3294k714J0106K3247K7978K2061J7864
26379A8285K3419K6342J2821p170j2826m157k80q609j5924j1890l596j979q005j7266k6090k8365j7437K952J8219
26360f1556J8556Q441k067p866q245m478j751n489j1814r525L907J6426J6971R310L375Q2n547j0617n074J3046L1538
26339a2377L6134K3912K969j6348k7264k7736k0357j0506k069M973J1384J4705J1392K527o711j4342k3388l2659
26321h5761l0635p186K8900N3101N0003K8914J0403L551K856K273K118K730Q06m518q334p001m766q483j6796j8644
26301f469m639K0473L8736L5146J3601n884p572M942J5746J4473K719j3610l0326m2554m3598l1208j2720j82K18o537
26281e9245r333j783J1024J7558J2530K452l069k370l04J120M417R616J2065Q908K597m005j0729j5641j3058j435
26261c8685J0400J1436J976p111r151r322j4629k1870k1549j1044K874J4034K1833K4892J8665N116l065K635J2043
26242a0522P853j0052k3582k0273n807R525K2851L1217K6420Q428p333r444q200j9029l5555l6769j7433P108K5528
26223f5069L9753M6693L2773k362l4191m0777l0345k5876l1039k9172j2661M950R218L092j520q60m36m481j1358
26204a53668j7368j9362j3730K426K6450M8041N5282M4505K3579M572n779p516l000M218P659K125q095j1060j418
26185b2139J1516J4840Q008J692K146L669j424j1191j7358j7651j8339k2683k2494p525J8418L8264M0776L2097K4446
26166E5068K0589J6462J2714J2874J2918M401j1622k4297k7925k6717k2965j2677K499J1311Q459L298L905K765r457
26147C1603k3810k1889k430J4754J3023k975j5799j4288k028P744M615p840j4355m816J4648L1951M4045N2538N0571
26128A55262K8649o275l1868l5221k5786j8700j5869j1339o409q571j8608k7791k7870j8283l981Q906J5178J3296
26110c5280Q166Q118J5642K1625J2903j1541l4767l7944k1452l088N101P724R873L910j5145l1226k2739O350K8914
26091h4856K9419J9182J3571J2003Q714O605Q183N913m362j0839j836J3283J5683M788k667kM30j0630k3346k2680
26071b3444q322P740J7748K4425L2784M1398M2859L1462R879j2848k9913m0106m1822l0704q864R958J3704O898K608
26052D5440K773j160r381j0666j704N532L603L342J5986L1911L2459J7338M040O86m410k1861m3718n5064n2949m3623
26032h1426k8047l236K3635L5677K5685P116l55Q266K1539K6148J7319j561k1998l3893l3367k7580k5381k3215r177
26013a23851J6347L4025K6958K297j6756j6483k419J3114K3771K9270L0409K6761J6672N60j3792j4468k68J2436P113
25994E1696j0954k0007q904J0605J9275R393j1665k7674k3613l35K0151J5921p088k1832j6352o125n118m986M373
25975c3239J2420N730n209J54J9060K9198K3428J7787K2398K5729J5022m793k1516l1518l6202l3919k4710j4868r028
25956d4076m642L57K708K530P536K0612L0995K7050J2477J554J966R133J3970J0464p50j1418j2063l013N836Q673
25936G9899R185Q679j02j8978l4284l2426j8803r699j0715j4505j4559q783N482K5688L6692K5277J791q619J119
25917B2339J1377M688j1406j8287j0981P47P816Q932P230P143J1482J7228J7822J2214O647N504O446O014K684o453
25897A09186k1708l1319j9158J1755L6111L5574J9412N653m678j8669k8333j8646M174J4609K023j4978j5404k321
25879F3283O634M061k237k546N122J4887J7223P716m714n090P285J3804k97k4917l7773l3148k4821k1662j5924j604
25859c4718Q954j34k2835l4746k3311k588P260N317N728J4614K3275K3329J6842Q629p52q706o959O478J7783J0309
25839A3769j4917l9770m8252l7591j3292J5910L7686M1647K9646J3668J034j0973k3164k6722j4304P258K3131K6687
25821a8549K3852K3183K6320K7333J8696m66k0599k9532k5833j9632j7744j4413k478J2035J5304L759j1396j8082
25803b8242j5044q141j057O383J3561J6655J2106K239l989J018J3666K1140J6219O928O976J8680L0507L1016K0453
25784A61074P585j489r653k4418m6334o1756n2285j6396K1704L1967Q018k7671m7169m0148j5018J3313L2011L3639
25766c3026J9744J519q040m813M275R195N444m731j6625k6021k8619k1078o066O700J0272J0209J6734K6477K3052
25747a5398J757j7715j5321P56N943l785o449J0821L0327K8473P694j0670j6298j6947j9611k0140j3317j924P545
25728f4259J1311R203N277P106J7146K5137J7976j697j6138j5027p920q495j4716j3776k108R922J3404J2350J5692
25709C88K2678K2177P824r974j2583M351K1773J7045q604l0341k8895j1378J255m64r303j5629j6582j2688n400O5
25689f4285k582j2017j9301j9661j8663k2656k7954k4801r517J1764K9580L7471L3955K3256J3966J2743J8080K2580
25671a8042K1495J6497J0966N022k904j1391j5277r736N042K2438L2245K6965Q219j1941j8621o912J1660J8696P741
25652I2162q596j3763p326m335j5213l3303m4666m3303l2034j4475O349K4496L4030L5388L3188K8111J6385k415
25634E0680k2264l5831l8695k9226r843J1382K5882L1957L2463K6536J1431o890j4726o659O592J1318N315n773j8972
25615B4677l2143l6892k4667o88J6948J5966L579j942Q107K2909K3587M388j9748k9160k0636p569r86J275M912Q498
25595c9585Q042N037L080J910J065M197J2632J9138J5745M729m664p433n582m028q701k2173l5221l1261q015J4444
25575g6644J8429J1756J1834J6916J3297M134O050J7461J6254m922k4763k4454j1682j874M538J1347J0851k992j8413
25556b2877k0476j2064m876L32Q322J4054J0828N829R330J4942R517k511m767M067R143M743R79L997Q041R841J3309
25535E9703J7181J5161J0955J4640K0813J0892j6319l7249l6248k5364j9570j3145K265J4888J0649R05P968K9480
25517F7605M0380K8377O624r091j6012j5041n079O575M202j6839m1522n3281n1064m2086k8421j0013P020J5727J8108
25498i3831K1438K7350L1048K8681J9750N305j0054j7506j2536k227L168L924P009R426k018k8700m8944m0032o616
25479a05365K4131L3969K8457J9688Q172r884k7553l2410k3606j2265n084J679R792J1890L807m138J249J5631J9048
25460d2792J458k1125k3007J157K9945L9935K9862J5205N260l389j1936j1884P11J4061J4544N939M093J5852L3042
25441I6931M3911M0215J7316j8867m6932m7478k6985r573m205J963J4016J5472l872k5650k6221q400Q340J7538K4822
25422F2341K6408J2853q339j7346j1465r000j9511l0259k9515k4379k4346k3301j2033L079R297Q530J4091K9093
25404d3802M0794L7083J9449j835j8317k6934k7789k1882j0765K095J1534J5320J7814K4239L0932K7403J0331j0275
25386G5395k2391k4571k3504k3355k2074j6057n544L279J906j0601k2029j8176l20J6181K1863K1688K0901J5283L615
25367h511j888R560K9043L7262K7557P819j5214l8545n2097m3095j6024N587N083q572j4763o565N159Q114J992l159
25347g1257J707J4253K2035J6985O371K943O399N162l033n769L509J2710Q718l022r063r067j0800j0280L439K3886
25327E826K8155R426q833l271J7595K6344J2621r519k5286l3359l6576l4286k8045k1911j1904J1911M4775O0954
25309D617M1245j26k9337l0189j5022j414N902P229j898k2018m0174m0642k2825r64J1984J3948R811N220M466Q440
25289i1747J2999J2709P011K87l418k823K455J1848K1331K4383J7383L047j1225j7175r708Q907K7818L3348J8841
25270F6271r064l2461l2730n914K8999M2910K4818m977j6375k695J4588J3419n557k5532l4570l3851k9658k4086
25252f6465j3932L257K1676K7810J4223o950j2330O698L2905M3152L2932J4613j676j4576k2353j9799o872P974J6233
25233E6520J6030R534P1p460j0004j1453j7471k4379k1578p091Q825J8854K6276L1725K5049K025k0840k3243p332
25214D4058Q023J4675J9622K3949J8645O028M199J8355K5321L577l3603n4105m8637l6050k9837k1511k473J6358
25196b3406J8250K770j6467k8665l1119k4321j2494n513r467j5555p794J5985L8029L9253J8982p442k5946l2644
25178a07564k8151j2283J0977K9244L1428K1654J5427J9068K1117J0160o492j2473o286k057o128p487K257J1912M882
25159a0795j6771l4110l4089k0312k935J1104J6440Q498r821k6232k9474j9521m821P547J5967K1072K2572J9630
25141h6051J2721M688m93j155J74L57Q84O231J5680K0388J2286n374j9865k1456j1375K420J3554J9713K0482J6725
25121E34J0875M523l275j1953j5400p644P340J7932J8649J4587R654l6j4087j8637k016K4917L7655K6470L474j8000
25101H5562l6064m9206m9034l3407j4881n588k311L802J1620J4999J5530J7618J6765O316p753j2480o792j507j019
25082d7830J335P884J0402M177l067k797K540O092P772J1590J6483J6880J0433j3j1538k4527l9960n3928n6184l7998
25062a82254m067K7007L8865L1986J8733Q448L162K589M337K911j656K176K2701M6471M8721K3347j0520l2954l9853
25043A0150l3283j3229J2858K7486K1594N484p340j6242k4488k6844j8625p097q45L331J0096J1943J820q607k559
25024e4397J3702J6117k591k1654k0401k550J4408K1779K2835K1532J7592J0761M668N260J4593K5196K4669J0106
25006A21625o210j1047n650p15j934q596j9477k8956k4484l084J4709N451k4049m2901l6416k0116r820p9J6676K9096
24986e5977K1735n85j8220j9349o369J1924K4002K0071M126n633J566J4696J7572J0172K721p20K92J0064K5474K7978
24966H5540O803j8353k0254l824K411q333j3139m27J0956M961o207o601l954j2115k3889k3965j5894j3386j4391p174
24946h1235M633O934J093O06L844l192j4742n395K7579N0020L7055J0058L821J4861J2015j0876k5701j5534O72K75
24926A6791r709q690L678R772K664o055o482l587p218j8959l2392l9237l3049j3465J0178K4720K5690K0224J6727
24907d8399J7012K0279K7506L6739L9334K7766N583j5306k5935k5258j6737n669J175p76r478j8929k5821k9736k7985
24888g4635j6480L020K1290K9052K2889M788j8047l2599k7681o777J2310J5058L265j1762k1984k4323j8033q128m805
24869a53582j0663j4334o263O237J1994J6768L2865N1363M7536J9033l392M845K9739M0305K8223Q357q497k2159
24851G8375k8021j7744L427J7326J4434J907j0886k0638k2544j0988O756J2522J057j0465n584R427J6174P752p921
24832C4366k0773k4704j7209k686Q240J0796J2501J9602K3790J3514n758j5039n299J2576K1934J6274Q19j3821j8276
24813E0847j1315j872J85n302j1848j7188k3375k7342k1378o270L977l313k3077l5493k6211k281J3908Q489p855
24794a46714j3208l031M549l733j5081p824J8185M2026M8210L8718K1366K220r396n183O968O352j3376l1463k4219
24775h4634O036L5437M5636L7019J9570J293j3911k3731k5983j9381o852L409M983R96j173j829o261r827N79K4163
24755a4461L8532K5577m268k5821k9922k6716k3846j8174r066l671l949o63J2697K8550L4406K7321J3593k75j0277
24736I567j3478j0829q557j0018p974P364L1518M4169K9348n436l4445l7736j7846N884J5679Q040p065j6001j2156
24717b9972n01P578N097m360j0523n024J2786L4664M7555M3748K9450J8354J4176O127j3301l3928m0113l1497k0522
24698B9794j3613q029n212j1386k2159k1372k093K2244L3776K7993J1216q008j9064j3165L888J2898M036j1206j8659
24679h121j9691k0022j4229J950J4550P042j2040j7535k918J1835R824k735j0708r021o67J1868K5169L2919L2013
24660B9483K5624J7593R439L628K342J860m268j5571k5338l0342l1772k8153j7680o549l243n173l601q97p052j8159
24640a07829j7136r03J2341J1746J0860K3252L8594M0005L1440K7865K7280J3866j3943l7428m0964k7533j0052J279
24622a7260K650k013l177K862P678M289Q40P614J5698O211j9757l8602l5330k0767j1499p958j747P322J2559J1487
24602g8900P104L937Q082K2764L7997L5329J1733j1377j4755p533j1657k6946l1066j4083O556J1944N867K107O00
24583d2297q022k0058j8119M317K9797L4767J4784j3199k9541k7903j5415k706M983R587J5053K1411K5295K5810
24565H544K5940K6226K1242O977j0623k0257j8221j1484o987l517L316J2698J9151J8754J1803J731n787n655R66O095
24545H0912M267O21M753J7113K6683K3517R764l665q715o738n425j1120k3511l6604m4599m6112m2314l2949j7161
24526a11283J948J6724K0683J4138L641l095j757P045J8526K5605K1946O339j4007k6490k3470j0459j076k880j1275
24507f9197j7811j9034j4442k280J5645K9289K9609K1713J9713K7314L2622K5566J1127j236j2478k7613l9920l5880
24489b7293j7155m150j0567k4121k2753m262J2510J4861J1966J8856L4713M5313M1715K7534R799q714k6575l9503
24471C2174m2232l2327j1872J1602K6737K5650J0750q520k4506l3100l0122j5170Q80L182p936j4990p168L272j481
24452a15177j8272k7230j9372n652K993J0867K6372M5403N4822M8213L1106J2692j941j2327j9843k4741k4190j4512
24434e0789K755J9021K5637K1647J2588L628k983n587l525o98l808j3729k1764j8864o983L466O892P002O805K251
24414a7038q367j5541r040N695J2725P376J382L794Q767Q399O324R321J4299J4768J3346J5615J6429N754j3795k8040
24394E2173k9753k4549j8605j2730r536j3489k0615k0332j1492m879n259l444P427K0180K6710L1058L8503M1246
24376D2614K7649m82l0775n4121o4753n4399k1882J4894L1989K5382J1886M748J182n134j2921j8273j8871r620J3695
24357a17192M1213N1715L6557J1153n433j2491j9440k5435k1699r922k979o074r192j873J3351K6048K9281K2286Q151
24338H025o812j6215j9752k1935k2316j3911L498J6073J1702j301l457Q298J5756O903m862K5J7482K4016Q828j2563
24318b518j9659j0020M663J5062J8190J2415o41j1859j1950l034M544P306J3248K8775M6502N0194L1066j768k6936
24299A43580k9134j3732k48Q47q42P188J9586K0520P499o406j3965k1468l0566k9176j1682N027J253j7534k8430
24280B317k2361j0563j064J2279L1823M3851L5206J1804j0260k4280l2602l3541k2545m837O365O654N167R159J3513
24261A6085J1194N676M578O224K291p754j4390j1933p108r687j9739k8614k9349k1973j0928j653K034J567L746J2574
24241i7159K1776K1343J2168P165J4130K3648K0590L890j3065k0779k3414k7825l1195k6252j3875k281M896J1542
24223a14697J8824K0487J3590P570J4036K9646L8113L0638J6181P483M285k339j3992k2517k2654j8401j5193j3027
24205b1967j0387q791r208q474l671K797O030M208n95l934j56J2576K6218K8609J9252J1708J4331J6926O052j3653
24185F7871k5418k2649j2165Q96J5666K4143J5264n570j7465j1327j706l722j2734j7059j6661j6253j2041q37P148
24166d4619R76j2293j7621j4992j5569j9277j4392J791J9021L0618L7365L5042J6627j0178k5750k3774j7486j6048
24148i0559j2530k240N418L866J810O852J1380P896M855J2619K4872K8937K4948K0187J3591J129j1258j5407j4703
24129B1663j5622j3325j405J1691J3483P943O781O507m671k1334k5361j5463r328j4060j7016j0677m713o061p256
24110i8224l328j686n866o849j21N818P593J5253L1032L8401K6722R456J997j528j1091j7478r144J285o148k3567
24090d7473k4265l980J3166J1259L08p195j3713k1345j9292n25K2084K9647K0391R409J0155K2377L4569L4858K3050
24071I3485J1931J1330J3844O123q444j3032m710j777j6545l5103l4995j3103J4587L2868L6371K5995Q393m259m426
24052A18533K163N368M927P719J3869J5467Q633k186j2709k2958l0700k8933j5001K744J2466J0553K248o593j3538
24033G2072j6448j2217j207J0514J6801J7455J5085Q093p062k5980l6181l1394k0340j4793j3150m512J2410K4192
24015f662J9208J970j3036j6967j2087n149L9M328R993J6211J8139J1659j745j6517k7657l1417k4337o973J2303
23996f8697K2154J7708K924j3641k1820j3630P678K5300K5396J5007J3253K4655L3184K5502P549q014j9323l0721
23978D4464l8869l5009j8685n96Q414P179L764O879J5475J7379L446j7889k8400k2475j1135k382Q264K2166K7924
23959a0086J8624O307N585J2518J4336J1827J5258K3452K4563J5823O226O7o304j1013o792K530K182j0973k0874
23940I3256j5412m758o568k1780l4666l1371j1361J4053K8293K0283m933k9752m1603m1623l4080j7304P834K9425
23922a02067L5494K9236K3569K2776J8840N837j0127j7917j3811n086k731j0189j8407j4478L121K1423K7480K1725
23904A4688J2889M340p433k2042l0167k2477j180J9453K5008J4525J874J251J1598J8962J4030J945o529p267l292O96
23884D0872jq274j9833k4784k0102j5280j8563k2703j3948O898K2703K0810Q001J451R092K1630K2517N910j4644
23865A752j8804k852J5422K0134J7926K4963L9391M2138K5218L142r328j6273k7364l6890l0553q682J1226J6028
23847F6594J0555O876Q118P854R73r941j8155k0084j8493j8578k0741j9174r590L694J2363J4894J7532K3449K6608
23828F4754K0327P730j796m111k002K925J0911J4891J703k8632n2459m4830j1593J3790Q788j4435k9433k7787k0350
23809i1609j5104q830J111J0679J7424K4333L1473L1825J9907n16j9341k5860j2706J6378M1216L9589J3370r487p438
23790E6414Q658J2357k357j5301q478J2665K8772K7581J1624p849j9757j9862j2324m088J483L431n24j0160j7703
23771D4582j5434q456j0148k2138k8863j8040K134J4891J7711K2154L3183M0349L2840J5002J017k102p20m399j3404
23752A00159j8611j3632m768n351j9037l2883l1378j5093M83M433K201N491J6460K6872K9127K2091Q048r337k3391
23733D1884k7110k0366j0408k696M544J3544J9752J7499J0119P022J0782J4279J2154P818N542K514m811j1475r561
23714H1026j465N94j0203k6700l6392l3659k1086l870J2517K1761J8873M368j4324k6008k2693p014Q136J2308J0063
23695c3768J4564K6924L0863J4636q894j5573j100J3631J1005j305m446M306J0111L677o599q839m703n187j4066
23676B5237k2666k0199m206J8670L7317M1692K9716J1100j64m43j97r830k5110l1608k2024m147Q319Q716R70o094
23656C5049o508j218M781R129J2975J4028N360j2026k0935m699K7666M5934L3158M699j4162j8311j9241k0857j5580
23637E9242k273Q938J3535J9791L1569L5836J9040j0857l1447l3081k7122k5747k5502j7822p127o778j8568k7143
23619d5516j8767J403J6413J7236R233J807j241j530k647q013j7092k2715j7091j378J5072K4992K7441K2973J2880
23600A3460L727K973P444O264j453l849L051N723n994k1458k5740k1385j7683r976R032K6051K1312L479K660K4753
23580B2391M0117K7489L572o225m218q354k1171l1818l6490l6114k3920L590L1120M1086L9321M2281M4077K2787
23562A49521j8943m6376l5287j767K1888K4644J7722J1583O863J640m332j0559j5076j6389j8630k7580l8531l7778
23544c7387k1693m560K60j342N983K4931M2299M4671L0746J1154J69K867P823N9j6062j8925j086J6028J1315n516
23524I1734j0572k565m98r592j5025j1726j4683k9974l8295k3253R46Q923K0n163K171R501O153k216o318o110m694
23503f1236j91Q648J5705J3420K063j1345k0452k3314k1833j9158j4849l560J5805L1009K6503M900j2497j2464o086
23484h8932q824j5110q300R714J7624N629r547q238O154J4820R163k011o901k703N374R812N903l545r439o477J81
23463h5653K855K752O862J5433K0415J6777Q284M90n184p960m911L860J2064J4317J3078J3380J3283O291o510j3549
23443B6374o249Q325J4071M908q198j1405m206L428O150P100P143Q24j1545j6517k440K1838L3818K3370K619j2532
23423H6876k1344l2431m5707m9848l7453j5215L961J4169J7675J6169Q085l962j0151m385N508O863L56p23R044J8497
23403c4016J7231J0553P733N128n275j7085j6357n764m231j8448l0881k4002l466J3133K0261K5045L0274K9602J8360
23384A7795l33k0103l4818l7962k5882l700J6267K4232K0235J2534R774J3515J7759J7247J4287J2905Q767n778k5762
23365C0979l3973k2465l647P007R137R167M774p994j9363j5180L46Q399L845L274J9107M0174M7105L6404J9387N389
23345A41872l418o063k863M91j867o775n667K197P201J950r518j8547k3627l0783m3110n3838n1733l2938o503J2568
23325a30971J6401J0657P703J3342K1081K0564J0745J314l55Q58l790j1556r887N445K2971L0916L1511L2372L1125
23306A00446J9857J317j1899j5055j7122k5998l6973l9928l0812j2643P823K1563K3220J9180K1191K7316J9836r324
23288F1995m0409m5750k3364J796Q171k325j3924j4631k149J6943K9856K7693J6475J0609J3477J4232P173J880O322
23269G4070J1439M564j0313j9699k2044k6090l0845k5228r685m90n892j3447j0060l94O160J3127K5503L1440J5946
23250H062j1207k2653j0749J384p112k6957l4016k0561L26J4072J7150J4037J0622R545P555J29q832q279M364J5669
23230d7451J1688l777j4082r952K009R343O774o8j150O010J1072L334j0716j2460L479K1049K5568K0717J3756l7
23210C5106k2176l4563k0598N100J2049l819j6787j0571K987Q273N325k217j5514k6488j7881Q277K2893Q490j2333
23191g4447q461J4485K5491J5071L315L529M877l235j2070r364J172P135M407j953o529o348l22Q775J6031K1260
23171B819K9257M0828M8972M6423L2138R401j5874l3357l3251j7913k695k57q270j6270j9405k0419k1899k2107j7369
23152a9248n975Q493J7107J3366K478k984K91J274q491k0230j9324o864J370l184j2245j5600j4824j5348j2820K013
23132a10745K6624M4230M0713J9100m981j8151j7131o112Q019J7874J7728P021q205j8786j8757r583R71M739o63
23113b6095j0266j5970j3040m110K559N64p106r784j325J1324J6626J4553J6450K6870L4387K7055J0022j710l668
23094F7336l970o466m316O239J5605J0766r514l3275m5283l7293j4815M454N948n256j0112P8J3940J7760J1802K785
23074a3587p779j7190j5033J771J4918L990k2433l3207j4867J1366J9343J0284N046J3903K6251K6975J3756k317q927
23055A2263n480m519j7351l8649n1380m7717l6465k6600j3712R214L5411M9691M6949L5746K5292J8098J4565J5188
23037B0544J6813J4837J0493P978L535j1713l3845m2548k5005M869K2271K1093J4688J0629J290j7219l2512l1774
23019d5576j9551r215m208P39N125K420o750j2447p848M159J6586K3083J8938O981O99R579K2119J7773k715j5633
22999D258q404K895R84n174K120J7300J9018M149p830n268N89l436j2322j2648k207Q731J0251J435r359j0151L648
22978a421K1272K4864Q302j5764k8637k1745j316J7456K1632J1695Q87j387j522r356j9366j7665n758j027j0320
22959b9176j8928j3327j198J929m226p196j513N545O356K948M187J5918L2104L6109J7760r609j9084j911K0559K3448
22939F0695P147r507j5335j3085n415J0079L0658M4343M0249J8689r087k7787k7661j3429k034n797j8743k4208j4155
22920B5617L386J4152J0736j666r186j943J4511K4848K3104J8585J8925J7636O862p089j2883j1818j3349j8051j9140
22901H3237j8037k3424l4877m1130l6139k4488r867Q376K4380K5813J1433k627j870R616J8345K0336K2885L1282
22883F3244M0062L6867J4101k0444m6227m9251l7150k7210k2463j2138M724J3029M752p062p207J477Q017J1608J5713
22864a5558J3104n594l1853m4496l6134k0657j1870p290J533J3003J7796J2249K947k08P913K4296L9449M3669L4353
22845C6652J7631K675n548q423r707r959o362N54L049n143j6819j6128J255K0133K3645J2568o27j1028k3417l7099
22825c2098m0911k7913p820J236q463k5913l0938j2642J9145M1583M0537K3602R084N290N735K430l591n975j716O131
22805d3207J1463J0314N229L103N935O901L20q337r555l960n60k347l663j847m88O07O799J6011J6862O162l032j29
22783A2581O096J102j2293j7791q803N089J3289J3665P259m160j3249j1319j418K473n791j4992j1606K720J5283
22764b1865J8278J3583N648k886r688j2972j3200j0735l001J1150K4639K5452R923r997j6904o251Q090R159l330
22745A5093j2560n136J2766K3166J6128l138k2836l3029k8421j2145L241P345M999Q732J8434K0936J2080M243N269
22726C5167N652j431k417J5894L8057L5116N777j9384j8227k526L401p095k3310l3931l2233j5197J0053K5230J7922
22707C6518k930j6615j3053M36J0795J0707J216j0184j4665r143K357J4521K3240K2522P958j3300k5596k3425j7649
22688a6290j6800j3880k152P819K851q749o089J3791L1800L3382K2658Q146q230k2013k2159o218J1216J4869N566
22669B9518o641j7054k4821k4750j2298O257J8190J7797R840K263J253R610K2443K6610J2532j3092l2211l3315j9658
22650b7527l66J9631L7961M8396M2520J9485q345k3128j7199r6J1697J0631J520p787j3477j4472j0996o373n008o699
22630E0368p640p618r919j2722q823K201R480M404p484j4371j2528o407L39O203P862K966m630q390o278P3R807K0833
22608G726K7299K5667K0141J5523R149j847r715m074J0337J5603K816j6834k6299k0736q591j301m813j5696k2916
22589A439j7893m320O130P341K733k570n338r40J2457K4075J6752j0432l5380l7267k0625o329m460o815l727L150
22569h2019P090O621M843K893n36m014k068Q207K0696K4801J8084R906Q279P997o17j4395j9645j1855j261M331R399
22548c263J6519J5205k881k6567l7911l7225l9316m6072m0654j4831J3030J8950M226p069J081J9639L0527L0466
22530a06146L1605M1633N1973M9268L3250J6596Q542O129K764k574q993j8963l2491m1130l6545k2707j1235o157j818
22511d6999M610Q194N825K265K786O031P844P135N068L089L952R698J6481J6667P932m844j7296k7751l1200k2261
22491d2774q069n814j8925k7250j3030J2838K5781K2583K3073L7590N0859M3370J5252j6874l5451k9815j491L0441
22473F2294M0261K1607n152j8561j9030j7363j2955L95J4681J3119m764j9996j9126q534k74K992L272j97n463m393
22453B2813O397J7722J9020J2018O096N183O446O925L723p782k7071m2862m3209l0207j7303j3478j6844k1813k4364
22434a38590k1059j0794K342J4347K7446M2776M9988L6826J0057o955k964O983L954r299j6227j1550m507o30M914
22415b2942J3958J8072J0976k90m724l263o497j7219k4364j8647p497n861j4219j6393k691J4820J8590R920N404
22396e2867J2659K3009K8305L0692L1460K4080O840q243r835l830n237j7995l1559l4181k2559k535J3305J4198M213
22377h0m42N542O481r402k6621k3207p118o833k5796l3655j2076J5967J9822M795p25R652J3790j620k0501k1580o675
22356a20282O455J0189J3455K4405L7423M1194L3703K3029J5100P914m3l918k048m692k1444m2260m4923k4030P94
22337d9979J1341J2951K1038L6193M5120L9926K4411N378j0714j5553o086O129L771j5827l7061m4043l4967j8612
22319b6584n116j745r318j9303k0723j3127p442j1070j7093j1846R377L6356N1905M5788K3432Q24j0812j3330j2849
22300a2676q369M050J9889K8420K5854J7915R331o66j1566j9206k2525k4789k5088j6056N910L3289N3229N6619M1695
22281A55260J5449p966j8169j9401k3022k9164k6629j3073k337n228j4214j5599p689K153R997J4765J2355J889o869
22262B2508l532P793J2791M630j0055j9911j6613J157K2472K7963J0243j2657j6713k957M699o333k0002j4485R112
22243A10K9499K9993J3290m585r469q47P811K874j3534k5047k0085m373Q470J3524J5927J8527J5463Q82j9556l1148
22223B7726k5947j2405m648m609k857K843J896j0093j8517q583J1051J9080J1995O403J0800J3725N929k597J374
22204B2566J3456J8775J2096M3j0274j4852j0939j935R31p335j4176m285J6828K7237J6961o64r023q123q743j5746
22184B2798k4528k8210k1765l760J9062L2194K5729N635j2807k1591k3755k1666j1171P827K2403J7566m698k4653
22166d5390k4716n692J7374K9966K6875J2368l756j3408j6921j9609k0450j1216Q429K3114J8685J798q551o149j588
22147c8837j874o43P062J3490R761m74p251p491m668j412N31j646p036r531p232p007j2580j5146n321J1329K1056
22126f4920J9619J2792M336l877l662J1904L2730L8780K5340P105n800j9093l5009l9628k3393p89P659M518P746
22107b3642J8586J8521N20j6952j6416n969m457j3220j8071j3552q678q681n940O451K3372L5730M1000L9669K9660
22088G7931J2170l405r156q351p382m337L229M902j1851l7821m6573k8757o372l157j4163j8510j2287j0579j9596
22069a44065k5041j3615O580J6333J0671N480J7849M3776N9760M8744K1196L203M234P916l06r951l278J3116J3892
22050G6494q739l3352l8903k9690k1682j7912j0940j366J422m625r497m209R463K3884L3203L3945K4388P935n925
22031B3894q268J248J3927J9221J2635j491j3695j6759j1304m721l898q244j0181l486R152J8487J8787J3338Q781
22012E7423O406J924p248j7411k1908j7744q805k511k257l392Q99R934J6087J6030J5522J9379K2627J7682O063m091
21992A04609q870r543n770L038J0707Q328l595j5064j9463j8444j3778m916K971J39j2770k0902j3994k85O916Q215
21972b471J2164J6498J0104o235j4977l444J8157K7348J4459q052j9856j2745L590J3501J1459M996K304J093o424
21953F1469j9749k7400k0076k812R263O451o005j3597o725J0314K3405K1519O347j0228j7536j4306n765M613J6652
21934A5834K6594K4520M845k2437l8231l4120k0127j0505q412r113j1418j7339k3445k1708r725N700J5700J6285R987
21915a07115N352J2087L0080M5258M3397K6460P977n194j6735k7883l2418k6926j5822l427R360J7871J4558K350l677
21896b4447M299J4137R065j0297k7211k8093j4181K582R950M679m751p486l324j215m767p617m457L427J5771L3869
21876d0067M8919M3891J5848j5398l0430l0497k5136j3616O462K3537K3031P846p500j7272k4399k6894k1232j3775
21858i6682j1284n437J3896L4231L1664O143j6981k2930k1942k2880j7070K01J3897J1359M263J0942K7637L4026
21840b6947K0937j781k0498k8889k6725j7761p593J936J2704K1754K1078J1274N337J0456J6137J1781O397J5265
21822B4862L2515L4764J3032j4421k6011k1570j5701j4764j0955J521J2999P199j7137l9849l9817j8788K499J0531
21804g9091J1161J3785J5566R296k251j0556j4799k0297k5819k2842q531Q139J5909J2974P359O981J0055P105m757
21785g0613j3173m408J5674K7001K3508K0177K4898K1604k639k8712k6920o58J6019N027j4821j9219r503j231J548
21766c6441N521J1655J4286J2537J1307J2393J2186O985l740j6597k3921j9547q689n461j4967k4454j9497k936J0896
21747g8484J5780J7080J8257J5076M495r206j9315k1965j6334n950N45k241o913q25J4996K4503J8519P501M643N798
21727a4040j298j3553j3907K466J7412J1865j0365k8435k8396j4215J237Q804Q053N431P569J3545J5547R449Q46l279
21707b5264m071n880o619j737M868M126m103j0097q887o054o384o546l336K49K653Q746K0185K8526K5710J4935L929
21686B4949n520j3309j4328o586J064J511L028J5214K6693J6398j2370k9668j7389P655J9403J5843J2670J5041J2798
21667G3097n13j8862l3653m0942l8581k6071q795N311J4428K1856K6575K2398P539j1611k7420l5599l2873j8257J035
21648a20938J2882J3566J1498J3800J6539J4307J2548K0472L4175L6981J9108r403k8862k9630j9081j1223j2350
21631b5611j7299j8398j5273j2676r918Q11K1878M1704M5826L3674J6672J333j6216l6944m9897m3466k1002J120R887
21612i3795O415K004O308J8342K7880K7268K1279K1292K9941L7727L5905K5333J0070q773k7252l5844l1128k3363
21594D9609k2960k5407k0023p698K644J0271K0204K6721J6892o379k1180j3189O767J8399J4137m50j6829k6191k2431
21575a7093j1462q938k0465l2327k9633j4331L068J8392K9321K7655J1532l104n44J0868J0950o6j723J3590K8409
21556A4099K6943J6170J0641J0421O151l183r437q113l459k964j1069k4930l3931k9166j6011r713j4422j5177J904
21537i5246K8350M1643L1691J0730k456j643M192L209n727j1628m865R026J4336M643r464j4936j1128n416j698r79
21517a7366o736j8962k6249j6019O398K0165J4659L504N811K0027K6372J3548p167j7287j2321j080J0044K1168K8269
21498D6778K1307l54k0017k1228q113K109K975K577M997L027o393j3048q071K082N436J135k716k187J58J556k24p788
21476C998j7718j8669n275J1140J6844J6055K3023L6137L6636J6611p020j3765k969J2131K2860K7362K3020R256n903
21457A83754j3068j3524j5103j8485j7593j2130q548p582k601N900N790q998k5518k7070j5719p563p841m028J3123
21438C196L3109L7764K2925M0j9263l1107l3979k6081j1064J588P124J0850J6915J7078K68k7785m5287l8863j8521
21419a01093j802Q683K0560L0149K3098K53j4132k445J8987J9268n170k6018k1655k623Q582P822O889J0913J3498
21400f236J0870P277N347J251p888j8447k4185k1476j0982J558P812N486K765Q390J9757K7629K9513K8979K4273
21381I1693J0136q031j5582r346m599j3021k4034j9251J214J8998K0921J0618k677j5214k4953k6174j5501M19J0170
21362a4214J0344Q058R699J2418J0835P945J1319J8381J4881o662l3887m6991l9346j9143L291J9924K2456Q952q285
21343a0025j4500j2037j4652k2701k1037n087R905J4406K0980M0853N9244N2833K3267n000j6078j5641j5224j8860
21325E0646k4978k8912k3738r496O01m937j7503j8517n776O016J0486J7085K9523L5113K4893R465L269M432K834m07
21305F0099M244J6266K2566J4575q68j0087p215J179L590m831j7509k4243k2816j9558j9341k0882k2049k2658k0255
21286h9793j1086J474P688N469N449J5268K6624K6771J6819Q279N938N482N793J0850J8113J7077M170j0037j4468
21267E5880j1284r410j0096p000K254J2813K0422K4871K4125J2614r571l0615l7144k9282j9261j4531r206M036J9820
21248a0565K5385J7656O750J184k512j0801j9928j9832r948k963r500k3812k9536j8004L491K1377K9139K9412K7165
21229D158K5313K5161K6010K3698J3938j003j2538j5021j2131j1437j5026j8663j8646j5953j3423j1163o256K426
21211c0556R399N677r765k4211k3512j0101p74m250r739l281J2581K3542K2369J4319P355N452R065J3995J1316l786
21191A5095k3982l6481l5610k3659m835J3367J9335J0299J959J0839K9032L2415J4396n494j0147m925k553m528p542
21172a3019j3997k3433k5139j2838K099N632J987N279J5612J8581O878j1056k4217k9639k8943k4383j9989j8427
21154a89012j5416m387J2528K5329K8760K6982K4366J8807P765m010p373J108J3612J6962O467o645o691O758J7727
21135b6363J5262O731L318K465l946j1917j1102m798p738k2602l3644k8256j2029L624J6978L0617L9676L6567K3604
21116A6447J1707P305O668L022n173j3160j4325o015P057J5795J4596N948l279q934j2137j5342j6882j1190L512
21097a4380J8675K1213P291j3768l0678l8951l6133j8620P883K3182J2097j2898k2312m676K0592K8220J4254o458
21079d5467j9899k2538j7436q604J771J3331K3918K7403K0135Q693M288R153J5297J6638J3885P025o377k1972k7940
21060h696j9178m709L752L563j868r167j3681j1080n143m582p386j44J9665L3657K6276P309l410m258q086j6614
21040b3780j7589o488O362J2691J5281J6528J1704q33j3329j7883j3545j197J8181L5802L6610J6425r809k4010k3522
21021A7599j8182j5734j6986j9595j8581p239J4274L3461L6094K1847L844o236p267m235j498j501m701q268q068l863
21001a4835k52j184o003j1970j7735k1647j9344p939P171J4925J1566P359J4761L1415M1751L6476K3152J4172J1955
20982A13794J2100J3568J5419Q711j4022m0533m4621j7242J8011K9147R396k0738l8781l7912k3578n004Q127R955
20964d203M235M98J478j6q066j4076q100L962M967r844k3680j9013m41J2523J1310N147K638K53n660q342k523K523
20942e4430m667j7590j8345k834J4660K2700K4359K4752K1199J2287M153l36p465j8386k0005k668K1222L0273K0810
20923D9689O691l600j3824k4255k5951j6208o230n094n799L174J8771K5920J6765j122j5543k1508k0137j1689M743
20904d5207K5325M0222M1515L0780J5923J841j1273k1238k2832j6192r402p872p279k845R35j782o339m363J453J646
20884C016l011k613K993J455j1261k1502j7836q239o349j0020p034L077P465L02p572l431J0550K0361J6535L752n064
20863c4426k410O780J1932Q872K199k698m451k398M587J3423J7767J6978J7063J8421J1306q711k8305l0021j4144
20844A764L217J0859J0334N063n315j7311k1740j5298o413m264p611r411p154k782L973J4889K5801K5818Q269j8343
20824e655l4101k5732n74K0110K1479N791j5032k9703k9643j1762J3764K7020J9411N479M098J3671J7801J0763K579
20805I764J19j281n288q013q217j0971j5935j4263l627N424N366K708M571N252k797j3691j6457j2659j2806j7993
20785a10794j6826p61K5479M8615N6748M7324L0363J9682J5788M308k1256m3751m1887k0195m641r191k0969k1006
20767f2970p159Q610J5985J3329N350r32j034M030J1778K3056L7069M4684L6215J5720k186j0763j6171k2449k3654
20748F8508j6455r307j0426j4799j2269k643O016R208O989k488j9705l5654l7670k5233j1597o994p208k445Q733
20729a15439J9609K5524K7810K8276K5018J5791L190n794n643K736J2962J9028K0204J9788J8910J3036k965k5759
20711I6282m2334m0981k3356l445N750L149k235j784M006O240j511j2000r133J0525K6774J7721q951k1494m734K0016
20691A8505K4709R916l480o237n424l772M017J3924J1812m492j8553j7688q276j945j18q04p510k0023k6915j9768
20671f2122p151k149k452M264J9534L1758L2680K4457J1016o114k2168k9457k6251j8275r712M92J1863J9104J8698
20652a1985J3874J0114R151R016O809L16r796j7968j6737l770J4562K6971K5533J2817J097Q29Q686J1541L776o029
20632H8807q884p777r971j4771j7744k0242k3244j7393O223L6889N1162M1475K4596J7216J5858P750r315k7009l8617
20613I5009m1914l5014j8171K438J8724K6766K5793J5416j500j7321k5955k7518k3509j3139J01M519p850k7595l4604
20594h5324j8700J1686L9667N2314M4720K0918o226k2309k3303j8270j8282k4335k7230j7816L046K3828L2221K6567
20576f828J5741P118o38j0046j6581j5611j3135j8870k8970k7084o602J7875K7892K2978J7532K0430K5895K3288R716
20557D4100o745j2858j831J6671K2138N402j8178k6134j6936r598j5018k1082j2175Q282K4831L0852L0090K2466L606
20538F7883k0738l3489k5388o511P114J1284J2393J5320K0134K6061L0307K5565P467j5423k6863k0353o009J559k728
20519F7585j3907k4318k7283j8120K023K3615L4652L0981J9226Q763K262m779j5924k7115k9714k0290n534L882L303
20500I308l566j0797j5589j7324j4883p551K350R919J1528Q056M248M490Q906J4119J8111K2613K8781L2098K5489
20481A30306Q411j0331k0962k1862j8188j3725q106j667K217K629N170J4877K5870K4935Q646q880j1708k220K873
20462A08285l753j0158l225J1942J8935J1702o9o375r020j5672k7742l8084l8571k8084j4347p924j2277j9692j9059
20443a03188p171R290K1053K2942J6421R924J3802K8646M0600L5369J5929j298o711m305J340J1454K2056K0327J975
20424A48455j7727k1964j4096r074r434n205M818Q457j68j0969j4402j5739k3853l3949l1971j3230J0636K2696J5438
20405a1281k761j3422m751J4075K0777O250j3260j6197k097J0104O025j0651k6172k9505j8516j848O061l33r474p627
20385a04603J184K619k559K112K0141L1666K2241N231j4J821n443j6280q385J9553L9908L3434J4202O297J1976J6759
20365I1860J3656O385l748j8284l1570l3697k3463q955L693J3383J7592J2948K937l537l104j299m122j1655j9852
20346h32k3546j8763p572J311K981M297J3130K2943K0013N573k646N225J7545J8628R528K417J723J090m638j3593
20326E4814k1916k7178k6664j8313m877O713J2329J5238K1731L1489L4147J9331q665l1431l5823k7799k0851j6899
20308d4624r243K94K375j784K42J0348J3753K978p078n31J4684J8062M825j1318j8227j4377k088J4040K3750J9440
20288A5521P466pk749r382j8023j5300K472K1497K9665L1377L5405L7642K6275k72k9191m6646n0458m8665m7486
20269f0859m2766k6646k493J4137J4155O622L795L036l996j1963r317j118l678j5948j8874q187l563j3616j5769R432
20249a87616M2740M9709K8321P516L953O514L760R39K479o55j4169k6303k3013o833J0442K5186M0307N2139N1229
20230F6645L5450J4385J45j965M115P753k52j6568k4949j3341R530K0865P789j9980m1711m4756l0847r882P247J2523
20210a7804M494r696j8985j7210o399P892K0228K3231R082j9533m3514m2841j9889J760N715J028N203J7592K1754
20191g7892J0874k407l817N722J5925K1225K1769J5952J386j6738k6027j9918p047k510r844j6687j1185K197R597
20172h9425P390N520J0945J8897K4112K8820L2039K3058j733k4777k5735q730M742O265O246J0685J1981O311J592
20153D8203K099J558k132j967J596k647j4664j7787p529m668k2112l8729k9366m298Q069M693L888P181n01j4994
20133h4107j2903P320J8150O950m557P99P971J454l082J3783L6527L4291P835j2306r614K406O834L047k241n141l054
20112A0362K839L320p254j7181j0405Q341J7725Q806o578j6453k0099j7265n053R544J2116K778j112P990J4996O659
20092D076p445j1956r632j2214j7765j4657k043J0137J8355K7042L3766K7756O261j8348l1429k8539j4076L706J3784
20073b3221P255j2859l0908l2875k0189o797l671q581j1221o210J877P000J0866J8550K7190K7010J5344K601K99Q370
20053c0170J7863K1144J5465J749j5061k7716l2527l0623k2356o806J1147K1804K3435K5245L1436L1913J7736l267
20035E0411j7762k5712l4009l7600k4150L449K5726L0293K2750J1089n383k4252l0864j3972J5458L2382K4184K578
20017D616j0715n734Q503J5844J0273J35m344l094k179k764j216K138K437k005q493j5822k3772k7246j9840m840N413
19996h2705L733m758j0881j0168k828P166J1688N154o740j2514j0024p624j0047j3516j5700j7765j3734P045L9644
19977a44574N9809N1504K7859J3582J5198K0107J7345O841o657j7332j9669j5283j3127j4400n604K0782M6658M6379
19959H9418K1261j194k660P984J4352J3277R212K182q356j6719j8210j8135k5487l9759m9403m2369j6779J5505L5430
19940c0450L2330J5123L196M841J0609R473L516J883O825J2277J2573O613l936j5131k0838j7447q900m027q275j9166
19920h911k9233l2343k7923j9681j0059K512J8641L1784L1474J3970j2496l3086l5573j7331J1036L0035K6487O780
19902e3917r619j1117l488J987K309J284J401L014O711J0529Q735q2o759j355J1378J4607N51j6918j6566N061K8070
19881b4184L0613J2511o453j0620m547j762m011j190R289J4686M205j4183k3201j8391j0730p863l686Q608K1763
19862b9146K2104R106k143K95J2016K1664K5725K6118J9218J69k2058k7961j2109O541P576o490j8934k3086k3548
19843a4943j9460n482J0054P376j6929l9332l6537j2207J2977K7281L2237L0027K1428J2524R934J0137M702m641p301
19824B1845l83P430J0427J2876J7299J6701O066o625j0269o866q080j7014k2981j6648k954N744M950J219K301R485
19804B4523J9022K5404K2228O304j5070k6082j7727J819J7535K4623K7836K7627J8455J455j2946j8824k0735k1559
19786H3888j5740k141P252K190j0271j6404j4930j2873q940K831J5351J2206p901k5466k4740j1736j139L564Q246
19767a6753J4572J8081J5966R458M91r086j6972k1918k3061j6920n70J9917L0730K4213O917q718j4910q897P848
19748A0388K5104K7853J4021J699Q301K6726L3195J6623j0338k8885l1850k2679p716N397R328L758l136m235j778
19729G1776k562p458r656k879J0845K1519J9077K982j4745j8382l632J5768J9223m96k8744m3403l8010k6093k0551
19710e5421j6086p64K0267K7538J5742L891Q319J8937J5870l00j2213j4409j8766l0210l5657k4179l879J0102J3961
19691g7257J3303J2050J1946J5711K2132K4037J8782J4280J6726J9554J4504O993P810J3600R644q156k7261l6699
19673G1699l9413m1627l9942k6343p79K7081M5521M7476L3875J3858j401p562p740n193r45J184m701j7195k5816
19654B2037k3382j4351n581M939K2164M0585M5634K9231j183k8830l9455l0322j3472p725j9508l2179k2916P859
19636f6455L2622K7421O7j9234j2001J1104K6171K1933O777m896o968k369M611J1618J5151J0562j440j2210j4345
19617B8119j1485j2708j7425j3894L780K3984K9730J8589L248n674q723r028m451N876J4138J1782K776K55Q543J5727
19597H3159Q308j1469k8278l1478k4779j7922j3455n036J2070L1227L7525K2677l413j9803j5882k593J630o692j4051
19578A745r398K719J1383J4020J5746J9199K2553K4931K5777J9605K92k6479m2346l3742p499J5276J9481P380p970
19559G2673j6095j5477j0149l115N593J4667J8402J1691j977j2321j4350j4271j9131k4426j9306l699P928L964q831
19540b8230j3397k978J3516K5798L2893L5995K9366Q073j8234l0226k0620l054N182K554o62K76O67k212l789p08K733
19519C2943O55o315j2437j3230q379j551J154l501j0145q816K283J1951P861r218k5744k7470j0167J6824L5149L1435
19499C282J1459m575n145P19O37p55R503K8944L9595L1711J3630m276k1014l4813l5885k0416k228J661q235j7877
19479a4078j9272j4737n842Q300K1439K1765P292r553j6842j5169j0917n600J898Q283Q446K493n346j2632j8502
19460f8574j9441j1301L959J8186K5120K5505K2769J6886N765q292j7566j6540q195N38P831J5818K0469J1641j1039
19441A3539l0109k8471j1695m67k551o232l126r15n568o249Q326K9169L8606L5777L3378L2562K0413n563k8566l4740
19421D7518k9592k4227j8791j0204m775r216j6060j2337K72P167K406l460N19J1639J9591J9138J2174K561n882r054
19401b0613n356J170L372j729q473o984O094K1870K7335J9540P994K211K202L480M781N342J12j4238l0989l8619
19381b1498l3615k2175j0618o76O493Q753O702L930K914M063P389J0849R767L279j964j127r5o295j4645j4045n147
19360f7761J809N787J5688L0170L3935K1071O657N336J1153R540j779j5082k5679l1052k6736j5298r866j5418j6632
19341h4157l89J9282J8496o95j4113j2053q231j0558q072M970J4645R923J557L664J1175J1709P854R495J2111K359
19321a1028j6969k5620j2097J2031K7813K8547J9815Q627j849j1368k0379k6966k6042j5357j474N829N470M945O379
19302d9693J51k1266m7298n6024l8442q815J4052K9782N0922P6136Q3266N7429J5472j1391j4363j0874j3225j2561
19284D3258j45J3215J2180k63r222r717q222p872o400n863j0558j6316j4711p683n222q231p170N66O089N679P605
19263b9003J5569J8729Q055q042j5189j1738n051L184J4870K3669J9399L927q889j0250m430P27K335J043l9N622
19243B4498K0085L0905K1157n723k3226j3122R898J6478o59k1218k5464j3794K718J7140K6359K6940J9836J2245P320
19224A32373j363j7024k8450k3379q704l283j0877j5364o990J348o133k3003k8248j3736P895K0631J9734R715k299
19205B843r565r559o404m653k200M026Q407K928p810r772P32J2557J8114K2366K7215K1765M76k0288j9696p27J3944
19184D4699J1091k219j5042k4150k7738k2325j0927k700L20N323J3344J4479N659M65R791K2561J9464K3j7825k1828
19164B465j5648o751J570M642l239j8223k7725k6724k2825k0127j0333J0902L0045L1604K1141J7441K5018L0107
19146B3340K4407J6283J2628M719j5994l7311l6131p704K5948L9385K9373J4611J3023K1509J9087q048m5891o3585
19128B9649m7356j5906L181L704j336l425m901n352N94R212P725n161j3164n419P312J0241O165N940P458R10j1339
19107b1268j7793j7666j9725k2093j2566P483J8363R044p077j2626p774l30J1215K9303M2497L6827J6985P34m275
19088B9258l284K540J8188L8597M7013L5493J5052K85n745p304p991j2085k2738l2678k8289j0516L68q353k1839
19069B5972j9227o044n820k2309l0782j2159K0664L9851L4709J6878J678m642l058K404O514O622N055M118Q21q305
19049E2940j8538j9637q451O069J2473P924j973j0679j4896j3815q465k081J732K521L494P677J4184J9056J9342
19030D8877J5847J2044J0812J1899J1785N984p238k4097l6332l6516k4100o986L829K836n903j3977j7905k1149k5644
19011i5934k4829j0500J3544L1004K9970J6554O962Q358J3055J0917J339q825j4068j3157o710L440J2968J7076J4945
18992F109J0249O229K138l596p311p45J9205M1885M8240K8242p464l5556m0011k3905l644N672K51j2690k2790k4964
18972a4456k1249j5513r164l197o10k337l350J374Q215R280N452O777J6710K4237J8110L165n112P07J3835K3545
18952E6419K4349J5915J828r800j0995k714M485J466r368j6274r709P508K0323J4282q415k8628l0643j9498j1203
18933a0672r582m472O969J1918K015j0366q163N294J0936J328j0121q859L367J4814J8128J2843J116j1856j7539
18914b902j0985L439J7140K5364K6736J9498M605j0039j5656j2316o664j323N636J0890N951q707j8806j3115J124
18895A9870Q376N669K933M798M149m347j5587k3703l0505l7114l5681j9930Q01Q949p35j6709k5607k2652q029J5254
18875a69800L6385M0559K5257O070n19N467J3413J8384K2065K2272J3622j523j3260j7155j8006j8304j2668R40J3023
18856c3778J3740P240O199J4268K2130K0971J2670M476m34l229l852l89N838Q673M374m43O142K4144L4179J7011
18836A59930j8721l9722k6095L171J3771j550j9078k0032j1919q739p662Q76J1068P139j2046k9074l0365k0642j1443
18817f1133n340K856J5723K9673L7925L3765J5055j0827l0060l3977k5954j5863j1070j3218j8072j6606k744J6315
18799i3552K4137J5039L732O980K0018K1632K490k1232k6204q255J3699J7819J117j8154j9570k020J6179J9193J0036
18780a6916J186m088j1762k2509k9400l0598l2180l4656k8574j0814M777L927o891p647Q676K7431L1302J8750O61
18761a39325j3292j9262j5507k077J4993K4437J8754K377j1457j3225m880O340J8601L4552N0417N4008L8028J0081
18743E3563j5795l3141m2397m1167k5761k662J2151J0246N69k762K875R907J3759J6502J8269J3706R25j0960r074
18724c1247Q487K8437L3874J9024o875k7549l0292j2579J6144L8311L9067J8438p649k1458j8856r627m418n019o809
18705A9404n783q57P231J5319J7491R649l871j0645p29K1562L7993L1858M769k3419l3108k2498n998J841k629j4571
18685D3009k7155l3655k8831j3865J529O752J171n021j879R663J9121J7564O039p212j5969j9955k0307j6216r242
18666i4459o206j0629j3463k207J8569K6588R421j5475j9832K10K0801K2457J1667N648Q199J0964J0223R845J0963
18647C284J0791J1134J6732K3630K0554O064o034n216Q63r85q957j0400l499j820j4937l4913m6800m4956l3224j5187
18627a33876P355K7824L4871K3232K441r262k117J5076K4977K1296J2801O351m507k5478m4227m2648k5043j6714
18609a27648k9195m2789l3767n857J8655K9183L2449L4259L2868K9105K7244K4470J3294l374j2597r715l383Q58P721
18590a8219J7029J6974L181q424j884J4486J9413Q904q06Q41N759L432l350o202n855j0527k2651l3718l2877j8399
18570g2893k96Q887O889M134J1213K5830L5728L3230K2134J0319Q37p137j2379j1048k520O508O549m150j5181j3820
18550C2834K34J3860J5265N352o851j3827j1623J33J3787J5584Q05j6987k0840j1603m594p405j2544j2429r785r449
18530d0083r839p716l725J317Q270J3510R252l497r879J866K2687L1055J8182k362j0869k528R226P927q328k4930
18510d64k7640j9522j5939k3112k9496k1718j801J6943K5425K3964J6944R907R169J6807K6272K7720J7294j061j9379
18491C0313k7817j9175J725J7208J3320m850k0555k4172j6529J059K6595M8062M9181L0112J1184Q911J6994J8576
18473A60142R209k236r686j4654j6283r058N302J2935K979j6311k4868j4529J411M974o087j9496k4674j9344k894
18454A6832K4228N0751N5966L0942o885k9706k7432j3169m585q279j9556k7945k4001r676q75j0266k8532l3722j9298
18435h5208m32R352J3436J8397J9231R288m647r343k431P132J2264J2938J0904O991J864n854j9204l5586m4443l8475
18415a23826k3106q577K535J2575J8635J4884L131p465j0885q275l233J265L684O763J5456K6948K9639J9568R336
18396b0948R676J1128n6j5162j3329L504R603n971k2599j9901n705K211M663J2119J9441J1646r560k5030k4572j7737
18376i6579j5170j3186k816J5239L1387L8063L5369K8209K0199J0359k768j4169j5896j0864j4438l3550n1252m4691
18358a36554j5411J1536J8336J1064L955J316Q65K797O955R474R718J2654J6870J0019j2604l3106k9763p316P560
18339a11635K048p804l455J0037J5836J2182J1852J9257K4286K0718J6832K1733L1180L4435K7563J2587r215l3348
18321I5089m6872l9273j7501J78N226L589M85o162j4002j2220K639J7546J9171J0685L378K56j324P44P185P272q987
18300B7102l1214l7484k2761l280P982J3289J4778O426r788j6808m839J1973J5322Q739Q153J4608J4450L545o647
18281A3546q651r028j4213j8767j4125m75J5549K8215L3341K8079J4868Q58j0239k0962l2029l7476l2648k2031j3942
18262a00130j0698r269r006j3007k1628k8439k4317o060J7884L1735K6667J1245K901Q250J7632K0538J8049J4900
18244e2753P818p862k4048k4379m828J8436K5393J1758r616k2366j9559o804M868J0298J3798J9468K1480J0815r322
18225c7405k3389k1397r806j015J440K780Q093J8880L3016M2314L5504J1271j5168k6169j9863p555K829J1274J6407
18206B2041J3538L279p611j5665k2078k4315j7909q654r259j8368j7613P93J7709J2979l512n528J0966K3742J8398
18187b7067O261L383R701J7775K7063L7553L9883K5262J1k0513k9284l0638k9843k7995k4781j9027q723L607R717
18168c7655O712M259J1208J9467J4045j780o242J1162L2620L4240J6727J730J261M178l736j7571k0893j0879l571
18149E5282j0737k1597j7202J946J5087R112m747q073M76P227M121k801l814L303J2089J2627O98j4036j4583J636
18129B6014J4378M923j6711k3451p782J0196J3188P239M656L110m953j3649j0515K505R353J342j2261j7082r878N60
18109a8818M772K873L810J3185K3081J9499Q70j8314k5488k3465k0913j8185j0837r9R659J8313K5495K4636J2934
18090B3008K436P456K2531K7018J3065m002o998K452R805N475q390k2564k7936k2834j5375j3790j4975r860P83O163
18070b6532J933m758r087j4292j8584j0995R670K4348J6177m951j5143q437m81k556q248q304m148k37N945J7788
18050f0892L0236L4829L0401K1925J1096m666k3267l4608l0524j5712m070l426p416n124M353J2024J2852J3130K1073
18031B214L4486M2162L6102J8923l34j5378k6474l4957l5788k1279M356K1459J5962L72j75J6509K4153M753k4624
18012F2442l4180j8769K122J3371J6038J4434R425N475Q552J3723Q091r691k4877k6458k0647j8289j8172j0935N933
17993b2412K3404K8817J6410n816j9539j2766O349J9374K0502J9486K1450J7967M042r107q688P95L990m976j7725
17974H1557k3975k1402j5220j2756j5939j7131p374R941K1335K0746J4585P073n411j9519k0896o421M920j377j2061
17955a9325q758r86j0989l2308l2699r71L5381M7302L6632K1046P019p379j7919j9180j5692j4632j3439n438P769
17936d4566J8813K4197K3440J4782K55j0555j0764n916o061j2319j7878j7269q610O905K0930K0867N592q592p070
17917a3819N061J4077J8424K4752K9879K3655P767m482p802r417j2759j1755m643Q58Q70M48J85p975k3811l1478
17897a965k0189j730M887j186m570M272J9888L1082K9878J5064m088j1776k848Q102N096o628r763l394n212k2336
17877B2584l6562k8207l543J2818P238j1095k4781k6040j9790j4674j2973q148O830K8875M5811M8813L9586K4032
17859E0774N069j4491k7843k9515k2429j4450r914q464r258j0748q171K909K0259L5585M0859L2199J1210j3028k6871
17840C682k3249q670N355J4673K0764K1475J3236Q41n466l528r18k313m771o653j0225j2682o414P065J5206J2721
17820C0129R707J3235J3685J411j4604j9953j7444j8710k0048p710J4097K2500P770j3122k1872k0546j8427j3182
17802g3084J111J8249K6534K4473J7905P856o019j4625o215J5927L3265L0851R822j7455l6944l9010k3669q96J9235
17783a2689L5071M6968M7632K9582Q33j8295j6350r42J2912J6016O400j1487k5728k5294j4692j1524k3691l7265
17765b543l4127j4787M496J2177J0794R032J1607J5217R853j2062m2324n7851m2866p325K4077L7857L8509L3569
17747f697K4358J2153J939m087q708j2446j1846p392m305k152O405K0789K6443J2592j1140k5362k2972j1561O12
17728b3377J0096J3472R094K340j409p250k2400l8852l9184k1608l800K982P614J8703K6831K1354J2156J6353L0246
17709A3361L3431J8940J713m540k871j519j326j331m754j0973j0705J206J4075J1809p131k7220l3056k4897j6553
17690e2341j9084k7003k3496k448J9359K0023k14k0046k4830k0292j5975j0008J569J2820J6870J7992K2858K6326
17672g7920J8417J237j2715j6395j1855j317J3080K2068J4933m730j8954j4572M502K5674M0479M6152M1635K6974
17654I6693M528k0521l9633m3985l2948j6831n494K833J4761K7408L0111J8904L08j8187l2124l5770k5217p374L925
17635g8613L252k431m815k89J3277L3257M5476L5191Q417j1153j1203l310j415k762J349R616J5909J8806J6314L405
17615H8278j4621j9437l796J3772J3281P57n247k797j631J007J4239K7796J9756p832k6679k1945j0439r885j2985
17596D1592p047j74q538k9047m2967m0343k6148q004Q193J5067J0186L109L664N654m677k4770l4123k0024N614K0096
17576a32687J3736m092j7027j5531j915J4319K5064K7096J8984J248j7551k3133j1590L301Q498J0957K4721M3214
17558c2388M3183J8851o866j3412p891o468n977O215K2598J9301q951l7401m2092k7452j3874r435n878M218J8725
17539h4994L1828L7907L0141N994k3098l6412k4680j418J2397J1856R568J4876K0528J4572j401j4351j7988j8702
17521c3377k1010j7394m68K1537L2165K7275J7894J2760R134L346n91P87K105k977j1250j4648j1456o553m525p769
17501e015j6009k1531j2126J1977L0574K5092L575r391n425L92m070j1031q486J051O828M899j992j1471j9497j8256
17481e9912n367R692J6480J6410J7198J9408J6869O774q318k4682l6170l3911j7167p79m92j2475j8581j1381j652
17462a28056J001K142J0846K3660K8704K0886O320n257p279J198J4191K1181J5405o4j6197k6219k7936k1291q678
17443i5443L158P251M881N937J6415K7509K3396J779j9321k0848n028R110J0832Q297J1991J8380J7406Q588J9m171
17423C0138n353k131Q343K0159K0422N766j0424j3159m073R19r207k7624l6504k5631l305J2280J2044L056m115q681
17403c7080j4718j8283r518J1829L1424L4235J8569n521k6454l7130l5937k6856j7149j2075j1998j4766j8644k1762
17385b11834k0565j1101P123K8357M3169M6696M3734M1498L7756K3826J553j2388p056N589M816j1631k5680k2695
17367c8833o427R660J5886J0060k652j0976o318O887J5259J1741J568n650l307R837K5593K7220O269k1847l1263
17348A2707j5746O285J7129J6309J0164J523m217J637J6465K3709J4479O67k764K156L740k284j3006k5313l2404
17329C1236k4096k306J4289J3776Q467J4389K4389K0183K828j0195j3886j9282k8281k7895j4987o193j2915k2438
17311e2917j6456K631J6904J7755J2814R924N413p602k4718l0866j7824K532R017m444k2317k7479j8715l851J2878
17292a37321K6910K7502J0351j0289j6613r283oJ0757K8352M0316K4487j3800l7103k1360J2725K9173K2369J4876
17274B043J9464K4542J6781J118p757m707J700J884k434j383P460J2180J600j6931k5405j9614j2736j2422r400L654
17254b0363J5581J1352n395j6849j3138M73J3939J9612J2483n813k3541k8194j9638q116m77M887J0228J2696Q408
17235c1865j235q632n258R880K6847L4197L2035K9234K7191J7116k022j5108j0178L383P770O04o892r702j2402j5836
17215F9127j5265j1438r836q436O4J2440J5895Q541M255J0549J5340N563j2217k1699j9559j5564j4723j2334o109
17196e406j716l725r326j4086j7567j9841j7709r079J856Q415R558J0377J4202J7925J7496J5274J7142K2115K0229
17177E6134M849j5734k4772j5772k28N519j839j0914j0488k349K293k498r777q355L166J4965J8309J4684J1127J1047
17157C9367J2829J3768J1348M096m188m558O340J7963J5973O99j1702p970Q451K3763K7756J9377N123m438k036Q193
17137A80154J4379J1884Q368R106N236j3126l6593m3316k8488j4408k2858m5524n3193l2014O18J8423J4852L520k417
17118b5397j535K372P220J0130O580k545q606o071j619n414j5906k1061j4394k318N620O632K599m656j1037q651O523
17097h1534K7294M1048M2142L4607K3588R168j0220l1800m7915n0504l6466j0819J5002L0192L1175K0975L610j7597
17079h054l6120m1995l0391r473N027M831l590p863k876P056J5714J9556J6265N587o427j0149l662L562L847L358
17059g5797J2439K6496K8549J3811J93N617K2535K6589Q145j6297k5204j4304N076J9505J8866j765l3874n3826m3083
17040g6329j1479J0930Q608l182j966J3220K6330K8395K2922J1965o281k3979k4206l277J9253K3154J1512J104l977
17021B2717j4132l1434m0636k8616k932J6543J9595J3304J0347J4668J8765J3076k699j8696k6146k6101k3148j4612
17003a00137N149L0275M3563L5357J4602l717j4401j9354j7523q117Q21r14j1094j7875j7951k0341k8352k9441j2334
16984a71784J3061K4198J2991m795q596M758J9920J9727J372k1061k9314j8521j723N922N083Q570K0810L0026K4216
16965f5140P217o772q975k16J4839K9272L3526K3243O886k781m554p601j4556j6562q601J16k348j5266k7652l1046
16945i6971k4401j1092K777J0661J1747J2040J5052J5546P562n683j5730j8436j3518M11K1858M0754M6071L8383
16927C7031K7271J8017R310K640L379J0521J4336P663o717k1767l2595l5619k9153j8130j1899j3646j6978j5216q738
16908h0290j248N183R194J0591J3712K3007L2495K8121N816j9964l1883k8026j9039j3466j2994j6754k1777k1974
16890a39296j3972k576M964P806R910J3071J7053K2912K9673L1138K3159J1578N640N931O131M088K119j845j2417
16871B5067k5098k7543j6614m983m994j3148j7297j3346o900j797M266J2060J5663Q581p217k0784k1295q484N360
16852a18503N716r376k5247k4021l090K1301K9892J8880J669o051l51J1149J8935J8230R557j689o872j454P622P442
16832d6261m578j5051j0990J835N027p561j9250j0112J7155L8174L4356J3169l464o469o655j3858j9834j0181J3419
16813e1129L4478M3033M3087L7941K2763j596k0208k1030j2340j1364k0903k9233k9164k3548j3287N194K7442L9190
16795A9326L3790K1780J5881J4093N846j0529k5485l0946k7561j9852j1209n153n945j4401k5317l1843l1654k7039
16777a56218j9646q116P902K3802L3096L3721K8459K0006R719R66j731J287M618N380N397L972l442j4726j8293q996
16757e2843R39k019j1560r823N833J8531J5148R56j1343j4884p360J1028L1706L9579K8109O142j4064k7140k9159
16738b2224j4256J3833L5877L4483J2997j1264k7196l4036l1139j6519M726K1147K6452K4052J9510J4060O447l166
16720E3784j1489j2573l326Q741R527l265j2249j387J9217K3128K854j8545j6607M933K2168K0576N922j0197k3271
16701E7941l1976l1366j8024R18J1695Q734O75j635Q73j293j1286k0924k1026j0913L381J4242J4571K764j0590q939
16681e2178J0360K8199K3814n50k2378k3738o463J5083K8223K8593J9328O660m713j1204o990J0688K9705K7320l642
16662I6117m0448n4466m4127l0429k4353j6621m73J4021J5884R566O307Q774J2289J3605J1753P196N128J1197J9030
16643A9950J2940r122k6404k0553r58Q938M381K299J3070K5375K3247O264j3290k4902k5234j5384n88R380O262p852
16623a2181k0137j8376l682R722R710N1m742K074J1582J1305l70j4602k1482j5763P34J7883K3985J9121J6460K4734
16603C6026L5597L5413K3134P362q449k5905m0122m1377k8803j1796K567J3396J7766J1102k247j1099j3411j7821
16585a8667k4918k1392j805J6543J3916m423j4798n250J3546K5775K6694K0327J1707N488N169R430J2645J1091N724
16566H6802j179p917j1443q153J494J2171J8646J9085J3274J374j3806k6152l0461k6591j8561j0496m281l79N00k328
16546h401p311j0357r048o335o668q610n813L279J1724J3085R827Q701J1427J4481J5109J2950Q263K901M16R04m47
16525E0077m502k998R410K1817J7054m992k5060k8331k1085j8987k6606l4339l0779j3613Q059J9774J4952M085M559
16506f1505J8762K9806K3347O198k943M686K1668L4361L2333J3309j3329l1784l5522l3813l6190l6817k4180j124
16488i2737J7671K5805K9402L1156K4668Q931m454o208k191l062p823o331N202J8298K1042R282r500k2286k3260
16469A3605k0285k3612k9335k3301k926J6317K1354J7479J6024J6834J4168J0962J3283J6444J1907M545O627J4853
16451I4943J0598j2953l9539n2266n2914m9563l8396j2172K1018M2490M4498L5509K5415J6828J1472J3100J9008
16434G7076J7145r28k7323m3659l9101j9959k035L955r08r076j4821j5335p133J1564L2967M1408K9375Q475k075L496
16414D3108J3925J6594R389k887j5295k2747k0071p164R051K0506K2406J1726j0727l2492l2829m342L2352M6279
16396G6782K8776l2j7986k3582k7095k9027j9060N168K8806L4058J9312m49j0605r965o530m859j870O062J7173K7411
16376I2488L4947L7418K8648N743k0628l1577k0423k470J885q999j7810j1360L401R203j248j9851l4944m1664l9681
16357c6922k7402n088J7633K5072J0992j2250k5211k1265j0188k413L400J3433K5130K7776J6555Q72l497J0355L2984
16338C9966M5835L7977J7010P85k980l949j2461k2218j8840k498R828O666m378j0240r546p939m467N656J8047K1220
16318A03474J2809L586J865K413l769j5323k3201k3039j6956n451J2730L0697L3107J3424j3616k6264k1634j8038
16300D6814k9286m6074m9150l3151q436J5121L4184M3947L7950J9389J867o023q047q393l392Q022J6705J6456J5416
16281F3919K1787K6058J3288j1176k5451k0800j1199j0310j4775j6354j6152j7446j5973q246j036j505l790L445
16263d5716J9291L0202K6319J1027m734j2094r506k938P14K410Q522J7437J7254L078j2433j5828j2619j7200k8205
16244b5019k9363j4160N355J6694J9807J7882R267l798j0203m231L129k217j7559k7292k3720j4020p046k577L976
16225a05095J2906K0081K1838J6918N795q782k0707k2363j0152J0476K6900K9365K0158J0474P101M948m383j8844
16207c366k5585j6312N14P418j895j5073j6724o621L730Q476J0948J0973K810r632j0296N687J9225J2835j616j93
16187b4697J5241K0108O749m536M68R715R840Q500J5531K1230J3700K847M413J0545O11k3729l8252l0567j3498k030
16167B189L402O137L625m521j2288j6649j9752j9127r537K190J63j6101k5129j0246J9380M2593M8730L8029J3950
16148D7038j2377k2097q414J0955J4741M866j192K080M743K342K886J0580J6722J2184l64j1528j5949j4747j2534
16129B9935j4566k2578l1339l2151k0742p63J8495K6379J7939J214p042J350J6546K3627K0054J3974J0873J0116R955
16110G1276P046m275k2493l3895k8519j6115j2566j5363j0064J093j293k1022l4305k1767L866J5900P657n927j2023
16091a32789j0556n692J89N108R130J5966K6849L6361M0253M1615M2154L4308J2552j2565k3483j6503l355N575Q413
16072G3530M297p882k1627k6102k1319j9542k6504l0998k0533K19J5335J7689J4695J5717K1495K7128K9318K7178
16054G2094J9325N048j1155k0117j6431n172L303M736K939M21o094j7296k4853k0175o043P186J4175J5924J0908m681
16034B4042k5438l4749k1172O779K7901K9961K0700J6817K3719K8240J3454j9532m8227m9839k3468J1041L2773L4295
16016D7297K0507Q80j5800k3992k2160j1787K774J3843J5105R925R763J9745L0740L0967J9825M107j2375k6052k7524
15997H5788j1245J1948K4582K2575J3838J343j6371l0407k6897r440K872L987P331J7210J6381m743k6638k6171p999
15978D7944P695J4881J8950J6548J698j4960j6525o434l608j3261k3236k7591l1321l1112j5141J3065L2554L3585
15960C731K8105K4574J4329o364k2194k1713j5938j7307j7047l448J1505P354j1519k1789j6743j2627j8770k3550
15942a19411j6103l656K112K740O917J5589K2613K5358K6991L0043L2364K9422J9774Q999N969J2321J8799J6445P242
15923A44528k411j3079k6900l4980k4089L040K6335L0155J6344n524k7647m0339l3937j3073K949M043K851J3175
15905B1441K5607K0287k372k1264k4023k0600k3784k9574k4620n768J4732K1309J0222n236o559Q212J8124L682k4699
15886d4883l5398j4942J4969K6577J9443J2860J4270J2010j328j3868r546R977K5921K2330J377j9619k3848r161
15868a2859J0842J9795J3417J629l110J954Q635O649o555k3128l1753k8331j9284j3236j1206q164k728Q2k638n449
15848a05438j061R272J6603J4872O379l915j4495k4030k5614j1194J6220L9835M3551K8096Q959q91j647l4J205K538
15828g89Q68q788k4070l3597k8321j2239J374L992k86j156O089J7147K5589K8684K4907J1350r631k4081j7273O069
15808c4162K1943J4540m072j0999k914L489j323q049p234m356p017q998l95J3076J5653N321j717O285K0479K4436
15788C3986J5784O692O148R943Q920Q71r000j6143k0799k4478k6275k4514j9271j0626L094K0802L3656L1124J4149
15769C4063l216r200p041p607j2797j3155j485J7067L0452L1545K2582J0115k115j4929k8633l8033l6294k4701j3645
15750f7027j0143q543N45J4970K2304J5957K801o872j0203r770p279m181m094q659j3112j1193l365M938J2539K3476
15730f6911L6551M0351K5399j377k1859k7307k5633k4671j7926K723K6327L1071J4853K012J1564L1698L7556K4301
15712I8722P603j901o924q650k560P235O670p311j8581j4346l871k725p930l562J3479K8098K7410J4425q19j3669
15692A10793k3920k9567k7107j6186j961O247P61j5138k4823j2342J8534M4195M3710J8658j1321k8468k8132j4183
15674I750Q148L1571M4541L7440J2791j4521k9681k8828j6617J924K1689L2887K5359P94k4687l4357k5377q364L822
15655D8284N125j593q041q154l942j190K71O122J5778J8800Q570o238j0998k641Q589J2426P338k153j0620j4981
15635F0752j7246k2513k9759k8202j0145J4638K5979J5592m693j7584j6174m462R318J6221J1029j077p095q93Q612
15616B298R602M030M428J4784K3396J8781O066j91K796J740j2652l0092l3507k2125j0456n730Q5J2227K0938J6762
15596B3180P124M694O130k348k0832l2720k7693j3985l395L639J1150J6137J3452O345L238O659J2021J5307J6136
15577D4239J4343Q863M10p843j2414j1094l974N292J1012J0645P490O144N882P51j2799k8950l5411k6028r753k215
15557c5410o960j1190l929Q920J4885J3011J0022L654j4128l6489m1415j9132J2986L1522L2170K4848J5052L471l744
15538a856m58O144K555r886j4672m842M814j740j8368k4929j4982l838o915j8986k1572p207J1389J7449R473Q30M021
15517i3576J9773L9000N0212M6323K9706J0500m583k0195m2572o3170o2213l2754O375K8316K5013J1260M736P416
15499d0433P134n050k1130k3076n219J5802K0230R629J706L650N132p76o028l822j558o862j2671q986k23K914J748
15478f7889N182J1912J2513P690R333K1254L1186K6371R117o658r463J52J0085Q217k894p143M227J9462K1872J1187
15458A15713j396j2141k3894l1599k6763j5671j4717k4761k7850j5462l139p246k0728k3810r750J0904K5074K6574
15440h0662J6088P20r261r708o630p559j2639j6817j5577n972J1886L1201M1631L8504K4391L806j4729j5111J0834
15421a5604M2154M3040P426k8723l2786j5807r509j8138j8039J288K1004J9784k216k9459m5505l9483j3599J2636
15403a21536J9746J2453J2015K2586K3675L195k0390k1700r56K0743K8541K2461P339j0408k0077j4747j100Q976
15385b9184J3634J7703J8871J1356J172J326R939R534o022j9548j5226j758K597k337k849K621Q60j1493j8604q137
15365b5545J0438K0250J9920J9828K1757J6286%j7286k6505l0983l7640m2983l6541j6830L797J2528R574N119O336
15346h8480J2206J9520K7378L3766L3799K6361J8115J4430R787m377k4049l5250l3194k7552k5003j8950m511Q039
15328e7965P291J93K812J5710K3497J8117P942J860j826o307q468o497n334p754q400l181K679K790r36l561n620r112
15306d2070j0726p277l934q588j9793k7285k3835j1637J903J0447J2545J3234J9787L2000L8972L0034P708j3623
15288b138k1193j4380l603M03j258N098K8919N8577P0283N5995L2180J5976M192j4579l7165m9042m5428l5323k5845
15269B1669j5085j546R998J4682J1881K399j0804j8431j1008P228J8316R740j0973k4688k0390l537J2002J6545J0359
15250A8357K86o903o979K829K0987L6415L3878J1053j4559k3250j4936o318q246j3911j0212N319K0931K1553M121
15231G0415j6443k0397m976J2483J6786J1830Q417N457m023j5675j9246j7978k5004l9734m5061l2078j1565N069
15213a21723K0162L6007M1936K9701J1804Q320J9262K4759J2877n689j4812j4647j7514k6402k8313j3599N834R020
15195b3017l802p473J3551L9416L8412R071j9262k6219k1219k0470k1990j4403K079J5883J9172J4047P958P533J2015
15176B1282J1213k013j7206j7012m480k620j9815l3776k2857K810J8484J9865K0863K5431K4084J5568J1065J5391
15158F6277K1135K3448K4972K3974J3292m625j5519j1461m3Q187R781L111j2914k9017k8637j0025O421L463j0209
15139H1611j4523p387m950j5867k9379l0735j7806R05J6620K4358K2636J4643P652P169J1670J4802J2283N335k040
15120I6997p064q821o922k179J642k69q535j7989k2739k1276j5834r488n339n139o007k002P596J5327J5092J0488
15100G539P552L560p791k1788k3852p522J7093L5757M3116L9964K6409M734j6597k8993l1049k5192j1693P590K3659
15081D2496K7091J9339J0070L944k192q531p965K785J4561J5051L641q757j2862q791j846L468M573J059l963o385
15061H6786o856j0828k0727l1037l3529k5199r821M844J0279L309p331o303J0682K9326L3497K4702J6344J3522J0512
15042I2172O082O793J2494J2002j199j9806l4497m3695m5375l2192n543J6011J6008J620o310P5J0827J5750J4170
15023A5387R384N050N550R563O191j0526k6130j9768N838K3692J5546p834k4552k6884k1188j3360m560M334J2231
15004d2036J9294K4845K7063K6483K4865J9632O848q502j4225p151L77m487k0170l5143m0308l2578j4130N441J3132
14985e0750N907m640o507p23M515O304O357L678l508j1362j2749m144J3096L3465M5708L8370J3712j0479k0252j9652
14965B6346j8008j2975Q59J4440J2853o43o724J638R367L472p923j0403n490n369j1532j2044M2J5894K1897J5461
14945C1158N534M10k95j461m915r420j5244k2699k6359j8432j243J1087R555K953N932J9132L0207L0803K1983N495
14925G4181j7222l6369l7713k0585j318P093R096J3634J7466J2418K414N2P276J1037J114j5585k3115j5093j251M148
14905h322k159j0554j2349j1002j4432j9560j4814O27J1782Q336m91j280K523j454j1294j1951Q65J3821J6616J5268
14885d9824J8261K1493J6097K884j0017j7958k0313j5715m870N965J1456J3561J5262J3188M322m777m848L014J0128
14866G309J3194J4680J2698K031j4271k4883k3764j5159m435O314J2413P517n952j6767j9097j7667j5640q103O730
14847h2852J9715K1382J2947J408q268j1661n863K255K06j0421j1029P432K8394L3000K6245K3313K2391J2853J981
14828H3428P710K6211L2004J4839n676r377P5Q901J3081J2833K528j9690m1645m8671l9411k2432n201N862L534j1858
14808G045k7793l1012j9003L629L0874N1246M9276K2304j0681k7047k2984j1386m471o536j6407k6803k6520j2661
14790g8930L693J1754J4879K1584K9757L1012K5488K0502J7781J3676R872J2293J9262K0536R609r473k7419l6900
14772A08976l6611l2602l1886l1054j8519O267K5687K5678J4881R510Q367m43j4454j8284q983j153m394j2111j6419
14753b7547j9067k2292k1735j3791K36J9770M2736N6185M4683J3762r854r644K079N540K60j705J513O73p274j4071
14733D0457j1806j333R973J2874J126k2109m4105n3088m6920k9192k413K9340N5553O4405N2584K7057n99j9663k5097
14714C7044k1554j9301k1979k1737j0474P853K1332K3894J9887J6320J5339J4322R765N06j0693j8032j6343n632O613
14695B7130Q791m742k4881l3515k1926N20J9576L1621L9237L8991K5801N649r261j6868k3731k8113k0091q00J4277
14676B7665J6547J3782J1622J765j9856l6580k8395R38K7759L5805K8766J8609J1708O450j930j4398k4394k5036
14658E0827k0864k3915l4962l8813k4435o5J8953K7787K9233K3465J1808K906L824J0201J3988J4247J2211N239l982
14639G7653k803J3338K7670K2234L401q817r279p465n889l27J962j2204l6614m7702l6284j7554m854N727J7247J9778
14619g82R213Q28Q504K2817K4841J2514j034q016j0758j0968q001n737r331j5076j2754Q83J7181K4350J7047q01
14599E4920j8160k3989j7273q732q692j5256j7920j0685K530J3856J9204K0451K1556K1968J5134k592k2661l0470
14581f811k1932p163L971J1954J9762K3833J9654J0048R23o086j0375p655L432J4817J8003J5973J6533J6922O959
14562A22762j1918k2859j3871O712K1014K1424J3102K208q889j5677j0802N547K0016J7958L15j7358k3708k3418
14544H2558k6581l2069k9152j3928M325J5058J7962J8980K0334J9930J7755J6951J8111J6460O839r209k2740k5100
14526I6484j6485n232K112O533J0073Q636j812j4502j6636o412K824j025j4667k5425k5394j5274J16J4287K1000
14507A9201J9406J4805J0605L779o835j3344q513J78l418k2274l8850l4278r778J5380K3881J4312j480r113j060
14488b7396J7688L0963K4153N60j8540j6306o88M895r198k8052l3024k3369j0724r37Q206J6234J8483J4444Q952N573
14468a8083N435R832J6123J4986J887j2184j3485o221o267j5820k1166j6827j2998j3716p255J1319K5555J9786K345
14449c6754q162q581p836p600l291K127K046j6M405J2813J5326J1562R846J1229Q191j125j0291j6132k0861k3052
14429f6156j8469r799l997l92O596J3547J0286k813j2398r282K821J6182K5288K4715J4127N563J1032K1816J6119
14410D4786r804l4752m1056l3184k2596j2314m711o356j3752j0648P809K3986K4481K1292K8837L5221J9199j3795
14392B643l6221l4593j9488k218J6046L0374K9097J2005m072n623K595Q176O890L248K652N572M217j1933l8539n0576
14372g9748k9647O326K0455M761j1156m802R447Q223m486q837k492L15m031l884O463J9052K6727K9998K7614J4698
14352B4996n662k0727k3206j9463j9081k3987l0180l2092k3161j409K2442L1894K4000J2562P752L818n315j0010K049
14333h4780K3838L5196K9277J8896J5765J6997J5622J1590N236q871l0975m6378l9325j4557O374J1013Q498J3253
14315a3331K5068L1473K4496Q303p601j6695j7147j0072J800J5127K6366L0984K4265N670j7497l3020l2141j6049
14297B9999M525J6238J2307k881j8356k5816k3351j2447K512J1234L129j7528k9606j8781J025K921j6929l3032k4279
14278a39116L87J8527K3707K5011K5598J8687L727q173q387n74O346O852p62j3534k1152j3643M487J6348J3105L878
14258c8681Q98M384Q889J4867K3923K9820K6066J8152J6613K0357J8603Q722L55J36L206L273J230r26n787j3778
14238A40322j8015j3699p761j0711k1001k5673j7609n741m426j5496k5061j9201m22J4584J3684J883o603m321N603
14219a9664J6870K3923K1424R119l167n290k525j0138k8437l5990j7081J3986K8665J9105M489M410J8049L0825L0917
14200I9490J6272o063k3260k5583j5227k113Q909J8756K2086P877k0477l7430k1814J3558L3497K1823k505j4083
14182G3713j1770j1086j6748j7891q276K796L083q340k2814l0269k2855p9K4002K7949O359k0327k8785j9308q189k44
14162h9079J3690L2529L8024K0175n485j7924j7481j9501k7636k8187j0980J5287L1733K7934J0630k915q89J1415
14144a8660J8450J4196Q735J1113J4659Q941m51K284J8753L0814K2644r97k2025k7234j6271J285J2436R590k545
14125H5717j1202q952p52K502n511k1970l6637l8334k4137k805J3537J9929J8482J2305N292L281O907O690m575j7202
14105B565j4989K77R134K595m707L085K0024K8094K1147Q600J258L203J3181K4614K7255J7223L486k340l46k64p675
14084A55420j8823k7088k8479k2339j2417o105p691j3223j5350j1146k310Q084J5024J2728K123o937o824j568N78
14065A3657j100k791n768j3373k1511k2440j7042j3769j5252j4618n905R080K4327L3139K9527J4640P87m04O622P878
14045E684J387n04P543J3986Q161l823r180m836N045J9290L7040N0700N1825M0736K2812N53k2048l3665k6770j1897
14025A52039p931j8076k7510k6272k1620k2913k5922k0526o503O842J2066P946k867j3292j3484j999P080j954k5009
14006d9905l9831l1475p986J3288K6707L8168M9172N1376L8250J5175n744j7851k3897k9141l3429l1612k1218p169
13988f7122L730J1299K0141K9354L1214K3461J5402J4586J3552K50k1862l6818l8981l8819m1958l7187j5257J1765
13970a23250K3588J7764Q697L938k965j4198j7196q40K6244M2802L7573J8657J675o056q763j3201j9804k3851k3124
13951g2310j9779j4015k066J5377K8561K9609K3875K1743K2263J5635R91j0684j3465j3771j6043j3889l935L050k843
13932b1696j2465q593Q803K2362K1566J3527P751L309l313q156n337L780J3369J9588J8809O135j5797l0933k3176
13913I533L455K5327K2176m213l4183m8052l9429j6825M193J3042J1024O068K027l318j0270j3228p558L454J1950
13894f4827J3546R924O047O966J3875K0484J7318M018o141m43J6210K5279J6168k440j4812j5938j3013j2835j3182
13875F204p352N549J7071J7044M554j0167j5572q900M113J6154K2307K0286J1427M11r093j6992k2735k2868j6832
13856e391j0299o366J333J7794L3719L5273K3873J2333K459j6419m3353n8474m8728k5784p362N347J8387K6067J8935
13837b6656L218m896p21P809J6326K5808L1004K3672P812l186n895r437j7151k0238j3513m387r07j445q39K584R139
13816A8101J7442K0332J2438L178Q103K3552K5555J542l1427m9739n0912m6067l7413j9796K120J5196J5507J2628
13798e9660J5943K5172L3762L4791K5351J1173L330M100J405j4270l2654l4543j7121L351J3493J5315J4600Q643p160
13779D5021k7070l7350l0034j0585Q041J7272J8767J9343K1873K3397K1453J7962J5725J4791J3751J0953L938p190
13761A40058j5643j4478q494j0183k0692k5822j7101n292l770r185j0365o684l509J718J1459J2940p773l7795m5687
13742g6298k2266O291J3879N066n77J340J078l941n277K263J4659K5443K9665K3782J0311J15J469Q576R567M245L614
13721E3004J1078J5325P283m587m626Q143J7592J0528p906k1952k2890j4211l288M637N078m000j5476j5861j525
13702A6346J3043J1483l163j2983j0188o446j3644k5143k4559q528Q113J0148j081j1010q608L852J7135K6199L0883
13683A1849K8277J3097j0875k7657k5320j0804J99M249R579J6518J4189J582l463J1528L0657K6826j260k5312k3292
13664D0567n066N256J485k567J907O691K862l115Q84J2913J7951P972q489j8735j9549j4906p976j617j145q970j8810
13643a2457k1229j3575n10J2414K1286K3118J7856Q753k739j7791l1623l1526j2062J3191K5187K0640J0112Q00n235
13624D610m94K1700M9194N7699M1654K2573J8572K0467R188j5830l9174n1129n2444m3629k4699m018N840K915k673
13605B0322l529l139o960j2149j0327K250J9827L1400K8952J2719r674k7043k8602j1021J3399K2393P979q873j264
13586C6660K6808M2472K6007o255k8272l5835l8867l7844k6815j1139l264m098m108j37L524P710J6323K3174J6884
13567B928m31j4382j8907k0110j8270m667J7519K7254J2378j1092j9513j2059p153j4580k4633k3093o030K0058M3828
13548g0955N3823M5222K4923O635m04L213J0623J3998Q248n407j8591k1707j2525J806J1261J1026M173k202l535j148
13528E8477M30j498o174j1283j4462j3781q971j892N711J3680K1077K4648K2558J7432J2338O312k072r885j4366
13509I8279j8923k6864l1499k2890m993N176n78j0803j1394m015J001J999M423O230j312j6890k5265j6143R67Q228
13489f5266J219q590j0918p348l265K143J1430J9788J9277J0819L430P15k429o745l098J1746K2768J2861j2337k8831
13469c2631k3788q716p96k611o136o891n371j62J1025K4834L3302L1977K3806J5566J2579J5206J8217J4900L527
13450A17837j1399k4403l2601l3521k4304o591J0726J7562J1317j662j1895j3458p244Q99O218Q997J1104J0976O584
13431C5142J719K461O600L678j1264k9744l9265l5869k4214j0768j427n66o074q740k628O231P705K307R21R080J8090
13410g6625J5569J374j1298j0348K623J5032J6492P141n292j2280q381N065J6530J1163j1811l3312l4863k1109j1160
13391a45490j0133m235J3437K8514K5895J2430O853J4799K6372L3706L7766L8398K9545P839k0442m3222n0365l9236
13373c7569j7835o96M235L641Q123J5741J4769K989n716R63J6122K0804O318j6588l0546k8021j3298O291K4661L3996
13353H384K6373L658j9100k7112k0762j1488n946k244M96N4j76P854K2562K9699K0562N017j069N171J4558J9699
13333G6190J9873J6809J3353J3137J5494J4305O974n35l201n535j3833k5118l0757k6567j3909K387J1473J576k2918
13314D9198l8624k9044n379J0500J4453J5988J5038L942j1098j2775J423J5856K2106K7635L3939K7243J958k4023
13296A18336l1585k5465k3291k9068l1398k2011l448J7973L6233M4877M1029K9320J6108K312j2727k3636k2016o779
13278G4764J2336K1696J4195l865j6389j3200k480j131j2347k1814j8721j0268q802j2862j0177M172K0127K2804P353
13259D5391j4940k5367j6273J92P364N243O956J6253K2828K1901K2385K8887L0506J7869j167j3980k0123k3743k0521
13240H9661p556K422n322k3506k9258j4049P345J8242J6842R596Q06o129o637m7Q657J5406K0508K3112J7378j083
13220A36388k5840m0207l0946l804J8068J7364K149o412l596m343j5321k1869j1881M004R647O500L335l731k0632
13201H873l4920k9253r982Q16q09J104J0848J3707M975L14O894P671j0318l1072l1254j3372J213L749M445J1403
13181h4968J9143J8812Q809n984j8569k3392k0713j6633j5347j3682o328O444J8825K4274J9580Q994M264J2946K5376
13162c8149K2444m59k6466l8285l6004k7829j3962R582L7518N6594N8557M5340K4197L209j1683j9833k3405k0373
13144I93o952J0291J4775m18k1109k8503k0576q969j354L169N816N953N657Q734J5696K4305L2152L5161K8930J5631
13124A19382L093o922k0042l3544l2207j0961J0372J0456m028r317J119J2066J3348J0929R493K856j1944k5719k9340
13105I090k3844j3132K509J9749K9073K5267J4651P427Q362J6112K3710J9210l098k9117l4086j0905J9946L3993
13087A14917K7349J3045L063J126M624N589m103k2101l5823l8038l4578l1589k4835r791O319J2905J0668Q057P748
13068A4552O085K484O4j023l077n631o967p756p270p03J2023J9625J1341p184j9527j8619j2300r591j0301r124k901
13047e5800O870J3922J1456J709l001L605J0047K752j0760r472J0365K7834K4710N994j2410k2340k1565p774J2517
13028a1341J9748K331k3219k8600q593J4622K2119J8218J5577J4707Q454j884p160m637j567l503o507m053L404R679
13008B7795J1105R515P373L489m298j3060j4344k518J6112K5617J5175q951k9134l3739k5189j1354L982J8181K4517
12989B0274J8567P210K523O781J1244R534L448m773j5056k2130j8090p921r052k5835l7307k4311J427J2812M972k258
12969f7941L474J3299J7090J6726J4376O908m05O460K6038L4539J7506p018j3352l135L104j391o409p521r931j2081
12949C0336o568J857n56j2474j5782l202J0517J1873N591o83j1282k8626l8567k6566q21J6543J7457J3474J5058
12930b2421J7573R895j0461l2508l9550k4524m24J0179N26j2105r261N839J7076J8753J7385J5334P835l564q269j005
12910d3697J0633J6382J3683N718l576j0020j0842p976m925o08P773J6991K1284K3125L0279L9929L6464J0886k5034
12891A26469n0065n3953m2236k6354j4228p167j349O199J2430J2542Q532O832P257K929o704j2470r454n020o373q641
12871f0824l306Q267J8116K2851K3376J8728Q914m04m579p183j2297j4857q882k74J325J83Q935K5141K9371J1645
12851F4246j3746k7265k6311j9360q566Q457K4828K6797J1573p036j4337r965m352m761q507p551L055J9530K9940
12832C6669K2937J18k1195k3268q532J89j4431m1223n1028l0086N325K9711L4328K6607J3270l838j8716k1427j0426
12813g5016M098J2503J4430J2615O374k758n448O076K4343L0768J6033q776k4915k5859j9067j0565K175J8061K3370
12794a558P285j7340k4003o038J4407J7388J0439J1037J7264J3803m15j0871j1668j1406j3008o686J0920K7033L0335
12775E6918K4847J8626J1532K440m252q330j6740k6420j8998J1986M1153L8452R157j3324j1168J321N020m46n951
12756A15823r118j2577j6893k2204k8317k8679j4114J1996L1831L2879K1233R198p98j1570j9545j9607j6804k1105
12738A629l1387l4478k0912N463L3404N2371N5121M1341K1468R246O538J904j1579k4156k2129p545L987K786p231
12719G5841j9811l3581m3861l8711j3253J7831L2640K4992P189p169j3599j2155m385L593N826O950J6826L1328L1433
12700F7924Q845j9231l0947k5299j5415o625K974P124l698k2043k6510j0307P797Q615k899p129M139K0538K7627
12681a4520K0666N763o570q923j548R683J9503K5623K6087J8585M003j1960k1933k1375j2017k478j419o929p886l88
12661A1967M719r98p095J514J9046K4133R566j0205k2504k9217l1698k2307j067J5542J5305P385O786J3112J7288
12642B1272J7842J6466Q264p117j3950Q64K3410K7175R733m983k350M412k682k0960l3653l1115j7298k227N616M092
12622B811j511m815m989k886M816J8795K8933K5540J5886J4399J7448O346k1021m1133l6602k0002j3549j8965k2098
12603e2597j6763q433j381K904j87j1809k1348j8267q500n077o159J029J5387J9813Q538n59R649L1398M3331L7229
12583A8198K2128P575n110j6088k1815j9254j0060J406J1077J5692J3265M673o038j3729j5581j3942j4606j9639
12565f1848k3032j8240r196o498j0671q242R285L0079L5285K3009P716k436j4199l1910m4057l5919r072J9896L6081
12546a13969L5285K1286K976p802m566O391J2707J0213M892J194m014j3758k3690k6038j7454j480J3143J7014Q836O2
12526g8772L652J6838K3238J4639J076n403o340p872o267M480J6699J5924L047m094N763K3070L1127K5460J4510O966
12506I7741L832M59o420j3249j2806n100m54n387j0186p73J9396L1296K4290N754j4273l3448m7550m6107k7798q831
12486d9614m686j1824j7508j8587j8751j5741o123K816J625l776P71J3630J7576P351K57J0912K8827L2728J8553Q49
12466a0715r291j5181k3160l0895l1826k5507j7469j0267j16J5544L0902L6973L3044K7486K5803K3700J5314K570
12448C6909r186j9640l0063l5178k8315j3954n430q300j4225j3884q069k418J346L815L833K079L568R789J2299K601
12428a12423j2534j4689L759K7389L4758K5412K1191L6972N7817N5342K4853p052j6211q969n999r854o936L613N585
12409A02024n644j1473J262J6957J3334m425j1280M48J1132L042j7129l1124l2053k6291k0663j6213j0808k165R167
12390c1902J7164J5330P267N379J3484J7342J923k5524m0552k9913m900J5407K3202J8946J367k6794m8715m4666
12372a16155j5285J7597L6176M2004M2535L5833J8604p58j0786j2914j5372j5446l359J7245K9682K8120K4168K3131
12354A25020J1061k1542n6383o4685m1385p074J9500L5184M1232L6223K4368J6843J7870J8713J1213j041j0789j8495
12336A35833k8194l7620m0452l5606k7412j7967n486R129J8497J4164l755k2113k2651M06L0325M1806K8020Q143L938
12317D9005J4730K2162J4749j497j4714j9022j3172K469K1450L0128J8884o793l0992m1656l6638j8964O084K8184
12299B4397L3952J7960r632l0208l1484j4646R765K9293L5172K6649J1320k037j1641k0267k5136j7621K683K0249
12281D8768J8838K468p933j5J6516K5603K5150K3589K2101J2335p574k5426k8752j9365q014L19P923J3905J1382k908
12261A28910k2527l7504m2294l6031k0660k003J2219J9726K5086L0276K9047J6143k940j8418k7760l2041k5520k057
12243h348K8377M3607L4145J2625o294k2249l7308m1686k6534k937Q895O232L368N522K114q970r381J3651M1610
12224C6439M2726J2223k1522l2590k5005j8594j9642j8039q365Q73K301K719J2634K8612L5872K7166J0664j356l434
12205F3682M516J9356L0254K1872p870l8296m4842k6030k822P392O000J797l868j4293k7253l5218l3117k1166k867
12186a02773J5258K4414J9746O302m829p072k892K142O257J0166J1359M760q929j9356j5775O95J8572K9221L2909
12167B0175L1371K2655P713n385j0877j3682k0604k7742k5778j5038m975N06O923J6806K3214J9810J0544N037Q220
12148D8893J6543K0975J4158m90q477k26J4101J5110o27j7001k1721k0447k2096k2791j5005m188l441j4011k1614
12129d2355j3929L986J4492O780r281j1869O814K8056K8503J0659j666K511Q528J773j1513j9110k2335k6678k6035
12110g2669j3215L109R514R238J4506K2151J6633k714j6137r451Q693K0484J8738Q828j51k965k963q368j7781j5871
12090c0391M857K5169K0051n400k2302j9803j5924k1289j8780O412L8489N1651M3163K7457J1564l496r088O6Q891o28
12070I0669j9430k2217o377N034J437m68J1026K0127R263j0961j6678m478P955P926j908j4394k3184k0356m720Q175
12050A6441K6k4520m0927l6552k4098j7943j3287K91J8374K9756L5290M1715M2512K4407p120k7858k6301j8960k5124
12031e3878l9542m2546k8437j0079N57L826N542R676J8754L2496M3930M3972L2065J6836N210l150r130q923l8J1672
12011B8813J6149R659j592q516q588p634j1772j8409j8016n799J1398K1798J9644Q110m478r138k687N995K151j5949
11991A1139k9783k0840N674K6617K7804J5161P07j0784j9074k2550j9654j0456N058K4611L9724M1695L2140K0014
11973A17203Q034q709k9356m2713m0033k5058q839j050n936j7080j6883N445L3637L7666J2584j2056j0345Q040J6635
11954B1186Q498k920r241j4261j9552k0088j4531p078J274J2853K5103L1558L0072K2564J0040l584q030J505J3172
11935G8540J1598j129j0644j2739j4757j6708j0148J450N14j8400l6291l3845j5377J617R548J1810J0273N153K063
11916c7472O907J5959K0411J8683J6098J4934J2661Q204K791l273p976m992P919K0357J8660L423j1278j6178j4686
11897G1152j1479m640O042J2810R720J924k723n815j3709k4893l1614l1708k9195k4300j3789j463L703K836P786
11878g9355K0698K6656J7141P969J7457L5256L3327O245j9926k3004j0656l268o489j1789j2593q234J79P813P184o05
11858D006m069Q23J531j0446k0142o713K5095M8077M5718K7348J0700L547L943N548r7j6127l2963l7174k7672j4023
11838F910j031J2624K2233J8954N668l796m180l488n540m119J075M95n328n10J9399L2648K0065m918j4487n405Q80
11817H8149q019k2651l2160l7344l9196l2176j6980o438q650j3766q071M928Q936q32q189N025L5808O1510O3398
11798C3282M3710J8112k475j6553k3004j8428n960K715M93n867n760O55M393N82p162j3456j6502j7823k0195k3620
11778g2863k1414o221J5897K5493J2535p538j2242j885L309n281j2713n172Q667J1999N448M205J3185J9001R766o897
11758b2721j2150K055K5070M0204L9989K8248J2404k033j1872j6635j9125k1756k1919j5396n071j55l563o457j291
11739a2174M754j831k0287l2366k2632L210K3610K2284K882j4845j3164O374K3420J9730o31j6175j2984J720J3347
11720b5758J9483K7630L7454L6955J9913j569r940l724K229k882j4147k1562k3032k1412j6882j0998j1950k4270
11702d4462l6356l1035q899J1368J8045J8716K2926K6487K2095J3574P560O28j0865j5453J251L0851M6128L3939R297
11683A15795q248j7250k4308k5009j1056R099J4321j057j6237r767J1328J9557K522k1386k7563j5448l809j284L555
11664f245K0175L7959L9077K0990m271k7185m4863n1003l6376l890K7381M0773L9093L6355L6532K8986N718k3923
11646A35283m0771l5890j8681n355l669j0125j6680j6488p918J306j222j5860k3784q630J7529K5982J0977j111R735
11627e372K8236K8646J3576O578J3552J5061j976k4735l2803k1861k820J2069J6514J1872O373O682Q551K926q517
11608G2552j3619p404P17R71m774r372j0332q739n898n617j2443k2911k5496j4446K597J5369K2513K7040K7277J9854
11588D7839P402l922j2277j9889k6519k7846k0169n113R228J2531K189j0731j1329J204J1349N725j1573k5336k5765
11569a03002j4817o67R157J1094N813m135j5970k4592k2779q792R172K2850L4486M8091N4379L9400R106j0753n411
11550C2630J1867K0792J8854J5229J1894M171p141j6554k2520k5176j9913l251J7747L0475K8980J5505m842k3896
11532H4851l1145k4125j4339j4299k2142k6275k0578p554P702J7812J3807l387j7237j3127K101R768M934l82L198
11513e0417J3043K3679L1741L1646J9607L359n084p784j8237l7320m6374l0946J78K6496L6307K9568J1257q799j7497
11494D423j0077L435R599N171m882j6105k4663k4580j2974M356J7704K1319J4175o93j3572j2547J836J2533N023
11475b0519j3965k4978j9112m215Q421J3697J1137L984k93K527O085K704j904L838J4842J1103j1143k6496j2524
11456e6811J6946K8684J4178k910l178N022N514j13o0N718O596j4m788j363M900M880l488j2595r996J0714L9044
11435D6880N2577L9971J3924o583j9292l1834l9806l0819q869N708M336m84L78j536j2228j9599j1902L051J1979
11416d148J6160K1499K0984N828j5055k5491k4994k3337j9777q088L818K518n228Q09K0829L1560K0361P75j1324
11397G699j5336j2884r0J6409J7866K289n311J0767K8369J7247j5398l3345j9315P586K0684J2298r354l1925m3062
11378d4806l6383j9212o300k892j213N597J4138J6996J1498J015o893l934J0981K7309L2164K3503Q909n943j9937
11359D597k9529k8947j8809o692K728J1276J9424K2097J5786M816k807l279L50J022n795j5330j6096m457P099M480
11339c8066p539j0330K203J3669O396j6218l4750l5008j9046j90Q357M323r92M111J4503J3164l088j4718n514J3389
11319a05344J9371J0488M175O830N150p616j6123n679J2806J5815j434k0846k5449j4583L646K1625L1231K5538Q036
11300c2363o909q441J97Q287Q972R95j3221k5417k4168p753R834J3969P513N265J2315J8211J4013N147K371P060
11280d123J1897J1999Q500K653o830j8670k5816k1923j0261j713j385r66R895K6412L1725K0090P416J0364K1765
11261G1029J9333l061k6245l1496k4136k3914l8982n7720o2977m7073j4729K1137M5179M7578L1384J1212J566M797
11243g7118J1331J2245R717J2230K1176K7983K5851J7727Q738k342j6811k6625k1282k725J5308K2491J9002R121k602
11224F3415r062n240K696K711n883j0127j950J0441J4354O810p853k4998l7576l5956j8672K244J3752J4584J0352
11205a5958L666l421m805J858P765L384p111j1109m687M369R156J1033J4427K0294K4693K0893O084j1047j5713n336
11185D8435M668P15j0895j5177j0158n028k682J056L914j055j0060j0338K36R823J2323J5021K0262J5205q091l3750
11165B4424l8094j9453J362Q235M852J413j671j0082k2147k7597j9224k37K0913L7873M5893L9580J8453o740k1676
11146C6077k4086k4141k6877k3527o480J5512K6244K1007Q448j343j845J0756L1515M3657L4623J3875K112L978N490
11127A44995j052o268k606J890k076r504j0974q465r430j2161r884n688j0215k4065l3574k7865j2538j072K911Q383
11107b9258K1771L4906L3155J3913r502k3787k7781k4559j1316J1671K8598K1056n533k3085j3593J0756K5873K3341
11089E6626J2091J648o003j1900j5495j4211n702O332R716l996k3906k7905j0828P452R092J340K156J3064J9418
11070A8989J1102r067l1851m4893l5882o655J9761K0896K309r750j438J7053L1467L7930L4905J8950k923j1418K378
11051F1863K1541K1981Q31k3371l4044l0485k1499j4314r818l318R096K1753K1480L764j8410k9734l1386l3729l3991
11032a21790j6958J8530M8754N0774K9648R280K824M220M724L567J562k765o433j861J1121K1506K0396J0148l969
11013H3278k1012l6330l7691k0992j398M178m88M96J0227J8440K1469K4281K3876J0653j0651k0956j3745l781j790
10994B8064O92J1271K0704K0388J8039J9803J4212n889k1124j0782J0734J1086j1248k4857j2985N939J2262J1946
10976I8255J5905J5625j236k5386l5096k3724l793J0770J4292O205j0054k6707l7593m1894l7857k0640O476K7170
10958f9282K9184K0265J5507J3656J67k6508m5790l7469n001K8887M4505L8931K2047M957o777j1665q584J231R180
10939A7441K999k0021m7077o1825n9703m7552l1973j4881J244J1479J3713J1194P934M587K82l313j021J1896L2490
10920a72107M7599M4474K6654J2729J3971J9873J4094j264r282l170O514J0761J3704J9704K1663J1652o066k2247
10902D9256l4976m4024m0829j9133P558J5931L160p048M940K9407M0998K8963M376j6095k2965j4456L423J6757J3721
10883A8964j797j3307j0991j816K126j261n289n616l925k584p89M201J4274K7136L3784K3687k397k7817l5349k6794
10863a5560k0119k5649l2845k5513l960J5990K3488K3096K3163K2428J4789K762k792K638R727O415p250j9592k0857
10844b9641j2858n792p829j6762k0524q575J4701L1434K9165J4548K322m996j5798k9110k9793j0534J2579J7692M847
10825f4924n561m82J0528J0256m091j8817j9940p134P955J5060J5775J9443K8829L3999K4215L357j2008j0778N67
10806B6249N923k660j7491k5203k1634j4021q823k792R194K1943K4440J5541N400r6n113j0636q433L404J0990L090
10786I272j0488j3424q134q990j5203j1114N330J4992N235j1947j8985j5694j1683p308M344K2620L8086M3002L5434
10767D5345J7567k748j3910j1834n027k132m45N504J1310R751N120P214J3116Q615j0280k8949l1418j7635M1J0007
10747I212P433n412j9493k4863k1008j7784k2242k8827k7451j7761q851n938l778M398J6113K1881J6542L930r592
10728a33491k0962k7303k3281r114J842n159k4122k8509j517M0675O5403N9161L6882J8297P785N34l119J468J2837
10709c1693K2010K1214R864p045k2449k9500k4905j2159O51Q551J4086K1729K8781K6286J1228o429j3966j0662n772
10690a80l339J681J0468J4408Q522J420J938K730r960l2926m6042l7484j7507l293M42P48M544J3505K5038L2542
10670c2745K8979J5077J48r279j6968k8295l8859l8659k5301o653Q815J8848K4850K7301K5051J6749L186j0297j5530
10651e3582q643N674J9160K7154K8541K2522J0755J38l107j504k131m394Q6J2522J9788R178j3791l0422l1076k4706
10631a7838k3587k5575j8492N10J8496K2221J3508L804j789o949j2612j3381q205m853p257o557N576K0119J9659L340
10611c9862r177j750J9880L7575L9648K5361J8k5940l9165l4427k1139j2179r103m916K454Q208J0001J0143Q887L984
10591c1499k715o182o296p162q107m111L836Q623R045J1384J5770J3006R80p820m069M036N349M608J2137K1826J6965
10570D9604l262j9426j7025l504L761l371j9721l2801k9998q447J8402L0882K2430L902j0425j3639n410Q066J3574
10551a6408L307j0780q920P748J6624O907m795j824P734Q318K994L089L932o692k2264k2449k951J9497L2270L7547
10531E2884L5971K0141q667l4215m4583m4736m2540l5293j9200m30J3517K4574L6844M6291M6364L6856J9818n171
10513I8425l2877m8238m1652k2625p373J602J2185K3925K7015J9440J1727J1510J3438Q813j855j0072q811J629J3762
10494F9968J7902J0376k607j1439j2221p276m04M133K183m502o746P10R923R860J659o049j2677k3007l1263k5028
10474a6505q123k089j6591l2981k8690o317J3929K1203J9881J5866J1850J1940J7146J8606Q093o938j1534m324L356
10455G778P313J2866J7034P596j3901k5949j4358Q125K0463J8989J2535M315n835j0720m843J653m108j4286q636
10436A6031J3427K8120J9486p20j3076j5392j6448j6533q445P236K0508K5044K4313K4039K4539K1707J2420j371
10418A64885j2925j6621j4395j3748j8556k5067k7028k0553m419J7668L4061L2485J4174n860j5821j7096j4352o329
10400E0503O081J2500N372o570r350m487n661j5683k0222q050J2925K5500K2263R660k261r025j2733j7714k4954
10381H094k9661k4921q304J4586L2312L4816K2833J0190J0843K1899K6592J6935L881j176m266j6540l2123l3554
10363E2436j6399N901K0583K4593J5691p956l4407m0920k0654M994J1544J58r667q970p171j2727j8779j2627O828
10344d7549K6418L2432K4265J3447J0271J4406J9288K0427J5109M8k1864l6194k9919r792L395P46n430j070J2259
10325D0693K4138K8466K3748J0741k752m690M917R510k620k0811k6734j9201j1994j2559j6297j9120k2430k5749
10307d2744k5506k1671j6149n847J1796K6852K3517K325j5660j2907M547J7265J5553N350l876q629r716p732k231
10288f5463P307K0784L5802M5621M1310J9941q070k4018j8141n74R438L996r468k2173l1812l5617k8453j3946n887
10269g9423r168r574N125K2620K0418j242j7305r411J4695L5440M2275L6405K3963J2116M275m154j8637l3424l5942
10250i48k4526j0971l007L975J3539J9418J7255J3339J2492Q183l821j1792k629J5398J9747K062k3605m0584m4404
10231d0879l6490j7276Q147K7943L4819L2676K6100J1374j3080l3939l3553j3105O042P247m039j2197j1903q583m705
10212g5401L057J3449J7620R860m977j7677k2999j9730r048L531J0124Q721M997L133J336k7N247J7914K6998K4464
10192E92J8405J9192J9213K529k7224m5719l7923j5189J802M543l560j6019k4045j8692n08J9279L1757L6201L0414
10173d952Q987k0501l3527j5203J6939L0784J5663j1363l0065l3798k4541o659J1413K0542K0601K0115K4314K9415
10155A8164K9401K2651J1472N28m885m347m153p865q765l92R345O931n032r236L49Q281N26j5070k1444j5981r235
10134A243o090j879L970L584o157j5140j0706P319K6568L4366K6772Q615j0291j9304j3175J906J0670J903j9444
10115B4730l5889l4533j8721k123N817O650Q124J5532K6093K9970J9402r13j6063j6723q869l793l619l489l443p739
10095a9599j3364j0308L773J7727J9813J0220k328j0105r495j167Q732J3042J2701J5472K2373K2945R675r458j9839
10076F0810j6955q319l353p094j8700k9468k7760j3055M13J922o07N877J7928K1751J6182J2081R686l450k6881l9102
10056d8094k6316m407K270o429j0539l25J3331J6850Q474n658j8284k1924j2540M809K0062K8261K9323J9966l566
10037a4736l3465n1507m7115k7190m620J5087L0986L8305L1035J0676j2667k6752k3917o250J3343K0441J3051K058
10019g3237l903o807r070m638J0901K7943L1351J8659Q56j2275j8199j6042o980m1m531j3596q368J4829L3279K5086
9999a4783l86j3041l05J8995K1483P745l345j021O788P412j292j2366k0292k4994k7673k7345k2012j1083L082J4503
9979i9930J6336P592l825q714o382k400K108J1326K3634K8610K0561P839J498N39k762p251l511J0699K5322K9413
9959E0702J9708k026l0249n1929n2278l0668m146J0954J5391J9846K7728L3083L1734K5518J6150L010j0961j8143
9941E3424j5550j1328j5749k5946k6234p904J5565K1409N551j1715j2199k461j249j2020k0868j8282q746J279J0395
9922h2628J4516O918p780j3447m882K465l961j3216r117J349j692j6309j7204O278L0694K9163P723m658M387J7963
9902e3438J7555P848N412J2321J4399M523n799m384K032k152j5844j9437j647K2832K9809J3838o917j1574K720K0015
9882C2112K3188J2722O460J7385L5362L9237K4697P638j119r237k4597l8479l8485k7011j3977k81J7040L0181K6891
9863A19727Q639j1033k3659k8966k5207j1981j102p763k8381m1606l4716j6142J074J4093K3333K4687J7704J1707
9845i592J4253J9458J5578N15j5440j9785q373J0679K3156K2888J8390J9739K2899J7149M920o5M772N655n680j9011
9825A22105k1413j4096o094j951k850r345j5482j1124J504M846j0222k8041k7351q265J1759K0954J9662J0623k690
9806C2529j1916j1255p101r188j4643j2078P17J4488K2263K4167J9683P532n604p317N633K1890K7511J8396R89j3894
9786A02802j8756j5982j4555j6008j0187P041K0115J1932r255j8192p271M964L343l942k874M530P714N252K018k957
9766D9732j2384j9943j7366r934j1578k3537l0166k0225k515O461M100K671J0854K2226K4588J6137P934J0469K0662
9747B8186K4327J2008q760j9416j0717N056P318o836j7302o861J4695K2955J2091J435O184J6104J2669l557j5666
9728G3913j4655p359j908J506K910k981j7803l1041k8012o791J6006J8804l685l3509m6831l7782j9930n335P250
9709a37233J9591K2575R155r289j3280J281K1412L5372M0431L5376K0062L163l594j744m111j3282j5337j064J8203
9690B7687K4334J3720k784j4517j7908j3933o521j375q48o40N869K0790L8607M7479L6618Q666j7499k4623j6955
9671A06167j3402k1680l0242k6688j2082N619J9861K3080R567j2116k1760j1793J069k199j8402k9521k6103j2081
9653g2706O686K5802L7383L3324J4447r342k6751l0574k1282r361p211j4006j6604r715l205k293M606K5079M3497
9634c2226M1055K5181J7418J8069P186j9189l8622l5107k1086j5334j5856r107N432J5505J5114R876N699L478N060
9615a7454J4136K7531L2846K1645K671n809J01J143k0918n3936o4445l9150k349J6847J9763K5302L4339K9844Q831
9596C0938q958q092N524J9466K9099L0949J9502J74j0118o194m162j5851k8301k4521j2259j2092k3791k5694o656
9577e1037K0418L9294M7291M5918L0997L189k1612k5336r002P187M735j6301l9399m6036k9697o20K2379K7716J9817
9558B9901J1155P002J840r013j9792k0511r266P580K4955M0204M4740K7090q716l7802l9049j9346k064K948L333K528
9538C7717n871j9091k0680m884J0814J0095J371J932R502P389q030k3013k7848k6236k2686j5165k999R914K1854
9519f5915L2221L3027J5334j1991k3785o706K3919M2266L8307J9990m10j2901j1670j709J925p507j5268k416K5692
9500G2403M1211K6581m987k6426k5956j3059j508M294N846J490j2262l0385l7119k1075Q239K6817K2342P528K110
9481D6084Q304J2906Q849K157k340q990j9742k5356j7201j806N455j117j2459j6473r066M789J5005J2909M21p863
9461e534J528K4171M0669L7451J8968k079j9755l5971n1472o1249n8332m0456j4582N504J0387N369N378J7673L3452
9442h8880L8081K5059j076k8601m2491l2988p418J2051R804p143j9062j4132O011L2802N3175N2986L1512Q554K893
9423C1137O089n973l4979n2387l6419q20K4067K6558J7710R910O026N571Q096R692M916o253j7821k3352j9525q183
9403e5940J766N36r058j0944L862K2415K4926R993o236j3061j5058j8855k2285k0793j5539r413p07J3581L0064L8669
9383e2077L1653J3904K360R231K4514K3884m90k6485k9117j2427l86k441o240l376k179r215j5280r628M369J7409
9363d2017K7448L5223L6550K9876K3371K3052K0857O885j1641j7037m586J2787K2409K2122J2099j0032l9622n9938
9345H7806n5898l0324j008J7076K2276J9610R517j0943l5652m6082k9045M169K6647K6135J6040J1786R087l006j8074
9326B0117j8881m885M404l785j9991k8784k7483k1187j0543M778J7074J6104K232j2752j7024p536Q981J9684J4770
9307f4707j492j2294o072J0784K4062K9663L3382L6563L2291J6716m404k2926l5986m4255m7701m5130l4541j4406
9289a50453J0499K6514K3176Q732L744J5879L0982L4615L1459L3274L6874K8838Q824p219r132n112p623j7174k6612
9270G0085l3467l9832m4233m1270k9105j3578m736q676j9302j9386K796L6248N4899M6276K4204Q178L46p989j6600
9251c5142j7411j1103p796j1010j3653j1766j0436j2995j5314j4741j4045j1502J773K6361M5622M3090K3797Q211
9233c8060P392J3071J1708O39j1065j3062m149N400L624q343j4245r2K8703N2250N6710M5091K9264J7041Q156j199
9213A88834j2164k1037k3499k0881j9405k2417k7000k9285k7891k0287l585J5839K1944P662j1504j3399M239K3709
9195I873L1028K6714J4020p041k8494l2693j3684R178J1851n211k0677k2068j8075j9567k2262j6769p189p124j8162
9176a36352k3844j0599J2114K1023O673j6098k6356j8214o61J5824K5296K4509J5080O455P604J4411J3224l82j3497
9157h3790j0823P439K6971L4672K8223J3547j801j2644j6927j4347n651N301J1148P482m55k809K082N287l54j0763
9137a8212j6348j2051J451K0708L8424M4112L2934J2716k818p108m058j021k352p405j0231l632J1520K3176K0291
9118A20096O876k548j484J468m271j7597k9007l2659l0001k4126j6686j0930j2299k1440k8627k1080J231K1128K1241
9099h0715M675p335J53J9357L0473K3241L555j5889k4648j7993l98J4177J3133j042j2998j2645o212o222j4722k1369
9079a13424j7000m805L389K54r456j4707r820J383J1653J6632J5371R881O057R120J4688J1187k556r370N977L2731
9059d2815M3429K6969o21j9849k7254k5530j0951J5206L4040K6985L715n794R898K8224K3088j651k0278j9277j0242
9040B7292r797j8329k3216j6665l860N324P977R310J3196J4632M948j4792k9965k6741r357K596l939k0939l0327
9021a22652k5711j6955j4354j5706j2187j606R842J6904K0286K1430J7196M072j3386k2600j4679M439J8027J5883
9003a31757N062J88N685J3631J7830K0737K3179J7560O23j3962q691J3535L1284L2789K9374L4155L9067K5310q149
8984A47450l9029m5177k5235N006K8728L7468L1136J4929m215k0516k9275k6506j3242k8o02j7010l4861l8283k7612
8965e6874j6981j5245j5536o512J1015K4249K4342J6734J3482J8830K6324K8462K4051J4928J052j5846k6797k1955
8947B7723m777O981J8j8668l1260l1176k6061j9583l724K3632M5172M2088J9909Q89p814k0530m3107n5641l8761m239
8927a38929J8462J9658J5520J9200K4944K4153J9592J5561Q243l395q428J278J4430J2462m570j7261j2592P77O282r7
8907A5290q185p723N25O211k96j7788l3734l5163k0513j14J3939J7067J2864P090J330p485k0605l2477l5970l0938
8887a76675k1230m315K5244N8618P1827N2364J8046k635k370N336J1547J9265K7135K5117J1281k721r313j4004j9787
8868G2730j7254j338J4211J2408m641k0744k5850j9875m491J4238K0862N137j9409k7127j1799P282J2675P669L518
8849A8202K222K54j752k809p040j5737k0321j3451k800k738j3368j8361o533J2259J8311N886j0005j1615Q44J1262
8829e7290R334K501J905M327r83j1381j1562K260J3547Q692k910l300Q310J7317J5950J0394P676Q029J0171J2944
8809D5931J0905o98j4842j7504o570M091L351m210q799r116r033r095q905j0846j3517q017J0022K9449L4164K2070
8789C8831N411n017p933o554m670o583j2553j5143q239J758L279k607l155N784J2752Q586l65m588o739j3884k1438
8768d3067j7641k269J0542R950O60n360l477P13n2n879q822j086J4519K4755K0121O771p31K662Q157P278K959K241
8746B2944L643p30j1331j6421m859J8953L7337L7463K4278J2707R146N926m766j7584k0233j0373K37o94j3260k7811
8726D4572l5953l6097l0498k0282m393J6473L4877L8387K0794q415l0144l2724j9387J085K4039M5157N4195M2476
8708A04162J6254o069j3015j0487r619r908j629J6503L0396K5723O261q983p435L136N139q044k6957l9800m3679
8689B1949m0144k7733o831J2324J6812P321j593j015O88q136k3502l0129k1194l654J4985L3520M7684M6019K3880
8670F1251n378k2718k3074j4612l397R647J8981J6728Q241J1292L1004M6493L4644O39k8330l6283l1499k6635k1414
8651B5580j1464j884r17o384r254q163j0542j9281k7169k7305k1844j6188r767J639J6806K7746K7548J6290l31j4385
8631f9269j8033p946R622K1922K1952J5631J3392J6817J8418J2961K934p276j5669j9418j4756m418J375k525p577
8612c1863k534J1039K2268K7005L0554L4760L2809K0108K471j0880j6962j8447j8830k1212k6526k9774k3521q724
8594b8259L776O691N115O159O136k987j7503k2212q420J4815L0138K9207J8625J0439Q808P498J042n771n413j970
8574E5914p615k2920l2365k5579j1857m408j099O128J1831M411j1707j9291j2997l588K801J0792J8598J5692N461
8555b1798R332L4772N7211N1558K7601J3471J4369J1245m181j7888j9252j6112j7084j7121j0774n731j1783k5566
8537E2269l5949l6901k7152o004K0387L6022L0192J1746j764n451p341j0985j1088o701n923j3403k3082k8308l0238
8518i9674l0484k3999p648J0439J9888K2744K8658L7155L6599K3444J1008J1980J9820J6752l378k8752m4293m4585
8500d4326l2665j4811P95P608P182P431J1514J3725J0068O535J0775K0505K7805L1421L5565L7399K6522J090k2907
8481A41231k5108j636L0811N0053M5911K5072J713j6091l0207m2893m8030l7666j5453M221J2101J2131J1285R097
8463A26542K400n789r031n798L02N532P110M061J866R552K4274K5978J97l7618n5661m3899k3322j4283j3130q735
8443i452m666q828j3074l491J3965J8402M949q539r709p938j3466j7556q173O317O966p166j6780q623R460K1504
8423e5898K0432R915p56j375J0145K0734J4208n989j6615l360J9996K9332J9041L441m483m521k251j226k452m408
8403D3910l600l71j543j0890k0641k1173j6350j8391k7998l1198j8964M4J1100J0185M399J470L133N126J459p648
8383i7941j2343l245J5980L3215M3109M7657M3609K4128m102k1246j8534q393l192L50N387J113j8212l4103k4634
8364c1397L597K4319K6252J8334N958j3377l0836k8252n735J4194J7914J6310K0234K1096R723k983j816Q139R645
8345H1319j798j6077k4884k6150j7903k003R699O189p210j4503q058O762K1609K9525K3473K478k1922l5018l3583
8326b8055k4168j1733O69O878M722L962J3862K6121K4298P848q273j6253k0920k2819j5099j420K244p896j3553M94
8306g9091K4839L9634L8215K6022Q445p213q815N945J9235J2914o520j7754j5018j1648j4333j2312K179J7627J7601
8287C9952L120r562j0706q156j4876k9768l5905k0454O324J9283P887r990j0328P065K0493J5387L78p340l348K210
8267c8334p78j0787j6472q878P513J7877J3831M037L043J2122J8349J2063k205j3120j3832l724J3788L0402L4721
8248E9616K1146k882k1103k1115m547J3726J8540R534R87L139Q351L413q176q730O885J9947J1294j2736k8132k2845
8228D6312q499k758r005j6836j7344j2530r522q816k084J6207L7422M4085K7758j955k7440l8147l4258k0815l445
8209d1670J1870J9849J8353R480j351q126q614n961l287J891J2726K3258K1458M892j3738k1082j6851q163K264J4080
8189A1278K1264J7299O966K826Q686J5170J4010Q890P758J0118P828l332j7178k2999j7176q168p536j5016j6931l961
8169A9796J3557J5795k304k5174l5775l2263k2981j3770n990r97N57R20J577K37l965n352K508J7332K8726K6992R233
8148a1341j8390l9683l6092n974K5918L0022N777j6298j1104J1977K4382J4919r49n975k042j272n464m144Q130K0719
8128a6884J7461m150k8616l8075k9960j7312j3377j8872k3855j8702k630J5509K3706J7352M960L82P669J7473K0078
8109h7843J6424J2617J0427J0335J7739L4873M9236M3122J6545j0857k3830k6022k6168k2831j1970J281J0345J8685
8091C2108L0663L7070K4795j503k1860k5282j8633j1057l439L921O816N312M571K592j0401l4005n1791n2128m2736
8072a24987l4075k0624O010L4416M2910K9643J5727J5919K0809J3759n469k1403k1330p455O467Q046k164j1617j0082
8053f5500m14P838J0522Q367K43j2828k0490j2196P078K2058K7954L2771L7856L2720J5699L715J0142K4966K9859
8034A60360K3412J6610J0543l948k6062m1233m0806l2652k7458k4881j9155r937p55P381J4050J5392Q564j984q334
8015A9107p871l597K743J1610J9273J6905L52k2473l8203m0782l4194k4374j4010n455j667m39O568K2953L9456M3646
7995a0452L5379K4823J6519N030j1846k5489k7271j9667j0534k345N791J0185N460n923j4490j5228j2928j4446j8915
7976h6347j8170o726R514J6708Q017o867j2278n402L119P329J3528K5309L3104K7998J6422Q862J568j5194l4448
7957a3954l5687j3192J3615K4103J9344J4146J5392J7060J2001J047q168p840K616J3598J2374m919k9567m7801m9631
7938f5463l3305p481J2299J6374J0354O094N750L096k167l605j626m093j0727j1133l500m06p804j2758l653J0246
7918a03508J3510Q009N663O215P10p492m496J1245K4825K6103K0454J5506J1075O298L727J174q606k4332l2922k5815
7898e2657r176P046J9418K4628J5948l379j4294l716J4219J3582q301k5166j3685J9188M5094M4047K1250j997j0647
7879H1402r113j2090k3086k7710j2629J4072K9998K4805J0705M650P870Q598O94p646m823Q835K0080J6974J730j2399
7859A20917j5659j0485o207q988j8090k8503l4673l3577k6071j4580m15J3622K0124J3885K372L36R824J4548J166
7840d54k1768l5299l3843k6287j8255o922P616J9145K5171K8318K6005J1423j1178k4964k1433j1873r422r839j235
7821a15094J4863K5583K6207K4508K5454K2780R221j1882k8545l0067j4890P065K0313J6852L464o950q728l615P773
7802a5688K4992L9200L6893J6621n876j4527r715l785n052j2260k1270k9472l2683k3785N6K8349M0218K2717j2401
7783B2532l6189l1635j0810K694K805K538J0405J9167J9759J3239L982o880j4493q700J0362K4850J9359J602q911
7764C5676o581r44K388N878P244j48j1551j1714K415J3815Q428n511j0916n236P95J440J474N901J3528K0241K2197
7743H8819J6995O913j288m662q829j8529k7302k4419j0075M512J1533J3393J5141J7818K0425K1406J6669L369j1855
7724A30034j5876m916Q242Q306m911j8036k0612j4735r409j0100j4740j7215j3877p543m772q368j3565j2879l747
7705d8719R934K2403K9900L0380K2263N807j4185k8585k9147j5281M171J7209J7845R888K389J130L567J966p538
7686C5397j9408k4417k0640j5076j3235j1977o074K321N968J774p080j5640j8227q449J3393L3673L5286J6134r106
7667b5383k6471l3604l2027k0144k79J6807K3286K3785K5287K4053J3238j297n577K493R434M773o288j2192q752P77
7647b8081J2644K4363L3516L8658L8845L0899J1784j4181l5479m3797m0655l2394k4107k0157k2768k5345j5190R357
7629a02088L1010L2713K0514J5959K7183L9797L7876K1745M72k1084l9030m4037l1050j1342k525o835j0112l467N059
7610c9242M689k350o646n709l300O22R182J9604K4903K5327K8530L5743L7142K7010J5561J6439K6235K6578P476
7591B47794j9433l4055k9135j4747m816l433m072N16R508J5471J3516O192j738r507j7458k1111j5094l163K754l304
7571A14685j3182j4737o809j14n320k2937m2399m8804l4583q512J0488J3329J0569J6218K6703K6282J1512k888o057
7552B3444o346j6018k9689k9632r260J8469L5069L1225R594j7913l5199l3047j7536k324P080J4616K1169K1804J6905
7533B411J4088J4451Q927m412j1478j858J2594J2872m44j1162j3685j7352k4915k5538j4284k200J294K060P560J2001
7513c9070P836K360Q140K2007K7986J9617O634j290n896j2227j8103j6683n574R171J6376Q530q802j8919j1544L176
7493f275N534q976k3297j9072K985K5488L2325K1891O273n18M372J1040J0196N130N183R895Q314m834k0054k3887
7473D1713j3772Q27Q466N169k382k218J0482K6112L0279K0067M735q618k0805l0359k8415j0961J0239J7242M929
7454F2730j3863k0985r112J1844K3113J4961l503j5692j6042j0113J9J7182L4701L6395J8815M24k033M343K017j0725
7434A24476k1508k5700l0299l7358l8294k7326j0082L894R947Q654L927O79j062p158j8494k4358j6265l443j797
7415a11567j0422j3785o729j116m161o164K880J7500K6333K6897K2182J2373P9m393N312J9618K3471J5748Q161O530
7395B8747L461q580k4802l2656k5735j0739j130l882j2541j5427j0462p527j4548k6195k9771j8760K925K6632M4820
7376a36170N3562N3260M6488L4046J5027q600l0666m4804m7043l5743j4627N092J3444J3642J6613K2344J8288J351
7358b4496j1307l839J5129K3813J6090N630L426M363j789j5583k7642k7704j2542J0606K8385L2600K6307J6756P090
7339F5293p22j917L330L796r841k8250l1181j2016J4884L0945K7914P397k1507m2225m0847k1088n59J0105J4708
7320c1781J7147J3759N566L658J1813J5198m31k5618l6972k6279p245M860Q001P322N673M042L714M248M253N922
7300a3150J3237K3697K7514J8708L013q402r907l274P274J6653J7622M945j6463l1816k9281j1415R345K4868L5670
7281G8838M1636L6753J8469l696j6960j9913k0347k0475j4372j226R399J0044M594k68m817j0583j2305n460K760O37
7261G2708j1060j8799j3768j221R345J5254J8196J7295J0670J161m640l205K505O555N975K838L43k732j1296k6124
7241G0000l9513m2214l2740j5809N639K9214M4083L4601Q82l1176l2857n933J8101J6454K373M225K3932L2079P221
7222H8562l3886n5167m2579j5048K524M585J311L55n29n881j2879j0930O976L1528M1579K8221R691J1451L2892M6499
7202A29275L1876k111l2766m7462m5446k9987j0413j317o504j0908o79J5833K0342J0687q50r641k0458k8665j9983
7183e9177O294L0353L5263K4998J3376P520Q399J5047J9716R772j5324l6911l6431j5888Q258K4058K8666K1803O317
7164I6109q173j2146o045K118N489j54j7051l9036m9948l8821j4282M884J1088J1267J2155J3045J2274J0105M032
7145c090q788k2047k2732p096J2985K3684K3220J8479J3950R348M145r61n495q301o355K275J4359K2298J9946Q121
7125H7945n419j2212r712j107R698J8497J7474O37k2899l0299r491K2762L7405K4641o46k0533k8304k4135j3264
7106D1038j0208k7277n2479n5439k5623R899J9822O671m566m546m552q409l989J2322K3164J3502o772j5315m780
7087i7537J2006J8766R115j2100l1982l6482k1971p8J3261J2460L527m744n987K312J4974J9680R927l974n503O804
7067i7526J8278J9678J8705K4550L0791K3413P36k4404m0361m5722m3434l4858k2082r474N81R409J7659K3455K6701
7048a03905L0398L5011L6407L2621K7584K3458J4319m902k5670l1090j5783O241J6991J2800L461k407n070q126j1815
7029C0523j4251j5431j6240j4752p289N756J7780K1663J6800Q720K330k606q982j6624k0057j2835M233J9500J9666
7010A7904N601n394P07J5679J8838N443o080J79J5848K1690J4706Q699J0917J2331L647j0645k0150k2505k2887k4791
6990C9737k7753l1104l4146l3704k6198j2499J574R493Q448J764k009M379J8216K6723J8830l372k6479l7686l3027
6971a38813j6389M654K0787K2980Q361j3867k5701j4960J1763L4360L9229L0495J9367R010k908j2009r554K110Q078
6952b3007N01q898l841J4150K7029K2489P507j400L266J3542J6086O667o254j2500j2494j5397k6091l8599m3310
6933h0554l6423k1426n707L021J843l731n070j07P105J5401K6681L6252L4174K1019J1017J1848J1987q93j8089k0757
6913a2409p313N386O950M826Q307J3803J1335k007j9428l0576k9051j8059p671k021O520K3435L8570L8335K6220
6894E5152J6001P715j0291l4274m2291k6600q461p650j4688j0141L034O822j550q155o992n359n464n18P982P778k909
6873h0859p556O104K7763L8059L0887J3381o816k2956k4790o725K0116L4947K9077J3827M862M668L862m658j7616
6854E5577k6494k7128k2815j9148j7348j3642m674P075J3588P936p795k1577k2008j0964j505k55K571J8599M0855
6835d9152M8489L2746P913p554j1264j1958j2985j0944o421n337j0008j6742k1655k1514j0624J2595L5301L8274
6817b0840J9361j221n934p78j433o994k387J5260K8544K2640M642p186n203M753J6404K9124M1805M8386M1382J6987
6797B37312k2066o4374r1635q9029n7484j4262J9966L4927L4026K7724K4137K3961K3309K0476J7419J4095O495n647
6779A39350j3806j0366p92K708n25J689J3431J9434M962j9676k8508j4537j482j3274m1116n3084l3640m90K0260
6760b9462K2865J7716R762l652j7937k1711j4617r340j0371o010R369K0554J3950K158O358K1723K3023L421j5367
6741B2432j5950o749j859J124R551J6910J1516m408j7662j9830j0163Q672K6334K5619K243k2450k3698m025J2528
6722A0135J2446K483r660k4453l7451l6233j9444m808p487j9838k2557r295Q747J8029J4963O508M381J5303L1777
6703f6454L6478K1425n51r302K75J5506K3103K1316J4391L362j1837k5211k7741j9404j2185j6038k5141k4839j1216
6684a14063M355J1265J1034Q578K287q595j4957q081N505J1626Q774Q711J7412K7849L3372L5787L6210K9037J0917
6665A17023j1988l0438l9209l5788k1232n781l080j2862j8595r181N638R353J12j0905j5821j4614p511O424K3621
6646g4834L5978L6841K4139J354k0463k7113j4485N656J8213J9257J3609M897m074o743R27J2092J6117J2672J0274
6627F4314J2241J3315J0379P352O881M345n830k1345l2300l0145j7666r896j9429l8002m0511j4431K2008M1036L8688
6608h996L3892L7411L7690K0618j0005l7584m8790l9540j4714J0969J9306M669j8822l0957k3637l519J7497K9311
6590b5201K6329J0613p850j7744j4015Q44J9729L4350L9753L7362L0772J8850j218k3535l4553k9255j9689k0404
6572B5138k9584l1859j8237L238J6779J4453K395n553o96J1724J7677R909m163j2225j0801m937J340O768P027k829
6552d436j7570k2354j0484N492Q745K63m396P2oj5033l2401l1156j0986P731J2604J3613K3923L8914M3006K8915J635
6531C6091k9334n2469n6204l9859j8404o019L81J0212J8607J3007k502q372K616J6164J9429J5763J0056j476j5401
6512h7714j3083J3650M1906M2791J9347n27l941l765r651j1153J971K0047K5969J6655J698j1154j8571j5982j235
6493G258J6869K3027J0935r767k2846j9535m650P417L373j7748m1556m8239k8387R383M5140O1615N3410K6824n073
6474F7450k7182k8282r416J3393K0918Q650j0054k0070j9079j3803q247j827N149J1073J5685J7206J0334n363j8353
6455H182j6315l700K345n271j5128j4406m040Q115J9284K9337L3806K7991J3972k556j7777k6913k3037o730R410
6436A6569J5263J6566K3112K9677K3195N914n784o801r730k0623k6641j8989j1604k0035l2753k4001Q727L9112M4419
6417D5593K6500r12k7175m0591k8169O066L4316L2449Q909p105k160J0420J3891P236j846r986j7608k3785k8169
6398b126l2438l4952k9538j4664J406J0359J4066J8375K0572J2351m514j4474n114J6807L1991L0126J9968J6474
6380E4675K2377K7040K1775R226m807k0858l9374m9820l8898j1563P707J675j9158l0697k3700q452M604J5667K5540
6361e7041K7373J6087j221j2879j7079k0384k3367j7524M54J9189K3965J3530o06q352o986L991K2346L5903K9054
6342B6453M114j4976j1082L360O424J204R446L2278M1469J7998k1291m8326n7406n7298m5517j4629K2525L9115K8025
6323c8114R572J374j518r480j7770j4455J278J9301L0632L1602K2001O498o246j1275j0639o996q86L210j754j2721
6303f386j5849o410J446m317j3027o938R292J2781n008k7119l5481l0985k3640j6192o360M340J3250K1568K9147
6284a05888K9960K0130N368o598j5802k4489k7332j7805j783O801M964N348J8521L8453N0015M5030K7038N691q365
6265D9257p696O295K2550K9152K2646P735q597j9603j9902j0318O9K694K49L143J4513K4336K1447P753k970L09J3925
6244A56987K1702R592j9792m7614n5858m3410k3242o787L522Q635R020Q234J1216J4221M740k0726m5095m6861k5554
6225h7070j737P764N863N588J3330K4976L1806K6120O492j7261k8361j8084M170J9421J7195K694j2548k2933l0205
6206e2780l5502l4548k2958m019J3320K4488L2206L7872L7024K8931K3898L1201M2679L9580J6205j3381l3644m1505
6188H9067l9002k5314m393R957Q404o57l368j098o420k0689k9369k2480q493k372o773j0896m242J2375K7245K7566
6168a0952J1197j0734k4950k7698k2083q958R722K1050R397j9951l7857k2637J2725L5375L0231J1847J014J930N477
6149c5855M755O43k781j463Q289K6804M6542N3505L7329K635l0570m2073k9258p802O043R337O952L15j0085j6497
6129B6765j0361K940P433k240j3168j2339k248Q062J6694K3005J7275p773l8007m6920k6944J133J4618J2982Q687
6110b0406N754m57q320q474K404J5940K2346J9815J2223L654k577m258k535m87J842O708J1271O737j0158k8426l2411
6089i815j9983n944n438j7483k6915k0548L02K1254K6910J3463p647j9080j2957K508J2207Q732l244j4263j7878
6070i5819j2697k342N655N534k74m322m422n023o513j442J2865K5090K2246O948o850j2247j3643j4629j2943q070
6050a22898l574k41L469L731m659j5139j3614L86J0480P050k03o31J986K838Q480K0939K4961J0577m206L807K6759
6029c9702L7426L0894K6023K7213J6475j0127k9279k7107k1808l1284m1688l1015o770M920k933j3915j4563m424
6011a31664J3960L5002M4567L4167J7395J3526J8749J4113j302r037l399O92k671J224J8513K9403J6575p425j9677
5992H2711j9599k2279k9547k8984j7224m476L317J0030J6009J4327L393q779j6042j9645k0131j4027j458J2182K4435
5973c5787L6147M2285L4289J5736K609R52l185k0616l7079k9959j266K2282K1536L319j4439k2185j9876j1748o704
5954b3689j3234k6222k8181j2752K279k448j9052k1717k667J7928K1749J6349J9590L1256L3890J8091n359j9228
5936a3417j6556j707J6973L0910L3057K2493O906l240l776J021M455L848J371P37L417O581M404n891j7855j8980m642
5915E0109J2475J3058o906l0124l6777k4323m888J0673J8769J8229J0378L406O014J4150J3291k008j9071k3082j5325
5896H048r202j3284k4348l2834k9019q013K3907M9924N5879M2285K0230o24j5511k1790k0792j9530k2295k2718j2133
5877e1820N789J7800J7933J2838J0318J1998J8090K8576L6135K8497M396k0355k9330k1831p319Q590K3615L0655
5859A24575K2570M950o218k849N940O201l792j2376q217P118J9370J4292q241l2972m3889l8701k6344j3496j046O514
5839A3389r93k4774m7262m7689k6543m656L031K747O619J3026J2475O759Q475K1083L1626K8091J4831M394O42k069
5819A3202o926j0105p916k692m67n443j6052k4434k2277j0288P33K221j727j421L311K552q591k0913k0729n096J5601
5798a27457K8269K7947J9293R840K850l722j2712k3564l1783l1337j9439j580J0876J3000J3688K3108L4817L1751
5780c6155J1843n981p748l375q705j9779j9957o398O147N685n882j9968k6848j6236J3177M4270N5261M4357K8545
5761C2253J8039P579m875q846O58J0165L910j5672l2564l5057k2319q83J7931K3706J6816Q144N656P833J2073J9448
5741F3995K7360K8617K3029J8605J5707L319k0879m0552m2127l3772l0327l0637k4835j4761j0557j2805j3441r863
5723a03924m430M717J7830K3990J3229n723j5487j3511r247l123J0793K3815J8677K6n388J2201K8198J8640n762
5704E521j6820o635R100J6035J2529K273p686m665J7691M4344M9894K8497J929o777J368Q211K920r085j7895j9976
5684A10773j6203p494K190M181n978j9990k5086k0337j6060j6370j3570l956L205J183j125O046J4834J1776J703J383
5664A1105J1874J6958J0572N934J1358J5795Q768r93k96O479M510r067k2838k7561k4321j8163j1868n025N155J8958
5644G334K7775J9925k128j9310j8311q293n794j0814r993J832J6516K6340K9840K4877R411q920j6253j0225m282r409
5624D0118k0464k7158l0051l5434l8816k6452L515L1289L5351J8453M034O011J2775P553n105o356P196J6648O971
5605G8j3495k6789k7568k2699j7187j1059m887J485J2005K7328L8255L5452K3297J4915J4857J5456J0136K113j373
5586G0320K435J0096J4597J0175j989j4569k3182l0782l9549m4641m1616l3500k3212o255J9369M2774N1684M8918
5568A1073M4591L7145J8107p140k0989j7360p751j664K605M444l506j8918k5160j3292M222J1193O985o16q366j2362
5548C241l213J9407L7708L6100K2254J3566J0894K327j3284k4606k7056k6733k5830k0146j1842r460j3323j4513r638
5529e4147k896O807K3799L8306L0873K529j7812q987J3864K1199P305j0353k0484k6109k6933j5019P415K2799J9301
5510A1457O150j04L627Q289Q585Q042J0052J1886Q982Q02q775j4169j1224r50Q728Q510j499q200K090K5547L9636
5489A17462K5514r472l7515l9410k2265o334j476k765m254p550j6067k7188l2879k6096p531J1300J4910l9j7072
5470h8727j5794M321K3361K5311J4691O381P489J4693K2067K4544J8839P644j465o765j5538k8794l1096r609K0708
5451g739K8200M093k4458k8795j3410m280j1258j7275m241K3130M3599M2290K2885J401p956k724Q227J3782R702k24
5431G4949r672j4535j3689q177n62O247J0301J0693O945r90j1804k1603k4039j4634J837J0786R63k0516l2199k0781
5411g0480M579K3963K8211K3675J9288J6011R518j597j1920j2772j531J1324R528r791k8591k6724n844J3557J7882
5392H286J4044J5861K5652L3749L0294J3215j0899l0255l6612l3931l3826l9275l8509k0690O892K4296K0193K085
5374d9430j3614j6432p064O929J8254K4709K8033K8408K2392Q049j0238k4350k8078j9375j514J4713J5755m47j7576
5355b0876j6203M263K5576L2182K4257Q585j2248l4189m3904k9551R87K3143K1709P561K841J3183K2160J3624p639
5336C5461k2345j9590o545L707O499N234L563L292N698Q342L530j2451k9387l0590j2072J2369K7298L0154K6933
5317C9100K1528J5735J3512J6247J6521N818j1023j7640o036J1406J5295K332j0555o733Q702J2605r480m3814o0893
5298A2627m6650j4840J2202K5779K8800K2483Q152k954J875J6476J8340k475k8507l6615k4569p137M872R870P216
5279D945j890p991j829J0814J5193R092N281J0281J5168J3033J1502J7757K2802J3698n906k1053k6791l0514l5231
5260A8361l4674k6152j5106l634J2842L1566L7267K1159k949j3176o417P78l135j0830r929m48Q366J2139J3426J2126
5240D1580L778r786j6238o672R635J3274j091j6352j3746L650J5535J0154k974p161J901J4629K0375J6458O928k480
5220H1397q016j0183j2999j9202k5935k7235k1478j4566j3590j7025j3783M354K9017L8980K2245q077k6072k0891
5202f3059o181n27n808r297j475J4900L0760L9209L8419L1108K2307J5335J0226O951O610O695J5j5348k8742k8045
5182F4053j6941j1499j8035k4487j8756o774l850j3364k3287k2305j1512J20N407L326r36J90P678J1189O36j6439
5162i5586j8307M605L4664M6598L6363J9907P151p864k8152m0245l0455o091J1939J4519J0760J0388J1755J0197P870
5143A6R211J3248J6082J6476J4633J0142N107L813M350l435k3964m4210m4897k2791N407K1264K0996J4110J1596
5124B7154J6135J9840J2402n132j7773j3302J952J1563J0215O899Q466J1222J0160N917k09q197j3077p124P036J5138
5104I9285Q456o358j8734k5047k3112r068J0925J8587O077r139o438Q665J2871k970k6238m2622m6493l3623l192
5085h8168K9715M1158K5052J113q841j734J2331K3175K2885P976j3115k4185j9099o985L443J2914K0354J7134J791
5066E6914j1444r611K501J1865J3461P981n450k2578l0217k2425j1960j2128j5766p396J0893K2475J9966R531m367
5047B245k0792l1384k6004r613L124R849J9291K8255K1331j382j7597j3348j612R64j382K498O625l016k2639l1958
5027h6545k0406J046J4667J3725N477K498J0059J8680J3605m815j7318q827J1400K1023J1015o997j5459n517J8372
5008b4317M0669M5620L3346K0825K0081K2201J2134p804k2318k6322k8586l3030l1775k0538p947k996k119M434J8835
4989A0393L3572L9601L3313J8169J530j1438j9804k1411j1222Q012J9165P351j7567k8319j3384Q978J5137L401j0882
4970F4595j7652j8619j6875j1618k424Q923K0469K8378K5590R419j0697k0786j7995j1524p620l059L013J005j5846
4951F677l6133m0263k4941o286L239Q163J4269J3123l606k2818k1686R5J7933J6296P543Q243J3655J0377J745J255
4931c3120O968K692j4860k7897k1599k825J1591J5089J3408J3555J6775J8442J2363o13q755j548J4427K1088J1469
4912D6650l517j3296j9743k5099k0895p44K3890L3650K3791O840l913m103M983J6996J8052l363l9170o3768o0060
4893h2819l7188j6416n491M115J8196L0019L1893K6407K0070J3405N805L549J1196J8133Q578j3602k5405j5516N84
4874d487N245K575L686L045r460k2505j4756R877K3448J3606j690o038p585j7563k6057j7013N703K4008K8338K0974
4854A3351N914j0111j4674l028J1182J2243L602j138j929r735k3265k6415j1076J2162K9330L6612L5423K5777J0081
4835I4306n295j7271k8662m0468m7585m5107l3946j8397k565R666J5785J7247J8101K1084K6744L3249L4440K3462
4817E4788L402j1760j3674j0531j2895j5931q200P183J5030R443j915j3954k8364l9807l4787j1222J3772K3212J7589
4798e8621P384j270o631o555j694K896M948P466J0553R234L806K561Q318J2091P373J020R33K124l598j1213q892K259
4776a5508P449k090j7966k4842j5698M047K2492K9914K4575J1338m167j7071k0864j1546L734J0785N726j19J974M986
4756b851n66r264q804M68O897N312M97n666j7082l1307l6399k4918l471J5233K3794K1750J3044N152N100J3108K3367
4735f606L0859L2699K4849O673j0956j3189r76O846k084j6472j8219r481r907k8244m9121n1668l2285l569K1930
4716a28921L8333M0642K4021o449l2254l6341k1364o866o817j4956j5043n87K0235L5472L9329L3492K4914K1877
4698H717K5945K7419J4907r154k8524l1256k1939j2506o924j017O856J2735J3846J2013R314N324L75k385n80L539
4678B6705M241l145j7645l0322k8626q393J7708K8927J6830n926j8967j3185M637K0622K3576J1819l257m483J2585
4659C3701L0949L0630J4612N873J6770L2118K8528K265k9170m6863m4429k7456q197R81l798j5468k5077k9868k9346
4640f3245k0649n528M464N14r632j1543m421J447N026J5146K8326K4613m069l5170l8940j3090J8033L3414L2393
4621d2911K4739J6684R205K143l587m944J771J5254K6590K6510J4536j758j4626k0569j9826j5262r893l464N097
4602E689J0451L267j4978k6670j6428R015K7878K8161J7058P105K201j312o810j3282j5682r868k21J660p890j5434
4582a6090o280J3317K2311J3653K947L914Q960L774r392j5913j0230O21J2638K9398M7535N1014K9703l054k2418
4563A56408k0406j2857j6399k7612l1197k2638j3399j4378k2765k7678k2904j0901J367P519O502M772R807J9325
4545c7434K2172J3257J860K27Q806J7871J8805Q352j1872l1784l4824j5098J0240J7739O535j787O027J7378J2987
4526B9457p195k6514l3609l2036k9850k7716j9262j48K4478M1278L9004J8664o906k2788k0321J72K8758M8464M5988
4507D9918K3501k948j8421k0358j5842j2076j0300o026M461J5555J3971n606k9999m0311l2407j6297N84J6649K5108
4488f0844J6770k452j2775n996M775P807Q993J4909J7058R517P190K4340M4552L7505L319k4482k3512p660q63o053
4468E2098j1705j3145j3140j1418o381o90M310J2833K4585K8303J5937l227j3656j3843j4042j7862j8714j2817l177
4449a5751R752K8605M6749TJ9011k2836n0901m6532j5413J6732K4641O133j5269j6085J10R767J978q902o832L558
4429A5264P526K368l386o417j0816j6189j6068r205l157m964j4857k8617l8984l6244j7142O376J7021J2862R242
4410a35387J7219K9315L1113J9286L123n931k607Q174J2990K912j2922j6065m093M750j800j2238j0494o4N677O573
4390f0469J0348J1227l670k6749l1558r114J6302J8785L991k797P903K0854J8695J093j8618k7413k2186j0451j910
4371a05737K955J3038L2137M8883M7619K7582M745o085n982o920j5150k2451j5102Q226K9877K8941M702k0481k4844
4352B5953r824N304P680K584J139M273L999l144j0841j2309r254p460o961l143K858K899n440j1600m216J3160K5303
4331A0960K2347P698q591j7640j5014m558J302o735k1607k5826j2001R562K4623K8225K2826J2964N855Q191J6176
4312E8757J5811n99k3905l9519m3159l9124k9396j3225N967K1143K7746K4582J2443k299p453L120J9593K6076J9245
4293C5804R511M585Q95p009j7002k3641k5532k3036j2824P750L1208M1927L1845J0968l041m835m557j0116j4906r693
4273A8301J88O98r637j5888o367J3141K8003K9665J8769J285j3709j8860j5613j1850j0691q161l122o67k823n269
4253a2607o396r130j0374j613J4064J9854R555l3O747K0832K3689J4343M367l665j2947j5521r38K1532L1213K5821
4233A18793K1864K4734K1014M796j0917j7356k3647l6190m3067l3529j8030j2746j5175j0948K965J6759K3455K2571
4215C5346J3893J793N93J8832L9629L4504R00k9695k9663r264q09j6290l5507l5998k0395p012l510j991L677R556
4195c1411J2887J9030L0124L6613K9826J5980P048K879n635j8705k5891k2284j4972j1898j3972j8814k2416j6861
4177d8472K157K3789K9485J5086m718j5799j7224j2801m063L800K973l464k258Q879J5194Q782L120J0716K0380J3954
4157D9516m579j5939j5151j4091j6439j0811O192J7213M799k4098m3870l7847j4460M177O625J631J781L205q062
4138a10208l0232m1303k7607l249J0435J3156J8828L0156L8145M1151M4863M5294L1888R296l080J443P189J033r304
4119F7894j1659r818j4771k5496l1236k6842j5173K94J5235K1586J5392M553p85k758j0647k2732k4559p711J8479
4100f0754L7511M0938K9872R385j1528j9999r603Q865J5488L635j1816j3320k004O757M596l162j0618j8769k6818
4081c1344k7909k0590j4897j8216k3067j8370n025J0444K8742M9377N7090L7140K693j4370l804J1326R326l955j3550
4062A1041j9654k7151k7214j0016J3998K5804K4272K1812J9557Q859n067n496O285Q105p520j7519k877J9896K2162
4043E9277N373l416O833J7447J0464p287j8833k0870k1403k2353j7007k912J2001J7992J4059Q003O992R026N227q500
4023E0113k4682l1927k6435j1807P899K6607L1609J3811j5830l3452l0656k2736k1745j6783N626L4857M9066M6862
4005C0397M4443M3784K7706q421m1756m9706l6227j8716l307J1943K0721J3991j908q673J956K0740L5161M0554L6507
3986A59189K2510J286j9478l2084l3254k4394j1086r97J912K77k049m968q138o683K807J4873K0068J5153L455j1116
3966H7283k3847k7066j7062j682O955O700N428P807R178K762j2439k9823l6999k3986L101K1227J3719q026j6511o21
3946c3902K3837L4864K4410j388k9355m4350l8456j9240j816P508J1464R041l523j9117k3143j3819m082N00Q838
3927a11729K3277L0021K1845J3378J8469K6001J6195q088k4585k1460p859K547M463m70n576j824J0110J4446l4j9390
3907b0263j9674q30J2881Q709K598J1828K6802K4932M292j2266o761J1457J7804J745k2157l3101k8650k4274k9185
3888g4113l2102j7356J1144L1633K9292J1845k00N718K2948L1767J8914o055j8556p532J0818J5291P488M946J2779
3869E8669J8999J7428J7386K5546L3574L2022K4397J7627Q234j0746l4617m9420m7592l4246k0106j4023j9571l2195
3851h634m0210l3915j4807O008J7699J7439J1283Q710J3147J6794Q696j0900k8882l3688k6224j4316k517Q366J6798
3832h9153K1067K1826K0513J7405J3311J0050P824O010O979J3120J9307J6587O023l69K922O199R6r912j3532j1094
3812F5179q043k356Q674J5547O805j0508j7415j0478o052j3816k2292j7808l861P436J1913J1867P732J604J245R995
3792C5368J8842J8658J4345J5623J9164J3183k777j6117j9125j5819r936J46J0554R585n536j9760j7743l535O256
3773E1376L472o551j6059k0773j7464o510L690N159L682J2612L0409L6531J7460j2797k9104k6104k0045k2068k4883
3754c7967k0568j7384k6063l6614k5623J0643M4432M7256K4101M750M798J0138L311r570r431O588K0943J9460O734
3735A9934m985j1685j6240j8586j5390p711k902p663k0233k9129k1376L816L0101L8623K8387J5772J2648J4016J0936
3716A8333N150K649J662j182Q53J5724L4121L5119J3510j1377k0093j6015j5899k5053l1640k3645m221J1095R819
3697a090m657j5486r584Q268K2300K5473K5379K9377L2496K5079N951j7810l8857n1130m8890l2867j4789p154q422
3678g6413n568Q085K4397L1275K5738J3500J119p110q432l095L980O482K007p201j7268k3879k1848q452J0698K2822
3658b9163J9080L465j2792k4152l3077m0035l8979k6681j0041K069R363J5780J9667J7888J6105K2233K9620K1110
3640c8540m901k5307j8724P755K8465K9152J6273J673q867j2743r048l408n080j4609k1146j6701p519n189r639q153
3620a26256P141K6172L0638J6367J54K04J4026K3161J7997P949M729O193L706k842o680n520j874M326J3721K0582
3600E3894J7410N616o889j7319k7935l5625l2707j9720p307k322q93J917M765O370J0226J7277K0825J4985L411n082
3580H97n479J561J1322J5613Q172o664j6341j4245n424L768J2845K0230J9341Q373m915j5054k5551l5609l2632j1439
3560g1231R647J0062k538l758Q571J0982n731j7822m066J8438J4455k1315n6027n8272l0611J100J9129K6719L4670
3541a17598M3623M3414K8523Q786o67J654K793m875j2540r697j770l018j6250l0084l4722l0487k1165r416l22R81
3521a62837j202M480J9635L0852K7926J8851J7607K3522K3642J1991m518j7804k5364k4966j3599N130K1110K8438
3503a7106K9061K4182J1504n500j5894j5126j1785j3359j4097o535L122L723j544J810J8242L5820M1513L2518J2525
3484A13074j1643k8163k6967j2809k443n060j4206k1157k4895k4691j5825j205M486o253j8998j4503M587J6852R423
3465h0396r426k4036k6817j9193p471o89m768j4518j6380k995J7126K6913J7701r51r221K310K0872K5976J5074N183
3445h5706O902R952K333r511j2585q348n309L13J6376L2539K9425J0280j19P301J3228L676o719k87J4081J6175N435
3424C9432l637p059j1279j3854o033O912Q518l542j2864r238j749p20j422M912J4971J8889J4915R251N516K623Q40
3403E5382L113R966J6304J3916j811k4438l7287k8174m178J4987J9373J6492J4993J2186M357j689O38K843q418k8956
3383D9599l9581l1974j7843q234K002K0103L7414L8887K4708R019o57r486k0598k7919k8116k7259k8176k2071l554
3364h3736J4647J6193O047N037J8970K9302K0455K148o045k007O53m025p251j569Q464J4806J5555J1912L640o949
3344E6247j2224o681N594J5120J6041Q156n688j9238k3448j4224J215J0916J0710N449m33o303r163l464Q564J4505
3324E1651P080l639k611Q561J2735L7k0603l5062l8936l3858j9313J940J6922J3183m493j8094j7781j0599o229l259
3304a02368N301J8854K8142K5844J4589M405L099Q759J2785J1502J1465J9177K9099K8891J5366k037j3280j5796
3286A03797j1034k341K279m891j9744k8301k3870j3668m851N402J9495K9778K8614K0028J2242O183O65M85P301J0005
3266A37574j266j6439j6708k621N078o153k6300m0022m3995m1486l2291j6419R86J5740K8770L8281L5457J6078r184
3247B5080k4361k5138j9132j2024k193J0238J7211J1441j586p158J095J2327J2309K272m741m943q675k0299k6962
3228f5239j7725k685J489k731M26J2090J5263O57k0142l1589l0340k0104l699J3456K2822K2024J6777J0693K840l174
3208g8891m05P961J0416P143J2864L1865M5417L5396Q500j4429k2506j7545m240R132R716n890k2517k3077q652P173
3188a2569J5499J3752R15j5683j9164l828J2427J2650P639J7425L4140K8997m159l7080m4049l0183j5753j0172j0817
3169f0013j3294j2687m067J0186J9931J8090O293r573k0466j4078J2106L8031L7954J2501j2257k0079j9676j9335
3151e0433r484J5708L8411L7987K0251Q262J2027K3069L1606L2568K0252n543l0043l6010k5919j8378k2426k8565
3133A3340k6366j7481p433L707J6468K6246K8537K4463J6989O493o130j6188j8769j3266k795P722J1964N572p541
3114D5532j5351q678P898J8549J1663o968j8300j0406O465J0944j736j1183J767K5969K9549p06m0878n6842m1597
3095e4309j7007k963L478J5314L1765L6988K1480l916j9752j9242j2269j0124j2686j1950k852J2574K8206L7039
3077A9774L3371J6408p337k7355l6307l4218k6261j7041p227M278J5806K3114K4943K4868K4665J9590O112p891r004
3058D0288L997J5958J3352Q70n650O94J1414J5071R861J846m772j1268j9031k5193k6557k5270k5210k3174j1076R923
3038e3927K5514K5447J7895J6808K0303J5089O26p142mR625Q259J326K151J0215J4296J2795J6011K6910L1947J7499
3018B11643j0888l2616l4361k3407j6807k0390k4060j8712j0083q903j3304j2376n175k731q985j3071o214N619J3225
2999c1596J6944J8853J3068l964k1363k5078j6212o318K60O205P669l108k1135k9053j8306M69J1955J2233P205L504
2979g7768N350J3839K4672L0481K7977J9585P982n930j9207k6707k6335k0366j1346j022P845J3992K0748K9516L1440
2960D4746J5368j3376l1965k4056J029J9538J9962J2088J1188J9886K7950K6001J4761P68j2224k3485l0014k8176
2942D9989k1056j6465j4798p041R721K2457J6578m223k1034k0176l783J6788L0103K9254J5495k240j5448k1588j9210
2923B3323n144J6578L0900K7062J1925k172j5465l3385m8207m6036k9782j6783j2716n650J0870K6372L0747K7211
2905a0352K1384J2037J65o437n685n349o985o0J7766K8507J5830j1072k9045k8216j5385J064J5173J9127J0701J904
2885B5072N979J7518J8759M814j0692j5962j3818j0806n521N183J6188J8280R440l373j2491j5919j5948j4735j3104
2866a1136j2233j3020j2550m975R969K2397K2162J1737K801J532M945J0518J9173K7513K7669J8402P285p44p361
2847A24084j1277p200J255J107j0585j9919j7377j2728j8125k9133l5409l8389m2950m1750k5333j074J4928J9631
2829a50244K0587J7615N563q218r473l89J906p176j2177k600J1654J7700J8276K3175L1916L4273K3203K349j5358
2810B582j6389p88J3365Q664r609k0965j7394r743o552l213L987R623J1460J5454K0359J3236q496k4899j7902K913
2790c4307J4195J0553O511J1270J7254J3762n7j7059k8453k8201j8125p777l519o79P099J5419J5321Q522N387Q121
2770d763P128l180j4066j2686K577K1050L0774K7967J7737P490j41o855j1811j0448l079J493k619q141m449N363P639
2749D6980j680j0868r341r48N119Q434J4057K0120J8081N208j0166j7689j5154q282l799m639r463j4298j5344j1776
2729a5448n702J224R623J8756K2331J2329j0397l2277l7989k5343o101P739J4425J7993J8413J1399l178j8058k5886
2710d6147k6974k6772k6968k3178j3075l101k265r852j4706q343O330K2312L8104N3089N7966M1234P345k0775k3531
2691a9307n363J0630O633j3742l0826k8358r541N731K580j0779j2473M993K4376K5525R676n090o475K959J5139K3857
2671i855K3391J0747p385j7839j5591r055p241q468p541p552j4970k5472k5446j0242P466J3019P716M656R910J6046
2651g3706J4366N791l170q857j0336o098K909J0278J1052R976J5264K4144K3140O030j5763k6501k4788k1790k3866
2632i1925k5351j9485q780j78M933R530J1950N615r810k2908k1443o328J0304J9049J9169J2107j463j4889j5078L120
2612a41861K6824L7591L1325J8617Q236o07j0545k0540k9945l9369m4630l7878j8951J460J4639K3247L2194L6814
2594a13379K9252J3751N830J4155K9611L6179K9313J9134J5957J7119J1930k303j5531j8286j2991o366K881J8233
2576G4489L0464K2757n444l1652l5118k0482q849j1712k2836l1426l2525k4708p117J7197L9706N1499M8666L2591
2558H5500Q254j6154l0518k8123j2207M271R711O045N400J2170J4945K745j6771k5887k0249j1387p285m993m381
2539b8914j2623k7606l1617j2841J7134L7854M2910L8122K6960J0696m891j6414k9750m6784n2994l4511k142J9572
2521a07839K3856K3574K3802J5119k087r626J190J2408L866j7951l0028k2977p224M931J0108R867P623Q874J5446
2502c7068K0182J4807K136o627n679J388J0622K2310L4227L7286K3341m313l1156m2152l2488r937J1691K2147K0118
2483E0835J1640M180M11m166j5892l2670m1354l0881p469R381Q030l673j0195n733M374J3929K0049J9528R330o943
2463g289j8438j6818n353L979K152r296k1323k6026k1661j1455k55Q119J3441J9826L0538M0869M0328K5045M208r655
2443D0936j3314j1316o396J635J0196J5245J7355J8979J6827N926q666j4540r100m423j0470k1981k7635k4364j5937
2424d1043m067J1168K6384L7196M2060L8725K2374n659l2108m3125l8765k8955j8842p136L642O358j68q526j2224
2405e2711j0444k972J0061K1143J8755L995m838O904K9896M0646K9016P062r065j6509k1725k7025k8278k3654j8044
2386d7787j7123j9944j9551j0422N260J8310J9871R396m118r909n078M060J0065J1622J1545J0270N331k841q741p273
2366d7057J184J2875K4515L1787K7377P345j9589l5402k9901j1558K569N076J706p22k353n113o966n566k547M18N285
2345d6637J2148J4653Q080j523m905m215r851k2228k7678j6568L429J7093J7587Q292l321q191J03J6459K5932K0979
2325c62J0590N724M109p74l774M970K0954K7118J4978o482k2839k5810j4815K289J0955L536r102j0186j23N162j741
2304A4377j1326j4170j1746o927J872J2156J6518J5598J8010K1977J3469q229j9934m207K3115L1665J4413r346k2682
2285G4603k6208k6986k7493k6945k3277j3248J858J2635J1366K725l140m373n748p360m921J640R172J7843K7518
2266a0339L1615K4892J3598O683R76j1839k6686k8801j5634k50Q497J4133J8382J4435M97j3264j8433j7986j6110
2247b5634j0483k325k060j4035k4722j7986L477K2264K7142K0375Q622l072j0442j2366j3280j6284j6226p359M524
2228h9870P150j139q456n020O388J7896K6147L0034K5979J2454m033j3683j3239p179m94N339J0352J4594J8705K1808
2208E3733J8745M549j6729l2413l3302k1748n794Q963J8110J6410N036m350k733K274l190j7121k3593j7442j1157
2189f1752j2214j0014M253J8902J7293K571p713n011N790J8428K6487J8697q615l6501l9276j6309Q799K1586K9824
2170b4775L9533L9738K2666J671o735o908j3868k6369k6790o788J9554L0612J8755l705j6906j2809k945k764r757
2151A1410p495P447J7930J3459R014K1234L7885L1817R50k6632k8691j1107R922K9088M5424M9767L4005O448j4650
2132B37225k0358j5160n925K583L314r318k8038l5334k4093q777q286k2059l2244k8042j7842j4702j9057k1884j8289
2113h6286j0273q9J0617J6840J3484K840p547j3621j4816p878Q641K3558J9574l968k5560k5973r416P118J5966J9587
2093f7202J7779R101J808P664K2759K7833J3082p542j3653k827R702J1037L050l255L86J2868K4280K2749M505k1370
2073G2754l9961m2983l3485j9413n942N111J2558J6686K1032K8077L2491K4380K767j8539k3786j1878M663J4835
2055C9367J6904J2559K008j2432k4205k7522k0745m243J8344L4790K9620K082k6949l4352j8815O05P081K60r847
2036a5490j4601j1223k413N539P991O897O994O439l346k4548m3281l9758j0233K4824L8549K3680j878j5073q906P292
2016f2545K1554K6615J8505j497k2461k9825j9551j802J0379J1005J268j1303j3469K750K6539L7077L0447K4812
1998D8498L1023L3109J2771j7891k8262j0322J1399J2976k509j6937k1300j9294j6397j4909j5490j6940j6626j4731
1980f1832j4865j7438j5707k327K0901M1441M4548K5850j839j7286j1503K388N722j973m271P503K1232J9561O69
1961D0774k1670l3233k9275j3898L893J4693J4001M258q759j9994k5516k2575j1991J227J1797J8007K0930K1072
1943c6259J6887O829o657j5648j2212K707J8308K4098J8827P859l624j1197j0377j821N882N023k277r612j6435k4427
1923d4126k8113k0313n348N112R308J6156K7001L0338J9800M745m715j1710k1736k7578j8223K331J8043K0974J7522
1904a0532J4653J0881L818k178j937J642M48q435j9280k4733k2949j6445o984M225J2229J0657J375l805K969J3850
1884d0531J4919N115l214k455J205p06o862r818n280O216K1176L2833L4408K6436J6582R846M446j103m496n968r394
1863H3355j2949q465L637R230k91j3184j3612m661m79j299N440J9562K2754M900j9548l1048k9286k7044k8214k4790
1843f5992j2263L779J6148K1568J7363K345j6041k4221j7695p745o948j3010j3978n552N527J3536J9131K1841J7471
1824d4736O998j093k564k956n201j947R546J4004m699l6432n0664l1040Q020M0282N0880L9443J5006o437j1536l858
1804a8984O64l259l556P451J8939J9065J3364J2596J3251O118l667k976O268P679n531k2138l0472l0569k5698j5215
1784e6670k009M245n47o762l287O931J0955K926r265j4011q350L96L093k329j0026j3323j0948n935j038K727N273
1763a07954P795J2088J7249J9311J6867J4338J5916J8396J4409K114j1591j7650j3244m343Pj986j729P731J8564
1744F288J6144J217p395K479J9870K6712K0294J0013J449m162k994M401N690p903k3534k1118l249P634K047o064n117
1723D2702j983l789j969J1891K7282K6868R950r048k0072k3346j9775q316O298J3032N642r680j9946j7850r006o352
1703g467j4405k0611q951J7024L3756K4928J338j3523j1680n440o978j3112j2272O8J6952K8271K9990K4489J4457M36
1683G7270j4460k2553j9218r322l78P125J4830J5983K414j7612k3057p519R771R824N08M283K4918M0703L1770L468
1663A28748k1172k5602j2326M127J1407O573o244k0570k9429k7750j7585q041n162Tl338m609j4876k5351j9670K190
1643i3842K1128K3942J7192J0719K806q558j4069p263K20o405k1147k4130r143J0344K1271K3239K0781J6936J6884
1624I05K6190M0864M7339L6251J1122j7177l8382m5880l9978k9740k4565k2350j1971J1613M0342O1116O5005M9690
1606A60394K1331n052j5512j0851m655o115j1082j1963r157q570j2984k0079k5680k5974j9305q370R51M297J741k723
1586i358l189L437J1552J0015l441j5233j1299L750J2217O616k919m939L32P060J2875J6776J5359O592o667j9710
1566B9826k8434k8578j8864n697K293N194R546J5068J3989N824J335P011J6086K0647K2131K3047J9204R072Q08m83
1546A19025l128j4541k5027k0433n194K971j341o679n723n355j2378k2181k6550k2864j1688M948J9186K1366J3541
1527b045R804J7332K5769K1734N683j2812k8219l8219l7058k1843k688M873j922j0930j1090k599Q651J7303J6810R27
1507d0539k6786n0120n2852l2896j918K5068L7028K9603P910j3905k1739j2881K585J1809J0192L942K922R980J7205
1488i5392J5339O789M206J3882K6699L0659K6604K3194K0514J0160q161k2057k2878j6768j2780q806J284J2767J4105
1469A9360M516l420n74Q057J2652J0918O101j278j2132k1359j9770o582M702j135k1866l6016k4717N793K8778K5388
1449b2584L834j2201r511M999J6670J7817J0371N14o452q968r242r661r611p444m093j437J964R510K0236K6971K2262
1428C3944N659j4262k4858j9550n335L246L24n263l621L035P694J2006K0715K6733J6966n585k0209j4329J284R944
1408B8538J0282J0838J3050J1104L329o340j4620j8791j5386p224n711j5592k3056j2318Q873J5365k635k7110l6188
1389h3592k7365j0810P523K5332L5018K8251Q090j2223k2261k0634j0439L815J4521J3811K161r276q803L798J6890
1370d6193J8669Q588k802n159J360P809P424K294j141l94J331j94n978j3078j6088j0353L674J9020K7248K5558J7437
1349C9032O206q970k7696m1169l6909j4307R037J4120L751P77J8596M0222L5735j144m2651n5454l3137K352K5225
1330f6384K6614J5242N191M306J0340J5709J5955J3366J2128J1733P552k223j2126j3279k342J3309K0362J1190r048
1311G7595k7470l4395k8141j2279O813K0391K2211J5427J0173J1566J4811J4902J4992J9526K4352K1528J1314J266
1293A84582n296j1410j7011j6667r892n578j0797k0508k3629j5828k136R794J5209J4427J2871J5276J6697N256k0139
1274A15221m0454l4637n669K0618K3783Q073q107j3674j1160p776p063q139q759q255p938p619k998R212K2880K4744
1254E2283R079j3158k4289j8002m224L240M36n873p869m236J840Q569J5654J9661J5600N427j613k406o975k3111
1234B0033l9503l7489j8212k746j885j880J1012K6209K3428K932j4806j6350p812j45M927J0845J7448K1069J8895
1215A5970J1312K952J30L563O758O595J0249K3361L6049L2463J2745o208j2314r755q122j1510k0202l1559l6060
1196B6417k3966m69J6395J7544J1939R376O646j512r500r381l819m08L8N33K82j085J045P338Q968J368m991k80O381
1173E8859J21j3836j5831j744J0852Q927l14m605k813M31L578M532r08r909j2038m852J86m435r113k825P130N100
1151A6493q290j6294r964J722P506P024L587m896j9170k9971k6332j0119O062J4662J8925K2474K2384J6585R857N282
1131B7527l592k1859l8608l6348j5605L229O987N180J0323J5948Q272q800j7160r762L608J5036K6098L3977K7447
1112C1898N613j2473q896J0091K2316J5772k227j6989j8675o213J2156K3348K0846J0386N71p252j3827j3683k836
1093D9926Q855O138j0050k1545j6962n531n78L97Q464K1921K5372J1173q877j8738j8081j9382k7834l3455k6079
1074g4866j1058k699m942p339k026M029M73q011n070J4514L4163L3559J2963p143r825J290J0452R125J261p213j5266
1053c3629k0618j5098N488K9664L7981K4887N972n49N897J1746Q358k18p141j1903j6618j9468j7072j0791n493k174
1033c0779M338J8657L7374M9347M3239J6243k1602n1174n6283l6442q080R154Q137l100j1658j0093M80J1766J2936n2
1013a7592j8035k6913k4070j9990k0793j8256m634J1077J4112P073P604K1886L4136K7852O931j0941j3721j687J6760
994b9201K8397K2197K658r906k745J0818P972j2362k9407l1023k7629l0278l0650j5520Q695K1482J5794O165P150
975h7393J4916J5814N381q147j5202j3402o524l06J295n40n97K934M578K08k974O372K5485L5887K5337M043q699q295
953i829n245m729J267J7985L4650L5556J9639J200p625q322q971j1631j1202m952K158L884J107o04k44k064o230o535
931B9263j693j434j2975k6021k1634M605L6680N4917N0496K5027j1852m1773m7424l1068j4938j5256k2551j6239P072
912e6798K9848L5869K6617J4885R395Q463N102l989j4116j7898j4677j1447j3027j5295j1039M59J2452J7195J2197
893A4196K947m77N814J2500P735n161j0521k930N158L916J105O438J2892P944m863j1605j0206j0298j3077q828L406
872F085R888J788j1336j4199l298J2924K3417K0206K802j8636l0656k9822k3011j4871m199O746J1388J1006J5851
853b7927K8260L5923K9383J5868O756J224o478j1787n649Q513J6899J3695O223J456k565r730j8425k3958k3017j4342
833B0322m78J0308J0076J526l166K742J0800O911j1038k9082l1622j7944k238K634j385k913K551P535M477l770r040
812c2794q275l679L429J2176J7699J4831P058N107J3593K3577K2585J0019j718k100M414L134j2930l2855l8395k3664
792a8788j134J1933R519n72o000l13J1965J8646J1513l982j4390j4363j1329j2057j2238n486L607M398m349j2166
772d5586r897J202J2928J6933R194n378j3079l853J4853K3989J5233L90n238j912j511r484j8840k0721j3785k248
752e6810R339J6888J7076J0865M622L847O338M859l066j0918j0225J86J3410K1323K0630J4039P492M811L217l353
732G4570j3977j8000q600M111L037j2357k3094j5929j718P7j1981k1463j7820p812k001n75K190O982J0041J1161
712d3158J4294K0093K2763J6820N036l352l340l94k659q538q279O38P163J518r664j1892l410L092o94q775j3006
691b5744j5270k1063k7883k8037j9245n672Q591K0192K3427J5350M287M361J7722K8830K2129J455j4479j4007l135
672b8191O178J0886J5118J8451J3871j724k0961l2867l2738k2548n822J2857K5713K6260J7562J0815J2561J6640
654D2061J2285k082j7113k3490k0399j2743m643J333J904m594j3431j5669p651M453J1943J2786J0623P928N540O926
634d033J5373K5950K7973J9140J0100R286R501j859k2793l7111l4894k3101j3262p204j46Q716J5886K0182K2725
615D0429K1681J3535P1j1257j5302j3271p502K471J4790K0535J0897j1034l1137l8471l4348k5745j5369k740R351
596g2416J6273J7771J6180R415o114k4127k9096j4107P715J6669Q520k981l684O987J9269K4635K2451J8173J6404
577D7937J5601J0893K330m010n608r050k0426l3951l7317k6973j1156J571R604J3602J2228O136R50K177R337J7160
557A035K0715J8798J4575J2683J3430J1476L903l199k312L329L287m617j1673j2648j2290j2949o466J2512L2507
538H2096L5744K0090Q44q624r350r354j1991j4910j5029j0981l795K553L987J658J571O447J0342M927r491k2493
518E4241k4259j5609n598o67P61L001O469Q578Q273O113J785m284p899m555L551Q421N699j07j458L694J0245J0758
496F7153K027j0535j5947q937K740P086K967l04J448J005p360j7186j8558j1937o284o830j1123j4817j5350j1493
476g2235m503Q90P32l525p212p345l171M742J2732J5111J1044O696O241N118k143j1536j4132q069J323J1133K2328
455c5781L2146L3469K3801R335j598n233k956L05q77o359q778l078M822N659N68j733j39k499r989j1624j96J4810
433C4075J7941O810n825o998L328J2694Q594p434j9512j5409j955N268M293O055J1426O203j3933k9672k2735k521
413i307P566K287l942k790k57P14P066J9659K6101J8279N715K196P416J0984Q283L009j865o715j0765j2520j3877
392E7237j7706k1620j9539r939J763R527J2292J2952J4059J4654J0425j238j5156k0946j5171p365q460j5398j4179
373c3808J364K0473K7704J9407N005m365m682R73O959R079O175r34j0646j9519k1739j3633Q54J2813J7642J8167
353C7289J7636J4170N257o174j4225j6423j4617j1912j1431j4690j7633j2153L627J9917K5505J9904R414l738j8693
334A1030k6550j7426K417J4442J2664J0429J5970J6942K176j4141q855J5653L2830K7542J2029K932k34n407j1221
315I3222j1792r193r245j0196o370L59K725J3j332J396L745K003k579q013j2859j2136L49K1815L8463L8415K3395
294A42185M237j1332k1959k6898k3703j2709N28R598J2513J1508R138O136K430j562n320r012j2534j3866j0158j890
274D7330N114M329m143j2807j4800j1316r185j1810j5316j4297q683k706J390N231R808J2255Q952K01r733j5989
254c6175j5411p669L347J0584R330J691o137r985q684j131J2543K6558L1767K4883J1919N03p142j0968q416Q42Q599
233C0848M555r643j8982j1283Q362K2523J9335L313j0750j2250l074O599Q858M026k325n776n971n373o685j0187
213F120j2619j0676o658p444j5132k2053j9743j0582m575n534p162l725K492P514J2992K1612K9431K9029J8964N284
193G535n412j0271q851k426M908Q505P519M594J630r61j302L048R919J2171N076p769j7449j7356p867M036R440M916
171C633l674p472m987k234j936J575J3066K6853L1869K3808P928p730j7336j8522j4574j3501j8784k2656j5579j329
151d1582O209K180k974k0N735M517j850k958M689J3804J6768J3051O517R76j921m415j0720j9377k1145j0901J848
130d1569L356n401j0681o833k964n325n700M417J7976K1434J3780N699L353L602L781N460P565N177k032p598p291
109B06l870j17O034J4958J9809J3615q52j3237j6348j1393m337k82n37k496k785j226j6J099M906J0544J2201P383
87C3259J814J292K798N0n319n932p73L128J735j143j886k058k241J202Q010J0019K526o149n188K556M901q22m334O48
63C8093O667M664k781p306p747q945j1182r628l953n47k960o332n115k303n929j6991k5193j9312r88J4388J2620l993
41f4773j8414j6144J271J9957K7253K0270N470o191o521K810J1569J2756J0743J3123J7441J3680n21j5268k1014
22G497j8419j2689n605J794N530M544N078J1495J6755J0983k608j0173n667K825P029Q386R100L331j3084k9829l0512
1c4239j3555
0d7794
##END=