##TITLE=Parameter file, TopSpin 3.6.2
##JCAMP-DX=6.00
##DATA TYPE= NMR SPECTRUM
##DATA CLASS= XYDATA
##ORIGIN=
##OWNER=chm343
##.SHIFT REFERENCE=INTERNAL, MeOD, 1, 17.50623728154614
##.OBSERVE FREQUENCY=400.13311072
##.OBSERVE NUCLEUS=1H
##.SOLVENT=MeOD
##$JCAMPDX=5
##$NPOINTS=10	$$ modification sequence number
##$ORIGIN=Bruker BioSpin GmbH
##$epoch=1685911411000
##$date=Sun, 04 Jun 2023 20:43:31 GMT
##$ABSF1=17.48529
##$ABSF2=-1.978788
##$ABSG=5
##$ABSL=50
##$ALPHA=0
##$AQORDER=0
##$ASSFAC=0
##$ASSFACI=0
##$ASSFACX=0
##$ASSWID=0
##$AUNMP=<proc_1d_spintropy_auto>
##$AXLEFT=0
##$AXNAME=<>
##$AXNUC=<1H>
##$AXRIGHT=0
##$AXTYPE=0
##$AXUNIT=<>
##$AZFE=0.1
##$AZFW=0.1
##$BCFW=0
##$BC_mod=0
##$BYTORDP=0
##$COROFFS=0
##$CY=15
##$DATMOD=1
##$DC=0
##$DFILT=<>
##$DTYPP=0
##$ERETIC=no
##$F1P=0
##$F2P=0
##$FCOR=1
##$FTSIZE=131072
##$FT_mod=6
##$GAMMA=0
##$GB=0
##$INTBC=1
##$INTSCL=1
##$ISEN=128
##$LB=0.3
##$LEV0=0
##$LPBIN=0
##$MAXI=10000
##$MC2=0
##$MEAN=0
##$ME_mod=0
##$MI=0.1
##$MddCEXP=no
##$MddCT_SP=no
##$MddF180=no
##$MddLAMBDA=0
##$MddMEMORY=0
##$MddMERGE=0
##$MddNCOMP=0
##$MddNITER=0
##$MddNOISE=0
##$MddPHASE=0
##$MddSEED=0
##$MddSRSIZE=0
##$Mdd_CsALG=0
##$Mdd_CsLAMBDA=0
##$Mdd_CsNITER=0
##$Mdd_CsNORM=0
##$Mdd_CsVE=no
##$Mdd_CsZF=0
##$Mdd_LrLAMBDA=0
##$Mdd_LrNITER=0
##$Mdd_LrRANK=0
##$Mdd_LrZF=0
##$Mdd_mod=0
##$NCOEF=0
##$NLEV=6
##$NOISF1=0
##$NOISF2=0
##$NSP=0
##$NTH_PI=0
##$NZP=0
##$PC=1
##$PHC0=106.6
##$PHC1=0
##$PH_mod=1
##$PKNL=yes
##$PPARMOD=0
##$PPDIAG=0
##$PPIPTYP=0
##$PPMPNUM=2147483647
##$PPRESOL=1
##$PSCAL=4
##$PSIGN=0
##$PYNMP=<>
##$RDF1=0
##$RDF2=0
##$RDFWHM=0
##$RDINT=0
##$RDPOS=0
##$REVERSE=no
##$SF=400.13000841166
##$SI=131072
##$SIGF1=0
##$SIGF2=0
##$SINO=0
##$SIOLD=131072
##$SPECTYP=<PROTON>
##$SREF_mod=1
##$SREGLST=<1H.MeOD>
##$SSB=0
##$STSI=131072
##$STSR=0
##$SW_p=7788.16199376948
##$SYMM=0
##$S_DEV=0
##$TDeff=65536
##$TDoff=0
##$TI=<Spintropy Username asu_chm343
2023_02_15_AcAc_D2O_1H_1Scan_VT_Bruker400>
##$TILT=no
##$TM1=0
##$TM2=0
##$TOPLEV=0
##$USERP1=<>
##$USERP2=<>
##$USERP3=<>
##$USERP4=<>
##$USERP5=<>
##$WDW=1
##$XDIM=0
##$YMAX_p=381200701
##$YMIN_p=-555146
##$ACQT0=-1.70581753891579
##$AMP=(0..31)
100 100 100 100 100 100 100 100 100 100 100 100 100 100 100 100 100 100
100 100 100 100 100 100 100 100 100 100 100 100 100 100
##$AMPCOIL=(0..19)
-1 0 0 0 0 0 0 0 0 0 0 0 0 0 0 0 0 0 0 0
##$ANAVPT=-1
##$AQSEQ=0
##$AQ_mod=3
##$AUNM=<au_zg_no_rga_lock1>
##$AUTOPOS=<13 >
##$BF2=400.13
##$BF3=400.13
##$BF4=400.13
##$BF5=400.13
##$BF6=400.13
##$BF7=400.13
##$BF8=400.13
##$BWFAC=(0..63)
0 0 0 0 0 0 0 0 0 0 0 0 0 0 0 0 0 0 0 0 0 0 0 0 0 0 0 0 0 0 0 0 0 0 0 0
0 0 0 0 0 0 0 0 0 0 0 0 0 0 0 0 0 0 0 0 0 0 0 0 0 0 0 0
##$BYTORDA=0
##$CAGPARS=(0..11)
0 0 0 0 0 0 0 0 0 0 0 0
##$CHEMSTR=<none>
##$CNST=(0..63)
1 1 1 1 1 1 1 1 1 1 1 1 1 1 1 1 1 1 1 1 1 1 1 1 1 1 1 1 1 1 1 1 1 1 1 1
1 1 1 1 1 1 1 1 1 1 1 1 1 1 1 1 1 1 1 1 1 1 1 1 1 1 1 1
##$CPDPRG=(0..8)
<> <> <> <> <> <> <> <> <>
##$D=(0..63)
0 60 0 0 0 0 0 0 0 0 0 0 0 0 0 0 0.0002 0 0 0 0 0 0 0 0 0 0 0 0 0 0 0 0
0 0 0 0 0 0 0 0 0 0 0 0 0 0 0 0 0 0 0 0 0 0 0 0 0 0 0 0 0 0 0
##$DATE=1685911411
##$DE=10.51916
##$DECBNUC=<off>
##$DECNUC=<off>
##$DECSTAT=4
##$DIGMOD=3
##$DIGTYP=12
##$DQDMODE=0
##$DR=22
##$DS=0
##$DSPFIRM=4
##$DTYPA=0
##$EXP=<CHM343_Proton_1scan_308K>
##$FCUCHAN=(0..9)
0 2 0 0 0 0 0 0 0 0
##$FL1=0
##$FL2=0
##$FL3=0
##$FL4=0
##$FN_INDIRECT=(0..7)
0 0 0 0 0 0 0 0
##$FOV=0
##$FQ1LIST=<>
##$FQ2LIST=<>
##$FQ3LIST=<>
##$FQ4LIST=<>
##$FQ5LIST=<>
##$FQ6LIST=<>
##$FQ7LIST=<>
##$FQ8LIST=<>
##$FRQLO3=1116889.28000003
##$FRQLO3N=0
##$FS=(0..7)
83 83 83 83 83 83 83 83
##$FTLPGN=0
##$FW=4032000
##$FnILOOP=0
##$FnMODE=0
##$FnTYPE=0
##$GPNAM=(0..31)
<> <> <> <> <> <> <> <> <> <> <> <> <> <> <> <> <> <> <> <> <> <> <> <>
<> <> <> <> <> <> <> <>
##$GPX=(0..31)
0 0 0 0 0 0 0 0 0 0 0 0 0 0 0 0 0 0 0 0 0 0 0 0 0 0 0 0 0 0 0 0
##$GPY=(0..31)
0 0 0 0 0 0 0 0 0 0 0 0 0 0 0 0 0 0 0 0 0 0 0 0 0 0 0 0 0 0 0 0
##$GPZ=(0..31)
0 0 0 0 0 0 0 0 0 0 0 0 0 0 0 0 0 0 0 0 0 0 0 0 0 0 0 0 0 0 0 0
##$GRDPROG=<>
##$HDDUTY=20
##$HDRATE=1
##$HGAIN=(0..3)
0 0 0 0
##$HL1=90
##$HL2=90
##$HL3=90
##$HL4=90
##$HOLDER=13
##$HPMOD=(0..7)
0 0 0 0 0 0 0 0
##$HPPRGN=0
##$IN=(0..63)
0 0 0 0 0 0 0 0 0 0 0 0 0 0 0 0 0 0 0 0 0 0 0 0 0 0 0 0 0 0 0 0 0 0 0 0
0 0 0 0 0 0 0 0 0 0 0 0 0 0 0 0 0 0 0 0 0 0 0 0 0 0 0 0
##$INF=(0..7)
0 0 0 0 0 0 0 0
##$INP=(0..63)
0 0 0 0 0 0 0 0 0 0 0 0 0 0 0 0 0 0 0 0 0 0 0 0 0 0 0 0 0 0 0 0 0 0 0 0
0 0 0 0 0 0 0 0 0 0 0 0 0 0 0 0 0 0 0 0 0 0 0 0 0 0 0 0
##$INSTRUM=<spect>
##$INTEGFAC=(0..63)
0 0 0 0 0 0 0 0 0 0 0 0 0 0 0 0 0 0 0 0 0 0 0 0 0 0 0 0 0 0 0 0 0 0 0 0
0 0 0 0 0 0 0 0 0 0 0 0 0 0 0 0 0 0 0 0 0 0 0 0 0 0 0 0
##$L=(0..31)
1 1 1 1 1 1 1 1 1 1 1 1 1 1 1 1 1 1 1 1 1 1 1 1 1 1 1 1 1 1 1 1
##$LFILTER=20
##$LGAIN=-2
##$LINPSTP=0
##$LOCKED=yes
##$LOCKFLD=-2879
##$LOCKGN=116.679374694824
##$LOCKPOW=-35
##$LOCKPPM=3.29999995231628
##$LOCNUC=<2H>
##$LOCPHAS=205.5
##$LOCSHFT=yes
##$LOCSW=0
##$LTIME=0.680999994277954
##$MASR=5000
##$MASRLST=<masrlst>
##$MULEXPNO=(0..15)
0 0 0 0 0 0 0 0 0 0 0 0 0 0 0 0
##$NBL=1
##$NC=-6
##$NLOGCH=2
##$NOVFLW=0
##$NS=1
##$NUC1=<1H>
##$NUC2=<off>
##$NUC3=<off>
##$NUC4=<off>
##$NUC5=<off>
##$NUC6=<off>
##$NUC7=<off>
##$NUC8=<off>
##$NUCLEUS=<off>
##$NUSLIST=<automatic>
##$NusAMOUNT=25
##$NusFPNZ=no
##$NusJSP=0
##$NusSEED=54321
##$NusSPTYPE=0
##$NusT2=1
##$NusTD=0
##$O1=3110.71999999513
##$O2=2470.803
##$O3=2470.803
##$O4=2470.803
##$O5=2470.803
##$O6=2470.803
##$O7=2470.803
##$O8=2470.803
##$OVERFLW=0
##$P=(0..63)
3.333333 10 20 0 0 19.8 30 60 20000 0 0 80000 80000 1000 0 0 1000 2500
100000 600 0 0 0 0 0 270 100000 10 1000 1000 0 0 20000 0 0 0 0 0 0 0 2000
0 0 0 300 0 80000 46600 10000 0 80000 0 0 0 0 0 0 0 0 0 0 0 0 0
##$PACOIL=(0..15)
2 3 1 0 0 0 0 0 0 0 0 0 0 0 0 0
##$PAPS=0
##$PARMODE=0
##$PCPD=(0..9)
0 90 0 0 0 0 0 0 0 0
##$PEXSEL=(0..9)
1 1 1 1 1 1 1 1 1 1
##$PHCOR=(0..31)
0 0 0 0 0 0 0 0 0 0 0 0 0 0 0 0 0 0 0 0 0 0 0 0 0 0 0 0 0 0 0 0
##$PHLIST=<>
##$PHP=1
##$PH_ref=0
##$PL=(0..63)
120 120 120 120 120 120 120 120 120 120 120 120 120 120 120 120 120 120
120 120 120 120 120 120 120 120 120 120 120 120 120 120 120 120 120 120
120 120 120 120 120 120 120 120 120 120 120 120 120 120 120 120 120 120
120 120 120 120 120 120 120 120 120 120
##$PLSTEP=0.1
##$PLSTRT=-6
##$PLW=(0..63)
0 25 0 0 0 0 0 0 0 0.0001 2.7778 0.14793 0 0 0 0 0 0 25 0.30864 0 0 0 0
0 0 0 0.13717 0 2.7778 0 0 4e-006 0 0 0 0 0 0 0 0 0 0 0 0 0 0 0 0 0 0 0
0 0 0 0 0 0 0 0 0 0 0 0
##$PLWMAX=(0..7)
50 0 0 0 0 0 0 0
##$PQPHASE=0
##$PQSCALE=1
##$PR=1
##$PRECHAN=(0..15)
-1 2 3 0 1 -1 -1 -1 -1 -1 -1 -1 -1 -1 -1 -1
##$PRGAIN=0
##$PROBHD=<Z104450_0191 (PA BBO 400S1 BBF-H-D-05 Z)>
##$PROBINPUTS=(0..15)
<19F-109Ag> <1H> <2H> <> <> <> <> <> <> <> <> <> <> <> <> <>
##$PULPROG=<zg30>
##$PW=0
##$PYNM=<>
##$ProjAngle=0
##$QNP=0
##$RD=0
##$RECCHAN=(0..15)
0 2 0 0 0 0 0 0 0 0 0 0 0 0 0 0
##$RECPH=0
##$RECPRE=(0..15)
-1 0 -1 -1 -1 -1 -1 -1 -1 -1 -1 -1 -1 -1 -1 -1
##$RECPRFX=(0..15)
1 0 0 0 0 0 0 0 0 0 0 0 0 0 0 0
##$RECSEL=(0..15)
0 0 1 0 0 0 0 0 0 0 0 0 0 0 0 0
##$RG=30.14
##$RO=0
##$RSEL=(0..15)
0 0 2 0 0 0 0 0 0 0 0 0 0 0 0 0
##$S=(0..7)
83 83 83 83 83 83 83 83
##$SELREC=(0..9)
0 0 0 0 0 0 0 0 0 0
##$SFO1=400.13311072
##$SFO2=400.132470803
##$SFO3=400.132470803
##$SFO4=400.132470803
##$SFO5=400.132470803
##$SFO6=400.132470803
##$SFO7=400.132470803
##$SFO8=400.132470803
##$SOLVENT=<MeOD>
##$SOLVOLD=<off>
##$SP=(0..63)
120 120 120 120 120 120 120 120 120 120 120 120 120 120 120 120 120 120
120 120 120 120 120 120 120 120 120 120 120 120 120 120 120 120 120 120
120 120 120 120 120 120 120 120 120 120 120 120 120 120 120 120 120 120
120 120 120 120 120 120 120 120 120 120
##$SPECTR=0
##$SPINCNT=0
##$SPNAM=(0..63)
<> <Gaus1_270.1000> <Gaus1_180r.1000> <> <> <Sinc1.1000> <Squa100.1000>
<> <Squa100.1000> <> <Sinc1.1000> <Sinc1.1000> <> <> <> <> <> <> <> <Sinc1.1000>
<Sinc1.1000> <Sinc1.1000> <Sinc1.1000> <> <> <> <> <> <> <Crp60,20,20.10>
<Bip720,50,20.1> <> <> <> <Rsnob.1000> <Gaus1_180r.1000> <Gaus1_180r.1000>
<> <> <> <Gaus1_180r.1000> <Squa100.1000> <> <> <> <> <> <> <> <> <> <>
<> <> <> <> <> <> <> <> <> <> <> <>
##$SPOAL=(0..63)
0.5 1 0.5 0.5 0.5 0.5 0.5 0.5 0.5 0.5 0.5 0.5 0.5 0.5 0.5 0.5 0.5 0.5 0.5
1 1 1 1 0.5 0.5 0.5 0.5 0.5 0.5 0.5 0.5 0.5 0.5 0.5 0.5 0.5 0.5 0.5 0.5
0.5 0.5 0.5 0.5 0.5 0.5 0.5 0.5 0.5 0.5 0.5 0.5 0.5 0.5 0.5 0.5 0.5 0.5
0.5 0.5 0.5 0.5 0.5 0.5 0.5
##$SPOFFS=(0..63)
0 0 0 0 0 0 0 0 0 0 0 0 0 0 0 0 0 0 0 0 0 0 0 0 0 0 0 0 0 0 0 0 0 0 0 0
0 0 0 0 0 0 0 0 0 0 0 0 0 0 0 0 0 0 0 0 0 0 0 0 0 0 0 0
##$SPPEX=(0..63)
0 0 0 0 0 0 0 0 0 0 0 0 0 0 0 0 0 0 0 0 0 0 0 0 0 0 0 0 0 0 0 0 0 0 0 0
0 0 0 0 0 0 0 0 0 0 0 0 0 0 0 0 0 0 0 0 0 0 0 0 0 0 0 0
##$SPW=(0..63)
0 2.0754e-005 9.2239e-006 0 0 0.0072087 0.0001 0 2.5e-007 0 0.0072087 0.0072087
0 0 0 0 0 0 0 1.472397e-005 2.288794e-005 1.068705e-005 5.763436e-005 0
0 0 0 0 0 0.095493 1.7778 0 0 0 0.00010084 9.2239e-006 0.00059033 0 0 0
9.2239e-006 2.5e-007 0 0 0 0 0 0 0 0 0 0 0 0 0 0 0 0 0 0 0 0 0 0
##$SUBNAM=(0..9)
<> <> <> <> <> <> <> <> <> <>
##$SWIBOX=(0..19)
0 0 3 0 0 0 0 0 0 0 0 0 0 0 0 0 0 0 0 0
##$SW_h=7788.16199376947
##$SWfinal=0
##$SigLockShift=0
##$TD=65536
##$TD0=1
##$TD_INDIRECT=(0..7)
0 0 0 0 0 0 0 0
##$TDav=1
##$TE=308.0808
##$TE1=300
##$TE2=300
##$TE3=300
##$TE4=300
##$TEG=300
##$TE_MAGNET=0
##$TE_PIDX=0
##$TE_STAB=(0..9)
0 0 0 0 0 0 0 0 0 0
##$TL=(0..7)
120 120 120 120 120 120 120 120
##$TOTROT=(0..63)
0 0 0 0 0 0 0 0 0 0 0 0 0 0 0 0 0 0 0 0 0 0 0 0 0 0 0 0 0 0 0 0 0 0 0 0
0 0 0 0 0 0 0 0 0 0 0 0 0 0 0 0 0 0 0 0 0 0 0 0 0 0 0 0
##$TUBE_TYPE=<>
##$USERA1=<>
##$USERA2=<>
##$USERA3=<>
##$USERA4=<>
##$USERA5=<>
##$V9=5
##$VALIDCODE=-1
##$VALIST=<>
##$VCLIST=<>
##$VDLIST=<>
##$VPLIST=<>
##$VTLIST=<>
##$WBST=1024
##$WBSW=4
##$XGAIN=(0..3)
0 0 0 0
##$XL=0
##$YL=0
##$YMAX_a=15447
##$YMIN_a=-13787
##$ZGOPTNS=<>
##$ZL1=120
##$ZL2=120
##$ZL3=120
##$ZL4=120
##$scaledByNS=no
##$scaledByRG=no
##$AMP0=100
##$AMP1=100
##$AMP2=100
##$AMP3=100
##$AMP4=100
##$AMP5=100
##$AMP6=100
##$AMP7=100
##$AMP8=100
##$AMP9=100
##$AMP10=100
##$AMP11=100
##$AMP12=100
##$AMP13=100
##$AMP14=100
##$AMP15=100
##$AMP16=100
##$AMP17=100
##$AMP18=100
##$AMP19=100
##$AMP20=100
##$AMP21=100
##$AMP22=100
##$AMP23=100
##$AMP24=100
##$AMP25=100
##$AMP26=100
##$AMP27=100
##$AMP28=100
##$AMP29=100
##$AMP30=100
##$AMP31=100
##$AMPCOIL0=-1
##$AMPCOIL1=0
##$AMPCOIL2=0
##$AMPCOIL3=0
##$AMPCOIL4=0
##$AMPCOIL5=0
##$AMPCOIL6=0
##$AMPCOIL7=0
##$AMPCOIL8=0
##$AMPCOIL9=0
##$AMPCOIL10=0
##$AMPCOIL11=0
##$AMPCOIL12=0
##$AMPCOIL13=0
##$AMPCOIL14=0
##$AMPCOIL15=0
##$AMPCOIL16=0
##$AMPCOIL17=0
##$AMPCOIL18=0
##$AMPCOIL19=0
##$BWFAC0=0
##$BWFAC1=0
##$BWFAC2=0
##$BWFAC3=0
##$BWFAC4=0
##$BWFAC5=0
##$BWFAC6=0
##$BWFAC7=0
##$BWFAC8=0
##$BWFAC9=0
##$BWFAC10=0
##$BWFAC11=0
##$BWFAC12=0
##$BWFAC13=0
##$BWFAC14=0
##$BWFAC15=0
##$BWFAC16=0
##$BWFAC17=0
##$BWFAC18=0
##$BWFAC19=0
##$BWFAC20=0
##$BWFAC21=0
##$BWFAC22=0
##$BWFAC23=0
##$BWFAC24=0
##$BWFAC25=0
##$BWFAC26=0
##$BWFAC27=0
##$BWFAC28=0
##$BWFAC29=0
##$BWFAC30=0
##$BWFAC31=0
##$BWFAC32=0
##$BWFAC33=0
##$BWFAC34=0
##$BWFAC35=0
##$BWFAC36=0
##$BWFAC37=0
##$BWFAC38=0
##$BWFAC39=0
##$BWFAC40=0
##$BWFAC41=0
##$BWFAC42=0
##$BWFAC43=0
##$BWFAC44=0
##$BWFAC45=0
##$BWFAC46=0
##$BWFAC47=0
##$BWFAC48=0
##$BWFAC49=0
##$BWFAC50=0
##$BWFAC51=0
##$BWFAC52=0
##$BWFAC53=0
##$BWFAC54=0
##$BWFAC55=0
##$BWFAC56=0
##$BWFAC57=0
##$BWFAC58=0
##$BWFAC59=0
##$BWFAC60=0
##$BWFAC61=0
##$BWFAC62=0
##$BWFAC63=0
##$CAGPARS0=0
##$CAGPARS1=0
##$CAGPARS2=0
##$CAGPARS3=0
##$CAGPARS4=0
##$CAGPARS5=0
##$CAGPARS6=0
##$CAGPARS7=0
##$CAGPARS8=0
##$CAGPARS9=0
##$CAGPARS10=0
##$CAGPARS11=0
##$CNST0=1
##$CNST1=1
##$CNST2=1
##$CNST3=1
##$CNST4=1
##$CNST5=1
##$CNST6=1
##$CNST7=1
##$CNST8=1
##$CNST9=1
##$CNST10=1
##$CNST11=1
##$CNST12=1
##$CNST13=1
##$CNST14=1
##$CNST15=1
##$CNST16=1
##$CNST17=1
##$CNST18=1
##$CNST19=1
##$CNST20=1
##$CNST21=1
##$CNST22=1
##$CNST23=1
##$CNST24=1
##$CNST25=1
##$CNST26=1
##$CNST27=1
##$CNST28=1
##$CNST29=1
##$CNST30=1
##$CNST31=1
##$CNST32=1
##$CNST33=1
##$CNST34=1
##$CNST35=1
##$CNST36=1
##$CNST37=1
##$CNST38=1
##$CNST39=1
##$CNST40=1
##$CNST41=1
##$CNST42=1
##$CNST43=1
##$CNST44=1
##$CNST45=1
##$CNST46=1
##$CNST47=1
##$CNST48=1
##$CNST49=1
##$CNST50=1
##$CNST51=1
##$CNST52=1
##$CNST53=1
##$CNST54=1
##$CNST55=1
##$CNST56=1
##$CNST57=1
##$CNST58=1
##$CNST59=1
##$CNST60=1
##$CNST61=1
##$CNST62=1
##$CNST63=1
##$CPDPRG0=<>
##$CPDPRG1=<>
##$CPDPRG2=<>
##$CPDPRG3=<>
##$CPDPRG4=<>
##$CPDPRG5=<>
##$CPDPRG6=<>
##$CPDPRG7=<>
##$CPDPRG8=<>
##$D0=0
##$D1=60
##$D2=0
##$D3=0
##$D4=0
##$D5=0
##$D6=0
##$D7=0
##$D8=0
##$D9=0
##$D10=0
##$D11=0
##$D12=0
##$D13=0
##$D14=0
##$D15=0
##$D16=0.0002
##$D17=0
##$D18=0
##$D19=0
##$D20=0
##$D21=0
##$D22=0
##$D23=0
##$D24=0
##$D25=0
##$D26=0
##$D27=0
##$D28=0
##$D29=0
##$D30=0
##$D31=0
##$D32=0
##$D33=0
##$D34=0
##$D35=0
##$D36=0
##$D37=0
##$D38=0
##$D39=0
##$D40=0
##$D41=0
##$D42=0
##$D43=0
##$D44=0
##$D45=0
##$D46=0
##$D47=0
##$D48=0
##$D49=0
##$D50=0
##$D51=0
##$D52=0
##$D53=0
##$D54=0
##$D55=0
##$D56=0
##$D57=0
##$D58=0
##$D59=0
##$D60=0
##$D61=0
##$D62=0
##$D63=0
##$FCUCHAN0=0
##$FCUCHAN1=2
##$FCUCHAN2=0
##$FCUCHAN3=0
##$FCUCHAN4=0
##$FCUCHAN5=0
##$FCUCHAN6=0
##$FCUCHAN7=0
##$FCUCHAN8=0
##$FCUCHAN9=0
##$FN_INDIRECT0=0
##$FN_INDIRECT1=0
##$FN_INDIRECT2=0
##$FN_INDIRECT3=0
##$FN_INDIRECT4=0
##$FN_INDIRECT5=0
##$FN_INDIRECT6=0
##$FN_INDIRECT7=0
##$FS0=83
##$FS1=83
##$FS2=83
##$FS3=83
##$FS4=83
##$FS5=83
##$FS6=83
##$FS7=83
##$GPNAM0=<>
##$GPNAM1=<>
##$GPNAM2=<>
##$GPNAM3=<>
##$GPNAM4=<>
##$GPNAM5=<>
##$GPNAM6=<>
##$GPNAM7=<>
##$GPNAM8=<>
##$GPNAM9=<>
##$GPNAM10=<>
##$GPNAM11=<>
##$GPNAM12=<>
##$GPNAM13=<>
##$GPNAM14=<>
##$GPNAM15=<>
##$GPNAM16=<>
##$GPNAM17=<>
##$GPNAM18=<>
##$GPNAM19=<>
##$GPNAM20=<>
##$GPNAM21=<>
##$GPNAM22=<>
##$GPNAM23=<>
##$GPNAM24=<>
##$GPNAM25=<>
##$GPNAM26=<>
##$GPNAM27=<>
##$GPNAM28=<>
##$GPNAM29=<>
##$GPNAM30=<>
##$GPNAM31=<>
##$GPX0=0
##$GPX1=0
##$GPX2=0
##$GPX3=0
##$GPX4=0
##$GPX5=0
##$GPX6=0
##$GPX7=0
##$GPX8=0
##$GPX9=0
##$GPX10=0
##$GPX11=0
##$GPX12=0
##$GPX13=0
##$GPX14=0
##$GPX15=0
##$GPX16=0
##$GPX17=0
##$GPX18=0
##$GPX19=0
##$GPX20=0
##$GPX21=0
##$GPX22=0
##$GPX23=0
##$GPX24=0
##$GPX25=0
##$GPX26=0
##$GPX27=0
##$GPX28=0
##$GPX29=0
##$GPX30=0
##$GPX31=0
##$GPY0=0
##$GPY1=0
##$GPY2=0
##$GPY3=0
##$GPY4=0
##$GPY5=0
##$GPY6=0
##$GPY7=0
##$GPY8=0
##$GPY9=0
##$GPY10=0
##$GPY11=0
##$GPY12=0
##$GPY13=0
##$GPY14=0
##$GPY15=0
##$GPY16=0
##$GPY17=0
##$GPY18=0
##$GPY19=0
##$GPY20=0
##$GPY21=0
##$GPY22=0
##$GPY23=0
##$GPY24=0
##$GPY25=0
##$GPY26=0
##$GPY27=0
##$GPY28=0
##$GPY29=0
##$GPY30=0
##$GPY31=0
##$GPZ0=0
##$GPZ1=0
##$GPZ2=0
##$GPZ3=0
##$GPZ4=0
##$GPZ5=0
##$GPZ6=0
##$GPZ7=0
##$GPZ8=0
##$GPZ9=0
##$GPZ10=0
##$GPZ11=0
##$GPZ12=0
##$GPZ13=0
##$GPZ14=0
##$GPZ15=0
##$GPZ16=0
##$GPZ17=0
##$GPZ18=0
##$GPZ19=0
##$GPZ20=0
##$GPZ21=0
##$GPZ22=0
##$GPZ23=0
##$GPZ24=0
##$GPZ25=0
##$GPZ26=0
##$GPZ27=0
##$GPZ28=0
##$GPZ29=0
##$GPZ30=0
##$GPZ31=0
##$HGAIN0=0
##$HGAIN1=0
##$HGAIN2=0
##$HGAIN3=0
##$HPMOD0=0
##$HPMOD1=0
##$HPMOD2=0
##$HPMOD3=0
##$HPMOD4=0
##$HPMOD5=0
##$HPMOD6=0
##$HPMOD7=0
##$IN0=0
##$IN1=0
##$IN2=0
##$IN3=0
##$IN4=0
##$IN5=0
##$IN6=0
##$IN7=0
##$IN8=0
##$IN9=0
##$IN10=0
##$IN11=0
##$IN12=0
##$IN13=0
##$IN14=0
##$IN15=0
##$IN16=0
##$IN17=0
##$IN18=0
##$IN19=0
##$IN20=0
##$IN21=0
##$IN22=0
##$IN23=0
##$IN24=0
##$IN25=0
##$IN26=0
##$IN27=0
##$IN28=0
##$IN29=0
##$IN30=0
##$IN31=0
##$IN32=0
##$IN33=0
##$IN34=0
##$IN35=0
##$IN36=0
##$IN37=0
##$IN38=0
##$IN39=0
##$IN40=0
##$IN41=0
##$IN42=0
##$IN43=0
##$IN44=0
##$IN45=0
##$IN46=0
##$IN47=0
##$IN48=0
##$IN49=0
##$IN50=0
##$IN51=0
##$IN52=0
##$IN53=0
##$IN54=0
##$IN55=0
##$IN56=0
##$IN57=0
##$IN58=0
##$IN59=0
##$IN60=0
##$IN61=0
##$IN62=0
##$IN63=0
##$INF0=0
##$INF1=0
##$INF2=0
##$INF3=0
##$INF4=0
##$INF5=0
##$INF6=0
##$INF7=0
##$INP0=0
##$INP1=0
##$INP2=0
##$INP3=0
##$INP4=0
##$INP5=0
##$INP6=0
##$INP7=0
##$INP8=0
##$INP9=0
##$INP10=0
##$INP11=0
##$INP12=0
##$INP13=0
##$INP14=0
##$INP15=0
##$INP16=0
##$INP17=0
##$INP18=0
##$INP19=0
##$INP20=0
##$INP21=0
##$INP22=0
##$INP23=0
##$INP24=0
##$INP25=0
##$INP26=0
##$INP27=0
##$INP28=0
##$INP29=0
##$INP30=0
##$INP31=0
##$INP32=0
##$INP33=0
##$INP34=0
##$INP35=0
##$INP36=0
##$INP37=0
##$INP38=0
##$INP39=0
##$INP40=0
##$INP41=0
##$INP42=0
##$INP43=0
##$INP44=0
##$INP45=0
##$INP46=0
##$INP47=0
##$INP48=0
##$INP49=0
##$INP50=0
##$INP51=0
##$INP52=0
##$INP53=0
##$INP54=0
##$INP55=0
##$INP56=0
##$INP57=0
##$INP58=0
##$INP59=0
##$INP60=0
##$INP61=0
##$INP62=0
##$INP63=0
##$INTEGFAC0=0
##$INTEGFAC1=0
##$INTEGFAC2=0
##$INTEGFAC3=0
##$INTEGFAC4=0
##$INTEGFAC5=0
##$INTEGFAC6=0
##$INTEGFAC7=0
##$INTEGFAC8=0
##$INTEGFAC9=0
##$INTEGFAC10=0
##$INTEGFAC11=0
##$INTEGFAC12=0
##$INTEGFAC13=0
##$INTEGFAC14=0
##$INTEGFAC15=0
##$INTEGFAC16=0
##$INTEGFAC17=0
##$INTEGFAC18=0
##$INTEGFAC19=0
##$INTEGFAC20=0
##$INTEGFAC21=0
##$INTEGFAC22=0
##$INTEGFAC23=0
##$INTEGFAC24=0
##$INTEGFAC25=0
##$INTEGFAC26=0
##$INTEGFAC27=0
##$INTEGFAC28=0
##$INTEGFAC29=0
##$INTEGFAC30=0
##$INTEGFAC31=0
##$INTEGFAC32=0
##$INTEGFAC33=0
##$INTEGFAC34=0
##$INTEGFAC35=0
##$INTEGFAC36=0
##$INTEGFAC37=0
##$INTEGFAC38=0
##$INTEGFAC39=0
##$INTEGFAC40=0
##$INTEGFAC41=0
##$INTEGFAC42=0
##$INTEGFAC43=0
##$INTEGFAC44=0
##$INTEGFAC45=0
##$INTEGFAC46=0
##$INTEGFAC47=0
##$INTEGFAC48=0
##$INTEGFAC49=0
##$INTEGFAC50=0
##$INTEGFAC51=0
##$INTEGFAC52=0
##$INTEGFAC53=0
##$INTEGFAC54=0
##$INTEGFAC55=0
##$INTEGFAC56=0
##$INTEGFAC57=0
##$INTEGFAC58=0
##$INTEGFAC59=0
##$INTEGFAC60=0
##$INTEGFAC61=0
##$INTEGFAC62=0
##$INTEGFAC63=0
##$L0=1
##$L1=1
##$L2=1
##$L3=1
##$L4=1
##$L5=1
##$L6=1
##$L7=1
##$L8=1
##$L9=1
##$L10=1
##$L11=1
##$L12=1
##$L13=1
##$L14=1
##$L15=1
##$L16=1
##$L17=1
##$L18=1
##$L19=1
##$L20=1
##$L21=1
##$L22=1
##$L23=1
##$L24=1
##$L25=1
##$L26=1
##$L27=1
##$L28=1
##$L29=1
##$L30=1
##$L31=1
##$MULEXPNO0=0
##$MULEXPNO1=0
##$MULEXPNO2=0
##$MULEXPNO3=0
##$MULEXPNO4=0
##$MULEXPNO5=0
##$MULEXPNO6=0
##$MULEXPNO7=0
##$MULEXPNO8=0
##$MULEXPNO9=0
##$MULEXPNO10=0
##$MULEXPNO11=0
##$MULEXPNO12=0
##$MULEXPNO13=0
##$MULEXPNO14=0
##$MULEXPNO15=0
##$P0=3.333333
##$P1=10
##$P2=20
##$P3=0
##$P4=0
##$P5=19.8
##$P6=30
##$P7=60
##$P8=20000
##$P9=0
##$P10=0
##$P11=80000
##$P12=80000
##$P13=1000
##$P14=0
##$P15=0
##$P16=1000
##$P17=2500
##$P18=100000
##$P19=600
##$P20=0
##$P21=0
##$P22=0
##$P23=0
##$P24=0
##$P25=270
##$P26=100000
##$P27=10
##$P28=1000
##$P29=1000
##$P30=0
##$P31=0
##$P32=20000
##$P33=0
##$P34=0
##$P35=0
##$P36=0
##$P37=0
##$P38=0
##$P39=0
##$P40=2000
##$P41=0
##$P42=0
##$P43=0
##$P44=300
##$P45=0
##$P46=80000
##$P47=46600
##$P48=10000
##$P49=0
##$P50=80000
##$P51=0
##$P52=0
##$P53=0
##$P54=0
##$P55=0
##$P56=0
##$P57=0
##$P58=0
##$P59=0
##$P60=0
##$P61=0
##$P62=0
##$P63=0
##$PACOIL0=2
##$PACOIL1=3
##$PACOIL2=1
##$PACOIL3=0
##$PACOIL4=0
##$PACOIL5=0
##$PACOIL6=0
##$PACOIL7=0
##$PACOIL8=0
##$PACOIL9=0
##$PACOIL10=0
##$PACOIL11=0
##$PACOIL12=0
##$PACOIL13=0
##$PACOIL14=0
##$PACOIL15=0
##$PCPD0=0
##$PCPD1=90
##$PCPD2=0
##$PCPD3=0
##$PCPD4=0
##$PCPD5=0
##$PCPD6=0
##$PCPD7=0
##$PCPD8=0
##$PCPD9=0
##$PEXSEL0=1
##$PEXSEL1=1
##$PEXSEL2=1
##$PEXSEL3=1
##$PEXSEL4=1
##$PEXSEL5=1
##$PEXSEL6=1
##$PEXSEL7=1
##$PEXSEL8=1
##$PEXSEL9=1
##$PHCOR0=0
##$PHCOR1=0
##$PHCOR2=0
##$PHCOR3=0
##$PHCOR4=0
##$PHCOR5=0
##$PHCOR6=0
##$PHCOR7=0
##$PHCOR8=0
##$PHCOR9=0
##$PHCOR10=0
##$PHCOR11=0
##$PHCOR12=0
##$PHCOR13=0
##$PHCOR14=0
##$PHCOR15=0
##$PHCOR16=0
##$PHCOR17=0
##$PHCOR18=0
##$PHCOR19=0
##$PHCOR20=0
##$PHCOR21=0
##$PHCOR22=0
##$PHCOR23=0
##$PHCOR24=0
##$PHCOR25=0
##$PHCOR26=0
##$PHCOR27=0
##$PHCOR28=0
##$PHCOR29=0
##$PHCOR30=0
##$PHCOR31=0
##$PL0=120
##$PL1=120
##$PL2=120
##$PL3=120
##$PL4=120
##$PL5=120
##$PL6=120
##$PL7=120
##$PL8=120
##$PL9=120
##$PL10=120
##$PL11=120
##$PL12=120
##$PL13=120
##$PL14=120
##$PL15=120
##$PL16=120
##$PL17=120
##$PL18=120
##$PL19=120
##$PL20=120
##$PL21=120
##$PL22=120
##$PL23=120
##$PL24=120
##$PL25=120
##$PL26=120
##$PL27=120
##$PL28=120
##$PL29=120
##$PL30=120
##$PL31=120
##$PL32=120
##$PL33=120
##$PL34=120
##$PL35=120
##$PL36=120
##$PL37=120
##$PL38=120
##$PL39=120
##$PL40=120
##$PL41=120
##$PL42=120
##$PL43=120
##$PL44=120
##$PL45=120
##$PL46=120
##$PL47=120
##$PL48=120
##$PL49=120
##$PL50=120
##$PL51=120
##$PL52=120
##$PL53=120
##$PL54=120
##$PL55=120
##$PL56=120
##$PL57=120
##$PL58=120
##$PL59=120
##$PL60=120
##$PL61=120
##$PL62=120
##$PL63=120
##$PLW0=0
##$PLW1=25
##$PLW2=0
##$PLW3=0
##$PLW4=0
##$PLW5=0
##$PLW6=0
##$PLW7=0
##$PLW8=0
##$PLW9=0.0001
##$PLW10=2.7778
##$PLW11=0.14793
##$PLW12=0
##$PLW13=0
##$PLW14=0
##$PLW15=0
##$PLW16=0
##$PLW17=0
##$PLW18=25
##$PLW19=0.30864
##$PLW20=0
##$PLW21=0
##$PLW22=0
##$PLW23=0
##$PLW24=0
##$PLW25=0
##$PLW26=0
##$PLW27=0.13717
##$PLW28=0
##$PLW29=2.7778
##$PLW30=0
##$PLW31=0
##$PLW32=0.000004
##$PLW33=0
##$PLW34=0
##$PLW35=0
##$PLW36=0
##$PLW37=0
##$PLW38=0
##$PLW39=0
##$PLW40=0
##$PLW41=0
##$PLW42=0
##$PLW43=0
##$PLW44=0
##$PLW45=0
##$PLW46=0
##$PLW47=0
##$PLW48=0
##$PLW49=0
##$PLW50=0
##$PLW51=0
##$PLW52=0
##$PLW53=0
##$PLW54=0
##$PLW55=0
##$PLW56=0
##$PLW57=0
##$PLW58=0
##$PLW59=0
##$PLW60=0
##$PLW61=0
##$PLW62=0
##$PLW63=0
##$PLWMAX0=50
##$PLWMAX1=0
##$PLWMAX2=0
##$PLWMAX3=0
##$PLWMAX4=0
##$PLWMAX5=0
##$PLWMAX6=0
##$PLWMAX7=0
##$PRECHAN0=-1
##$PRECHAN1=2
##$PRECHAN2=3
##$PRECHAN3=0
##$PRECHAN4=1
##$PRECHAN5=-1
##$PRECHAN6=-1
##$PRECHAN7=-1
##$PRECHAN8=-1
##$PRECHAN9=-1
##$PRECHAN10=-1
##$PRECHAN11=-1
##$PRECHAN12=-1
##$PRECHAN13=-1
##$PRECHAN14=-1
##$PRECHAN15=-1
##$PROBINPUTS0=<19F-109Ag>
##$PROBINPUTS1=<1H>
##$PROBINPUTS2=<2H>
##$PROBINPUTS3=<>
##$PROBINPUTS4=<>
##$PROBINPUTS5=<>
##$PROBINPUTS6=<>
##$PROBINPUTS7=<>
##$PROBINPUTS8=<>
##$PROBINPUTS9=<>
##$PROBINPUTS10=<>
##$PROBINPUTS11=<>
##$PROBINPUTS12=<>
##$PROBINPUTS13=<>
##$PROBINPUTS14=<>
##$PROBINPUTS15=<>
##$RECCHAN0=0
##$RECCHAN1=2
##$RECCHAN2=0
##$RECCHAN3=0
##$RECCHAN4=0
##$RECCHAN5=0
##$RECCHAN6=0
##$RECCHAN7=0
##$RECCHAN8=0
##$RECCHAN9=0
##$RECCHAN10=0
##$RECCHAN11=0
##$RECCHAN12=0
##$RECCHAN13=0
##$RECCHAN14=0
##$RECCHAN15=0
##$RECPRE0=-1
##$RECPRE1=0
##$RECPRE2=-1
##$RECPRE3=-1
##$RECPRE4=-1
##$RECPRE5=-1
##$RECPRE6=-1
##$RECPRE7=-1
##$RECPRE8=-1
##$RECPRE9=-1
##$RECPRE10=-1
##$RECPRE11=-1
##$RECPRE12=-1
##$RECPRE13=-1
##$RECPRE14=-1
##$RECPRE15=-1
##$RECPRFX0=1
##$RECPRFX1=0
##$RECPRFX2=0
##$RECPRFX3=0
##$RECPRFX4=0
##$RECPRFX5=0
##$RECPRFX6=0
##$RECPRFX7=0
##$RECPRFX8=0
##$RECPRFX9=0
##$RECPRFX10=0
##$RECPRFX11=0
##$RECPRFX12=0
##$RECPRFX13=0
##$RECPRFX14=0
##$RECPRFX15=0
##$RECSEL0=0
##$RECSEL1=0
##$RECSEL2=1
##$RECSEL3=0
##$RECSEL4=0
##$RECSEL5=0
##$RECSEL6=0
##$RECSEL7=0
##$RECSEL8=0
##$RECSEL9=0
##$RECSEL10=0
##$RECSEL11=0
##$RECSEL12=0
##$RECSEL13=0
##$RECSEL14=0
##$RECSEL15=0
##$RSEL0=0
##$RSEL1=0
##$RSEL2=2
##$RSEL3=0
##$RSEL4=0
##$RSEL5=0
##$RSEL6=0
##$RSEL7=0
##$RSEL8=0
##$RSEL9=0
##$RSEL10=0
##$RSEL11=0
##$RSEL12=0
##$RSEL13=0
##$RSEL14=0
##$RSEL15=0
##$S0=83
##$S1=83
##$S2=83
##$S3=83
##$S4=83
##$S5=83
##$S6=83
##$S7=83
##$SELREC0=0
##$SELREC1=0
##$SELREC2=0
##$SELREC3=0
##$SELREC4=0
##$SELREC5=0
##$SELREC6=0
##$SELREC7=0
##$SELREC8=0
##$SELREC9=0
##$SP0=120
##$SP1=120
##$SP2=120
##$SP3=120
##$SP4=120
##$SP5=120
##$SP6=120
##$SP7=120
##$SP8=120
##$SP9=120
##$SP10=120
##$SP11=120
##$SP12=120
##$SP13=120
##$SP14=120
##$SP15=120
##$SP16=120
##$SP17=120
##$SP18=120
##$SP19=120
##$SP20=120
##$SP21=120
##$SP22=120
##$SP23=120
##$SP24=120
##$SP25=120
##$SP26=120
##$SP27=120
##$SP28=120
##$SP29=120
##$SP30=120
##$SP31=120
##$SP32=120
##$SP33=120
##$SP34=120
##$SP35=120
##$SP36=120
##$SP37=120
##$SP38=120
##$SP39=120
##$SP40=120
##$SP41=120
##$SP42=120
##$SP43=120
##$SP44=120
##$SP45=120
##$SP46=120
##$SP47=120
##$SP48=120
##$SP49=120
##$SP50=120
##$SP51=120
##$SP52=120
##$SP53=120
##$SP54=120
##$SP55=120
##$SP56=120
##$SP57=120
##$SP58=120
##$SP59=120
##$SP60=120
##$SP61=120
##$SP62=120
##$SP63=120
##$SPNAM0=<>
##$SPNAM1=<Gaus1_270.1000>
##$SPNAM2=<Gaus1_180r.1000>
##$SPNAM3=<>
##$SPNAM4=<>
##$SPNAM5=<Sinc1.1000>
##$SPNAM6=<Squa100.1000>
##$SPNAM7=<>
##$SPNAM8=<Squa100.1000>
##$SPNAM9=<>
##$SPNAM10=<Sinc1.1000>
##$SPNAM11=<Sinc1.1000>
##$SPNAM12=<>
##$SPNAM13=<>
##$SPNAM14=<>
##$SPNAM15=<>
##$SPNAM16=<>
##$SPNAM17=<>
##$SPNAM18=<>
##$SPNAM19=<Sinc1.1000>
##$SPNAM20=<Sinc1.1000>
##$SPNAM21=<Sinc1.1000>
##$SPNAM22=<Sinc1.1000>
##$SPNAM23=<>
##$SPNAM24=<>
##$SPNAM25=<>
##$SPNAM26=<>
##$SPNAM27=<>
##$SPNAM28=<>
##$SPNAM29=<Crp60
##$SPNAM30=20
##$SPNAM31=20.10>
##$SPNAM32=<Bip720
##$SPNAM33=50
##$SPNAM34=20.1>
##$SPNAM35=<>
##$SPNAM36=<>
##$SPNAM37=<>
##$SPNAM38=<Rsnob.1000>
##$SPNAM39=<Gaus1_180r.1000>
##$SPNAM40=<Gaus1_180r.1000>
##$SPNAM41=<>
##$SPNAM42=<>
##$SPNAM43=<>
##$SPNAM44=<Gaus1_180r.1000>
##$SPNAM45=<Squa100.1000>
##$SPNAM46=<>
##$SPNAM47=<>
##$SPNAM48=<>
##$SPNAM49=<>
##$SPNAM50=<>
##$SPNAM51=<>
##$SPNAM52=<>
##$SPNAM53=<>
##$SPNAM54=<>
##$SPNAM55=<>
##$SPNAM56=<>
##$SPNAM57=<>
##$SPNAM58=<>
##$SPNAM59=<>
##$SPNAM60=<>
##$SPNAM61=<>
##$SPNAM62=<>
##$SPNAM63=<>
##$SPOAL0=0.5
##$SPOAL1=1
##$SPOAL2=0.5
##$SPOAL3=0.5
##$SPOAL4=0.5
##$SPOAL5=0.5
##$SPOAL6=0.5
##$SPOAL7=0.5
##$SPOAL8=0.5
##$SPOAL9=0.5
##$SPOAL10=0.5
##$SPOAL11=0.5
##$SPOAL12=0.5
##$SPOAL13=0.5
##$SPOAL14=0.5
##$SPOAL15=0.5
##$SPOAL16=0.5
##$SPOAL17=0.5
##$SPOAL18=0.5
##$SPOAL19=1
##$SPOAL20=1
##$SPOAL21=1
##$SPOAL22=1
##$SPOAL23=0.5
##$SPOAL24=0.5
##$SPOAL25=0.5
##$SPOAL26=0.5
##$SPOAL27=0.5
##$SPOAL28=0.5
##$SPOAL29=0.5
##$SPOAL30=0.5
##$SPOAL31=0.5
##$SPOAL32=0.5
##$SPOAL33=0.5
##$SPOAL34=0.5
##$SPOAL35=0.5
##$SPOAL36=0.5
##$SPOAL37=0.5
##$SPOAL38=0.5
##$SPOAL39=0.5
##$SPOAL40=0.5
##$SPOAL41=0.5
##$SPOAL42=0.5
##$SPOAL43=0.5
##$SPOAL44=0.5
##$SPOAL45=0.5
##$SPOAL46=0.5
##$SPOAL47=0.5
##$SPOAL48=0.5
##$SPOAL49=0.5
##$SPOAL50=0.5
##$SPOAL51=0.5
##$SPOAL52=0.5
##$SPOAL53=0.5
##$SPOAL54=0.5
##$SPOAL55=0.5
##$SPOAL56=0.5
##$SPOAL57=0.5
##$SPOAL58=0.5
##$SPOAL59=0.5
##$SPOAL60=0.5
##$SPOAL61=0.5
##$SPOAL62=0.5
##$SPOAL63=0.5
##$SPOFFS0=0
##$SPOFFS1=0
##$SPOFFS2=0
##$SPOFFS3=0
##$SPOFFS4=0
##$SPOFFS5=0
##$SPOFFS6=0
##$SPOFFS7=0
##$SPOFFS8=0
##$SPOFFS9=0
##$SPOFFS10=0
##$SPOFFS11=0
##$SPOFFS12=0
##$SPOFFS13=0
##$SPOFFS14=0
##$SPOFFS15=0
##$SPOFFS16=0
##$SPOFFS17=0
##$SPOFFS18=0
##$SPOFFS19=0
##$SPOFFS20=0
##$SPOFFS21=0
##$SPOFFS22=0
##$SPOFFS23=0
##$SPOFFS24=0
##$SPOFFS25=0
##$SPOFFS26=0
##$SPOFFS27=0
##$SPOFFS28=0
##$SPOFFS29=0
##$SPOFFS30=0
##$SPOFFS31=0
##$SPOFFS32=0
##$SPOFFS33=0
##$SPOFFS34=0
##$SPOFFS35=0
##$SPOFFS36=0
##$SPOFFS37=0
##$SPOFFS38=0
##$SPOFFS39=0
##$SPOFFS40=0
##$SPOFFS41=0
##$SPOFFS42=0
##$SPOFFS43=0
##$SPOFFS44=0
##$SPOFFS45=0
##$SPOFFS46=0
##$SPOFFS47=0
##$SPOFFS48=0
##$SPOFFS49=0
##$SPOFFS50=0
##$SPOFFS51=0
##$SPOFFS52=0
##$SPOFFS53=0
##$SPOFFS54=0
##$SPOFFS55=0
##$SPOFFS56=0
##$SPOFFS57=0
##$SPOFFS58=0
##$SPOFFS59=0
##$SPOFFS60=0
##$SPOFFS61=0
##$SPOFFS62=0
##$SPOFFS63=0
##$SPPEX0=0
##$SPPEX1=0
##$SPPEX2=0
##$SPPEX3=0
##$SPPEX4=0
##$SPPEX5=0
##$SPPEX6=0
##$SPPEX7=0
##$SPPEX8=0
##$SPPEX9=0
##$SPPEX10=0
##$SPPEX11=0
##$SPPEX12=0
##$SPPEX13=0
##$SPPEX14=0
##$SPPEX15=0
##$SPPEX16=0
##$SPPEX17=0
##$SPPEX18=0
##$SPPEX19=0
##$SPPEX20=0
##$SPPEX21=0
##$SPPEX22=0
##$SPPEX23=0
##$SPPEX24=0
##$SPPEX25=0
##$SPPEX26=0
##$SPPEX27=0
##$SPPEX28=0
##$SPPEX29=0
##$SPPEX30=0
##$SPPEX31=0
##$SPPEX32=0
##$SPPEX33=0
##$SPPEX34=0
##$SPPEX35=0
##$SPPEX36=0
##$SPPEX37=0
##$SPPEX38=0
##$SPPEX39=0
##$SPPEX40=0
##$SPPEX41=0
##$SPPEX42=0
##$SPPEX43=0
##$SPPEX44=0
##$SPPEX45=0
##$SPPEX46=0
##$SPPEX47=0
##$SPPEX48=0
##$SPPEX49=0
##$SPPEX50=0
##$SPPEX51=0
##$SPPEX52=0
##$SPPEX53=0
##$SPPEX54=0
##$SPPEX55=0
##$SPPEX56=0
##$SPPEX57=0
##$SPPEX58=0
##$SPPEX59=0
##$SPPEX60=0
##$SPPEX61=0
##$SPPEX62=0
##$SPPEX63=0
##$SPW0=0
##$SPW1=0.000020754
##$SPW2=0.0000092239
##$SPW3=0
##$SPW4=0
##$SPW5=0.0072087
##$SPW6=0.0001
##$SPW7=0
##$SPW8=2.5e-7
##$SPW9=0
##$SPW10=0.0072087
##$SPW11=0.0072087
##$SPW12=0
##$SPW13=0
##$SPW14=0
##$SPW15=0
##$SPW16=0
##$SPW17=0
##$SPW18=0
##$SPW19=0.00001472397
##$SPW20=0.00002288794
##$SPW21=0.00001068705
##$SPW22=0.00005763436
##$SPW23=0
##$SPW24=0
##$SPW25=0
##$SPW26=0
##$SPW27=0
##$SPW28=0
##$SPW29=0.095493
##$SPW30=1.7778
##$SPW31=0
##$SPW32=0
##$SPW33=0
##$SPW34=0.00010084
##$SPW35=0.0000092239
##$SPW36=0.00059033
##$SPW37=0
##$SPW38=0
##$SPW39=0
##$SPW40=0.0000092239
##$SPW41=2.5e-7
##$SPW42=0
##$SPW43=0
##$SPW44=0
##$SPW45=0
##$SPW46=0
##$SPW47=0
##$SPW48=0
##$SPW49=0
##$SPW50=0
##$SPW51=0
##$SPW52=0
##$SPW53=0
##$SPW54=0
##$SPW55=0
##$SPW56=0
##$SPW57=0
##$SPW58=0
##$SPW59=0
##$SPW60=0
##$SPW61=0
##$SPW62=0
##$SPW63=0
##$SUBNAM0=<>
##$SUBNAM1=<>
##$SUBNAM2=<>
##$SUBNAM3=<>
##$SUBNAM4=<>
##$SUBNAM5=<>
##$SUBNAM6=<>
##$SUBNAM7=<>
##$SUBNAM8=<>
##$SUBNAM9=<>
##$SWIBOX0=0
##$SWIBOX1=0
##$SWIBOX2=3
##$SWIBOX3=0
##$SWIBOX4=0
##$SWIBOX5=0
##$SWIBOX6=0
##$SWIBOX7=0
##$SWIBOX8=0
##$SWIBOX9=0
##$SWIBOX10=0
##$SWIBOX11=0
##$SWIBOX12=0
##$SWIBOX13=0
##$SWIBOX14=0
##$SWIBOX15=0
##$SWIBOX16=0
##$SWIBOX17=0
##$SWIBOX18=0
##$SWIBOX19=0
##$TD_INDIRECT0=0
##$TD_INDIRECT1=0
##$TD_INDIRECT2=0
##$TD_INDIRECT3=0
##$TD_INDIRECT4=0
##$TD_INDIRECT5=0
##$TD_INDIRECT6=0
##$TD_INDIRECT7=0
##$TE_STAB0=0
##$TE_STAB1=0
##$TE_STAB2=0
##$TE_STAB3=0
##$TE_STAB4=0
##$TE_STAB5=0
##$TE_STAB6=0
##$TE_STAB7=0
##$TE_STAB8=0
##$TE_STAB9=0
##$TL0=120
##$TL1=120
##$TL2=120
##$TL3=120
##$TL4=120
##$TL5=120
##$TL6=120
##$TL7=120
##$TOTROT0=0
##$TOTROT1=0
##$TOTROT2=0
##$TOTROT3=0
##$TOTROT4=0
##$TOTROT5=0
##$TOTROT6=0
##$TOTROT7=0
##$TOTROT8=0
##$TOTROT9=0
##$TOTROT10=0
##$TOTROT11=0
##$TOTROT12=0
##$TOTROT13=0
##$TOTROT14=0
##$TOTROT15=0
##$TOTROT16=0
##$TOTROT17=0
##$TOTROT18=0
##$TOTROT19=0
##$TOTROT20=0
##$TOTROT21=0
##$TOTROT22=0
##$TOTROT23=0
##$TOTROT24=0
##$TOTROT25=0
##$TOTROT26=0
##$TOTROT27=0
##$TOTROT28=0
##$TOTROT29=0
##$TOTROT30=0
##$TOTROT31=0
##$TOTROT32=0
##$TOTROT33=0
##$TOTROT34=0
##$TOTROT35=0
##$TOTROT36=0
##$TOTROT37=0
##$TOTROT38=0
##$TOTROT39=0
##$TOTROT40=0
##$TOTROT41=0
##$TOTROT42=0
##$TOTROT43=0
##$TOTROT44=0
##$TOTROT45=0
##$TOTROT46=0
##$TOTROT47=0
##$TOTROT48=0
##$TOTROT49=0
##$TOTROT50=0
##$TOTROT51=0
##$TOTROT52=0
##$TOTROT53=0
##$TOTROT54=0
##$TOTROT55=0
##$TOTROT56=0
##$TOTROT57=0
##$TOTROT58=0
##$TOTROT59=0
##$TOTROT60=0
##$TOTROT61=0
##$TOTROT62=0
##$TOTROT63=0
##$XGAIN0=0
##$XGAIN1=0
##$XGAIN2=0
##$XGAIN3=0
##$TITLE_FILE=Spintropy Username asu_chm343
2023_06_04_AcAc_MeOH_1H_1Scan_Temp_Bruker400
3 mm FS NMR Tube, AcAc in d4-MeOD
1H, 32 Scans, 60 s Delay, Bruker 400 MHz NMR.
Temperature - 308K 3 of 4

##$observeFrequency=400.13000841166
##$brukerReference=400.13000841166
##$OFFSET=-1.978788749517076
##$SW=19.4639278408014
##$BF1=400.13
##$NC_proc=-12
##XUNITS=HZ
##YUNITS=ARBITRARY UNITS
##XFACTOR=0.059419874551527904
##YFACTOR=1
##DELTAX=0.05941987455173603
##FIRSTX=0
##FIRSTY=31803
##LASTX=7788.222377343314
##MAXY=381200701
##MINY=-555146
##NPOINTS=131072
##XYDATA=(X++(Y..Y))
131071C1803m3926m7358j9929J3251K8287K0838M37j7544j8166M37K1264K5729J4376J544n096p569n514L153J0483
131052F500L884j2646j6293P831M5692O6997N4896J9446j4436k8734k4289j4567r885j0157j1694j3555j3914q143
131034B6933K674P804j5j2203j3881k343J2140K0106J8630P260j1405k8499l5352l2053k2938q122J0954K2500J4376
131015b3434p414k2107j7581j561J0265Q818m273j8110k0145j1279q931k3686l8537k7503P967L9393M8155M2801
130997f7162L6932L0539K1299J5675J6829J5337L950r180j2433o317J771Q641J2461Q858q73p090o277q432k0580
130978C3948l2678l0499j4394M455J7918K2261J5600M005m55K067m430k4950l8253k6274m715j011j1902j0068J1744
130959h7631L2062L6912L5595L3693J8736j3402m1571m7037m0523m2130m7411l4773l25L4000M6099L3161O687j8279
130941i6137k7777j4796J3926M1353N2429M2216J6689r739k2185j8068r377p220r198q598q584j5532k2639j4414
130923a17651J1701M0069N5126N4466M2555K4034P744N218J7052K8805K7693J6516M710o666k2589m2242n7383n8935
130905C0223m0800n089L0083L8805J5634j2339j5975k79O110p533k3384k5328j7389p203N980J6256N895k6896n1584
130886h4813l8306K096L2096L5193K7712K5549K3188J1587l020r259p085m111m143p532j5413k5415k8901k0259n300
130867i6136O016J2443K1032L5003M6739M4144K3480l899j9831j7356q070o779j2380j2442m733j901j1384k2121
130849b8175j8915l177Q451K743j7695l6965l7447j3979J8779L7224L1067J1382n063j2509j3544q193O107K7370
130831e2539M8109N9313N2986K7385n848k7474l0447k6840k7934k6879j3101M083L448j7467l5721l0524n042K3093
130813h1399M1195M5516L6014J5900p736k7505l6364k5573O769M1006M3579K511n1214p1451m4972j425K3150K1150
130795g0849J0427R211K0744L5190L9222K7260Q192k692j973k584j4577k8253k6735j1701l498j3575k8920l0145
130777h5256j5759L2P138O835K283o788j7825k2116j2760P303K7909M0253M1727L5138K5402J5937O827l598j5879
130758C6803k8568l9008m3982m1146l1298j8128n021N946J2168J2043R526J1731J9090K3484J9917J3791J1345R662
130740b1645L736l128n869r335k0890l3800l1821j1982R439J7934J8040K4142M0846N7732N9906M1123R368j9660
130722A24136l6504m3058m2214l0503q397J0953J6091J4081J8222K4438J8256K237n093P85L402o623j7723j8990
130704B3496j4993j0025P62J2271L408l2161o6524o7608l5451O980M2856O3239N7600K7340l092j2946j3335k4923
130686d3106l8738k8829K067K1884J5829L905N896J5270J7132R986j65q565o692J2708L7127L9751J3826j5102k1623
130667C2561r281L313Q392P529j492k0162l9725m8483m2514k2502Q630L6130L5859J679l8193m7088j7598K6849O0180
130648f5916P0576N7149K7712L05p967R45O237r214l9195n8327m5673n959L3057M7573L9747K7096J6540L506o683Q58
130628I2367K2692L2453J7349j414k654Mj7599m6252n4938m0022l0025l9396m8889m1423k9175k8987l3631k7692
130610b77232j5754j2662j5717q864Q816J9162J1276m105j0895o288J682N554K547m918p831L056K3924L7681L4545
130591b16023K7359L6163N9261P1199N3163J6176j2794k1234j8368j5712j2471l798O386R704O976Q064J5891J7941
130573B7883R64k7406m0955k4695L454J1778m685j6737j103K6136L1694J1561o663o668l713j2921k0232l596L1577
130554b4327N9336O7054O1165M4720J3916k1525l8842l1889k0802k1341k2769j0792L695q81k3195m1681m6766m8655
130536a03579n1898m3488j3878K6533O0608P9982P8328M5822j2939o6128q0444n7522k8196j1988l58J8024L6068
130519a25053M2694M2854M7902N4473M7853K3443p330l1098m1967l7504j6552J5405M5589O2061N9958M1288J5015
130502B39031l575k525J4014K8047K5833R536j0867l0978n1877p0209p5734o1223l1790j121K1032L3948L7731K7210
130484I6483K625j8034j2401J6528L8304L1466Q652p502j9116m1968o7959o7140l1380R036K3047J3356J015n681r430
130465d0099o181Q257K0662J1710j4788l2025k3210L3J7060K3557K9968M2604N3965M9552K1766j9619n0903n4920
130447C7389l9703k9773l6176m3600l3034r266M642k607j6920j6593M846L5831N7672N3773J8647l0713n8236l8463
130429a42284J5021O0947P1640N3207K5820J463j2567p450J3588K7907J7900n132j9184k5529m2222o7400p4166m6319
130411a54760J115M1599N8018M1539n024n2981o1828k4703J8744L1209K0919J7475K4747K5145J7933K0902L5262
130394E5311L7526J3172k2018m2106l8169j9860k455K408o874j9805k3971j7381n065J0985K6963K7967J122m0988
130376f3238o5929n5169k0813J3684L7039N1175O1062O9058P1243N7773K6104o900j9422j2651r887k4677m5402n6912
130358F138o0766o4219o4064n4971m3267l7922l4141j8896J0833M5883P7476J01195J10272R6119N9282J4796j6933
130341A26815k5261j6879q166p493o585O137K6576L7654K9661Q303j6675l8780n0196m4751k9401j8075r251J3181
130323b3186M8596O8854N4094K2795O943J0319J3446R673R641J3061L433k3891n0542o0118n6522m9352l7538j7924
130305e8218L661K0968L6048M9013N0041L4383J6777J5864K7676K8986Q183j8695k7156j2675N422O221j0575k6493
130287A49431k7430k0296k1592l2477l5476j8621P343K3312K5596K4696K4513J5972n694k7683l1807j6622j37J162
130269C4190q545j0673L473K0763K2251O529r661j2054k058J0326J7137J3062m555k8992m3207l3050M26M3475P7699
130250I6536Q3949N1375o544n3320n9618k9047J3270M8213O6586N7996J9200k8677n4290n0942l7787k3939L147M3804
130232A39912O7341M8589N695k2715k7604l2313n0315o5204n6150k4005J4447M4556N9929O0548N0977L5864J6308
130215B65860m789j8082j8027j4675k3342m3177n7151n3315l5008j0701J3545L0089L1549K0903J0115O187P336J2516
130197A19833K2415L0069K4246N834j0947j6018j0142N378K8264M1974K4220k0907n7191n5774k6839j08J1729J5986
130179A32022J9262K0867J9269J1401p554l2039m2936k9210m079J3018K0676K7750L2236K6213J4279P848M852p371
130161B26504l1466n7651p8211q8768p9661m4561L076L8326M9274M0642J9565l671o860K6038P4954R5482O8477J9855
130143B71344j5353k9414l3893l4609k9262j8198m439J0380K1938K2386J0033p166k1590l0608k8926r575K0559L8806
130125A32413L0901R372j629N637J7208J6022p75k0774k8945k2664j3613j1999j3787j1193r102j6952k7370k1296
130107A1454J992J6347j419m3436p8469q0309m6977j165K7687L0954K7937L4638L4646L192m5008o2569k9774K0542
130089a79737M8374M8870L5843J3387j3138k2467k546K4493K8034Q425j1371k0555k2768j5672L897K1176J7495M96
130071c7764m431Q544K1114K3001K3532K7978K7198J8606J5719K5388L2095J8301j0050l0183k9157j5102l701N31
130053A11619O440J8426K1778j272l8715n1072k0241K0206K4219q659l8287l9073k2231m974J1860K8124L3152K3884
130035G5184J4866J6345J7950P590o244n816R641K1487J2129j8238n0615n9265l2641J2616M4375M4998K3513p70
130017A27105j6119j9167j1055J586J0664J5495K0271K3291J9305J1051M422o122k8134m6228l0606K0322O8220P8826
129999B43127N7920K9389L9l1839n2138m4695k0020k832L406J2085J8098l00l9241o1319m4779j4141j934k515Q872
129980E7183K6144J6335k6202o0987n0065m585L3129L9345K3561M900m263M613L1466N5331M7901J0797j6711j868
129962A86024M0599O6777N4674K1145o393j6619j3373n862m666j4906k7677k6985r059J1808J7761J593l0638o1161
129944A83042o7358m1003j897J9620J4505j778j5113k4948l1077k8683k1031j7588j4000L823K7368K3392j8870o1939
129926g3535o4848l5035q911L758K3048N3399P0408N8593L4115J9760J8154J9049J4731j087l1695o2500o3607k3308
129908d9511L0260N5672M1539J1858p356j3654k0203l3777m7428n1912m8000m3642m1211l5197k5326k2105k9617
129891c29610l0805n329M0402P7407Q8888Q3149O8957L9968m519m2680n3238m3777l6818l6144k7792r027P337J7753
129873a95878L3082N2740N6792L6295J2003N536P291n837l0944m2075k9585j1294r58R268K4167K6898N335j8512
129855f5676j0810K7020N6633M9858J8385p338j0877M951K7922M0472K8747J568j0537R904M1685M9639K8093K090
129837B81729j0190j5324k3923l3531l9873m7056n4560m8255j9415J6225L3346K6189R660n313k3039m8048p0563
129820g1941p3043m8015q723J6479N931l1991o1878n6300k3608Q814L1621N5735P9974Q1464M9495R612m330Q580
129802c2124K1317J9043J4593K2814L7041L9034K2915J126j0338q403m651r858j7128p305K3790N1996M9826J9767
129784B33455j0699k4534k9119l3041k7415j418L5200N8658N6809L9189K2779J4412P723n757k4194l6196l5316k8579
129766B11957k5027k2265j4828r729j7246k8232k0246R754L7954M5789M0763L5807K7832J1538l410p912j1811k6134
129748B34554l8811l1248j1353n366j9194l0820k2474o88J8150K4860J8023L682l381O836K3772K8948K2861K0454
129730B38805K0633M599k9721n6346n6945m6598m7118n1878l8434o031K1583K8766K4680K4221K7184K4954J9756
129713A02110K4730M2231N1543L0230j3474m5071m7368m2551n4665o6116m0037J8788N8785M6473Q431q329M344J7932
129695H7986J3441q36j3339k6347m2603n0839l6965n015K3173L2115L0380L6370M9383M8262K2926q763k6966l7099
129677I5264n2948o6234n8031l2661j2870m466O848K5152L9613M8709N6649M6596j645o0766p0012j9393K5354J0697
129659b4144l3479m6836k4108j365J2037L2171M8952L3914m120k4086j7281j7670l8254m4792j1916L5344O0862O5428
129641F57O7998O5785M5907K1077J9796M3250N8882M2267O368k0193l0637m1187n8968o7292n2318l0101k6857l8039
129623F395l2696k173K3077J6653j0065l3143m7048m8644k0523L5757P4434N5436M144k2006j5133j6717m0418m9433
129605a22103k1327J4040K2045R341k24k597l046L650J9658L2492L4807L4083K9007L871l5752n1404k1127K3284
129587c1302L5300J1647j3521j5457M780L5678O1653O4683M1460J0503j2968l4526n7117o0743k9576J6950M5551
129570G2995M8236L6180J0839k9041o3813o9244n1350l6101k9419j6590L335J4880J7728K8378M5689M6511K4913O465
129552F0591R857K0306J7775Q544P327O161j2373l9534m5571k3223k639j0177k7918j5436L0325O0602L3745k7564
129534E0798o1293m2484p035M982K38R173L5104N1779M1483J3887q348p570J8027M7462N0312K1212j0674k1624k5314
129515A60115m2127n5169l1552K0838N5380M6727J4984j3827l6334n0989m3593j3393J2307J1116n298j3219j0339
129498E627q282p692k622Q97p520k1654k3731q379J3037L0001M1863M9581M9114L5235Q108k1756l4330j6098J8388
129479I9787L2612Q109l0081m2858k6477j4146k7583m6455l7182p1K8543K0153j3738l9174l9710k7187j6784q420M99
129460a80163o70k1825m8715n2352k3733J6592M7476O9167Q7518R2426O9959K9376n82m029P818J8441K6822L5529
129442A69055L0726m593n7094q4322o1502j2626K0560K7692K6406K0502n632m7767p1674n8428l1909k0313j5888K31
129424a76576J6568J0341p316m932J6527K4554R522j488O711J2703k865k6266l5935l0594j4560J6841N6060P3955
129406e6750N7487L4872L5895M7061L6807Q514q283j1027k9176p2734j10406j11479q3539n3315k9487k906K7487
129389c20979M8000M9137L9196L4637M1029M7664M1541K3556P048K334Q575J8754K3547J1433k0991n5876o6676n0249
129371a18320l0362k0931o395K5491N2850M9052K8992L1676N9045O7983L3716r469j1843K6488N7750M6074M020k9987
129353B55830l3946j7019l140q454l1234n6288o7112n7335l4174j0588P474K4353M2613N1932L8828P854j7076j7568
129335G4950n50J1030J045k8799o1408p2592m7724L70L7991M4430L2258K4764K3104J0860j4162l0992k1827M643
129317a2609K2044J3816j0158k3267j1120Q834N035k7839n8989o0190l9714k2824j2245Q497L8253N1610L4668P028
129299h9170k038J3270L4322M0863K7973P290l078N521K2931K9402J4016j8021n1582o9824o2862l7196j1826K429
129281a47580J2167K2007J9472m675l3310m2385l4981l0117k3454Q361O0823R2632P7845M0557J9595J9029J3320
129264F9306j2902m8828p1646o2580j8725L7645P0435O3029L3485Q981l384j1284j7712k1560k6189l1849k8488j0786
129246h3052Q446J4661J2418J3730J4636L180j4879k0327j0651n924j9738m0203m6380l1794n209K2689M6471O4667
129228g7259P5251P0371L8353k0512q0267j02653p2039j3601K8824L2897J3786J811R214K2801K6103J8700R275j1
129210a8956j0929j8749j9899k5135m5235o4192n0299o88M7581O2002M9631L4802K3981J1726K012l34m830j7439
129192d4950k0566J560K7928K2727j2275l9797m1541l6169l5858k0680K3933P1564Q4088O2452M1995M1704M1655
129175A67770J6368k5467m7748l0647M419K1652J5990J4826L2483M4967K5534j3458l9620m9446o6743r5458j08627
129158a33205r1666o4845m7584k7860J0920N2356O1761L0169j5493m1082l0338J1173O0942R0219Q2197M2589q140
129141a7887m7089n5845l2370k243M58k4333l6232o055M2852O5835N5066L9118L2650J9419j0246l5484l4065j4887
129123f1338k169M63R457K9097M0059K5643m823k8852l8247m0395l6275j5465K0783M8461M8287L4243L5716N5757
129105A20402O8070N6216L3882J9854J3406N509l512j1599k5493m7920o5811o7418o2051o6320p6889p2665m1272Q240
129087b15371N5182Q0201P5199N0733K7422J2191o249k9330l3646l005L8225M8305J8384k2531m6890m9651l4665o644
129069d2140K1896L8892M9803O4928P1397M5726k423k9991j5078J5731K8114K0821P969j1956m2425o3874n3466k0312
129051H3612O579J9483L3609M9485M2603j054o0270j00589j07439q8158n3625j0736L1811O1285O6959M7012J1097
129034C1664k3359m0873l6309j4146J7246M7305O4029O1386M5648K6881M381k9612o8822q7594o7298k1867J5804
129017g5536L1236L8230M9067N2373L4012P646K190J9285K5018o733n8918r2000q8167o0383k7164K432K1867K5505
128999a00040J9771K1750L7657N0225L6275m027m0126l7424N098M5478L7794j5304o1625n9849k6353o441j2794j7136
128981a27071K746L4850N4507N1111K8328j565j7708n691J9447K3819l690l8453n5203n4635m5924k7544j633J5234
128963a49075J6929K4862N6262Q9781Q9341N3468J4599o687k0329l7879m9364l9250j1168J4439K2722J8750J8880
128946A06281K7374K5481o535n7541r1917r2125p5815o1031l7303R037N9146P7385N4067J1099k6465m4159l4828p558
128928a65407P391j0310l8010l3743Q905N4042O9307N3056J8867j7560l5555k5130j0371k5801o2255o9598k5635
128911c07807L1087N5381N0313M3806L9842K6529J3476K3424N1444O3851M1177Q35k6802k9791j9566j5932k8956
128894A2311m9593n9988n5321m6094l4408m118N1509J05380J18454Q0562J5652m5272q0852p8681m1582M803K9174
128877g8064K3824N972p613j2380l811K6156P1875J05827R9242M9172j6817n9578n5374j4601K4448K8652J83l0553
128859A56560m0215l2125k1205j1864J076J5521J7091m010l3498l8379k40N7908Q8478O7341J6449k5160m0812l8518
128841A34398k8593j6599j1068j8187k9258l0404k5561l2023m9202n1008k0905J9260L1699Q797j7741j4855J6079
128824a35171M6770N6941N0195L5042N567m3759r0118r2839m2073K0534M6939L7139K8901M1592N6534N4997M8392
128807A25583N5938P0063O4164K9243j3792m0107m7982n3364o1570n4878j6713L6214O3682N2118L6895N4435Q5090
128790C85019P4336R945n5371o9948m2907j9190j9310k9739l6280l7065k9652j3104j597j1477l3566m0821k5992r171
128772e890l506K899K1086L8912L8877K1813j218k5167m3627m0528j0030K4093K9473J196l9585p5583j00977j04681
128754b72443p3196j5126L9208P0254Q3279Q4698O7284L0941l293j7872k1007k5017j8029J7290O5211Q5565O3003
128737A60750K5167N960Q343J0615m281l3042n5899n1667j7893K1579L7947K7231R285o44m960q514q499n103o406
128718A09969j4525j9567j4078j623J4038L3671N0388M9823L2288J8422K0477K3711J0710j0532j9970j4762p100k444
128700B58896J843L675p76p726j4422k8024m9272n8298l7874k501J8329J8654J4113R300l213j4616m470K1420L0015
128681A55053Q526j6638k2144k0285k9998m1022l2281p882J1959K3805L8019M9520L8799M503k6465k9178q931P061R8
128662A02519k0798k8178p311K0821J7018k8972p8960q5440m2757J3628N1755O9573P8139P7506N8256J8352k8826
128645A86325o0878o1269l4264n466K48j6042k9787k2020J108K0426K6351K1230N141k6026o3440p7966m5239K1034
128627a60534P3653P7939M6366J9774K0758L6385M2553L1347J2601O6N30R442J4217O712q236k1940l4546m8664n6115
128608F2308m6426k5842j0625k669Q019J6507M206k6108m2948k7482J040J7356K4198L3540L6481J9768l890j2368
128590B5065j0412j8451l1515k1776J6810N5209O5850M9529K2320k394j4687j1835n830q987j1898K939K6411K9321
128572A55669P452r372k346J1593J2702O162j033k1535o0231q8646p6162l1513J3446M6425P3027Q6472P3147M2625
128554B37882J9012L565k1933n2675n6792k5281M984k603l6964n8028m7089j8377Q479K6153L2434K2525o309m6312
128536a7329p5148o3950m191O8412R5350N6926J6j5043J3320L2541R475k9641m2045k5151r169q805r142K926J8899
128517a749K8044L6447N1133N7331L1359k5035p9688j03283r5326p2431m4355j2175J9883M5268O3488P4430O7782
128500D1123L4763q591k8709j3955Q354P303j1462j7961l143Q154r235n0397q7585r4787o1886j60N7342P4366M4812
128481a11654J880j6726o927Q622J6874K5928M1784N3238M7869K9848J2008n80r256j1562m476N221N502n137j5288
128462F7168j5560q210j98M837L788q001k7945m0848l3305j2695p44m432l428K4566P1329J01782R0233M4905m137
128443B49105l2426l3744j5610Q906K8154L7020L4844J8862j2243m5624n7844m1745j9443j3840j5806K45L2208M7482
128425A68501K9337O81j1906j5132k8799m6037m2521j9182n748j6738k9283j6957J3065L2570K9776J6515M422o955
128407E5609j6741j4529M450K5349K7229Q323j2830k2536k7195l8143n1711n5528m8007l7401k5110p614M232r642
128389b41795m3526n7376k4110K7787M4134J2969k2957k4249p60J1771J990p735N415L6896O0235N3530K0989j0003
128371a56795j6252k861N983j258j1791j0234J094R789R643J002j4525k9020k6812j532K9249L8172J6132k0286m4976
128352b25278l9019K40N3125Q4680P3045L2833L95l369J4719M0231O4434P4669N3161N79n0945o5356m0153n643R571
128333G1919K197j1799j3543O675L9015N4155K8938k1669n2495l8626o026K722j6733l0554j8209J634M838j743L334
128314D030J7491J6311q181l2972l2814q455J9604L3764L0819K2115K7297N5697Q6910Q2689K8743m4978r5879j09815
128296I2376r8160o8068j9932K9514M9496L0937J180r603k702K011O94P293K4856L5669K5552L454j1734j4130j0996
128277F7707p014l30P685J0614P394N185P249N686o895k3910l0826k2388p512O07o002k5219m0685k8168J8574O8501
128257B53P7127L6610j1729k3862N43K8164L4627K0849k786k7135m1093l6885k1560r034K62J6618L7126M3704L1308
128238A53107J8681J9254J8537j797k9420l3082o196K1055J7724j2988m0608m0804j7018N977O715j2013k6597j9761
128220B0766r27P031j911j0609l672J2392J9308Q978j1491l0437l8873l0778o317K2863L8550L1675J2414J651J1485
128201E2098L4483N1482M8379K4913j0048m7489q1354j06009j13679r5627m9345J0320M9735L8942j5397o6226o7415
128184c42237j9424L3595N1560L5434J7605K5314N6065Q0980O9438J7911m2102p0918n7893k5989o63J3337K1508
128167a36479K2646J4051K291n173j1156j7489j0184K5150P4390J00612Q4105M2803P221j1611k1267k7576k9050
128150A03284k6851k7143l1171l0651j7435M904K3031K7888K3709J9815J6592P401n525q759K757J5178J5044Q723
128132A20791Q551R213k661k1151k6577j8143j6630k9271l6029k1462R94R569M48j9424m6150o9337o8213l7453m15
128113b63350K3709M6759P9307R1877M8494k8740p2189n2115r296P999L080N042J4886R597j5251l7912m1640l0248
128095b19991j2142J2176M1647O4891O5286L4779j4922n3838n5025k1320J5012K6124J6314R990J9627L4951L8740
128078B299K3835k497k2766k0685L447L0237M0661L5933L1239L1984K5957K331k8155m0468k5168m821j0038l8268
128060C5057n1503k6051J0271J2480j8888l9011k3358K944J1903J4243K8994M0518K2656j0039j5829J2217L5063
128043D1667K4355k775j7436j8845k2828l2421m0918m9668o1876o6641m8604j1431K2586L5732K7577P895j0735j4904
128025b39270O30K1454K2559l007l1421l3695j0752Q011L107r487j25L3846O2334N8003K5983n845j6286m731J4690
128006a04002K3726J0998j7757m2852n0114m3002l0865j3935J0689L6190N1578N4655M7292K4494j4869m9745m9812
127989a57331j2069L0957M6650L4701J8552J6015K7196M3628N8847O9320O8754M5948l168n7483p8039m8718j752
127972A02008J6792K409r721k5J1816O924J70J2347L1524K8501j115l4733n5058o1111n1630k2971J3097L1555K2977
127953D3756N244k690o461k4244n6057p7703o6417k5444J9935M6734M9734L4730O812k7090n1285n0705k7041N919
127935b02273M0776P4052Q7158N7213j803l6213j4612K7225L2196k944l3414l7547l6949m0204j5258N4240J20765
127918G2408J21609O0268J210j2221L60K35j8382l6579m6705n5841o3137n6465l3476j0853o177j7981k9581k9450
127900a60758k2376j9873k3718k3801j2819L013J3213J7839K3300K5883J4420o259j1163J2663M2679M8070L1996
127883d7691K3561L1095L1982J5041K803J3383K6198J3370j2117j3520J1347K4344L755k5102k8690r495N172Q65
127865F6301j4114k3666j4994J3876M5578N4573L9062K8082M1742N8409M1661r601n9608p8903o7472l8070p65L1811
127847A13902M4875L6739K0246K552k3098n8046q4575q4101o1587l9518k9641k0420N335M5807P7066P4918L8061
127830E8515j2041n1975p2112p3910o2671m6620l1590r576L4362R2169J23843R8739L8476m028o179O577N115q364
127812G8730j8711k5315l2507l0676j0108J5296K0390L267j1184m644J2997K0630J2013m118k1362l9545n1379l9582
127794a25808Q38M3434N0647J8132j6740k1790j0833j8078m2053m3577k242N2621Q0136P5857O4752O2233O2029N3428
127776B82986L1009q406o0784j07074j24115j05169o1948j0205L6311O3204O2643M3831K3436M928j9351m4370m7627
127759d0701j7542K5124M6895L7623J6028J877m842j2734j7266l288K9227N3740M3064M428k3822j4980J6210L3233
127741A72274J9179j0904l2514l4202j9690o16R436K769j5634l3422m3653m6198l7416j0226K9783N8675N6021K8288
127723I1950m76j8942l5827n4712n8981l5977m814K088j5478k2323J027K7603K3502j199r751L926J0509k517j1989
127704a12381l985p4j4729j8692J9766P7477J00012P3620L5783J7401J3629J5403K8693M7612M4797J1877j8796j8684
127686B98729o033j5730m5650o6356p0782p5711p7410m8012J2071N4330L9668o431k3992O701M7100N4887L0809K613
127668A10801j7732m1960p6262j02248r4756n1888J75L0958K9780Q558j1617j5006m31J7353J9245J605j7322j6960
127650b27707J264J6798J6850J0318J0780J5576J2262J713J811K3767N3167O3224M5473J9681J0142J7431K0440N431
127632A18421j5866k2276j0523L311P097M923L102k497j4907k1701p982J8587L0958J3706k1086n1727o7269o4404
127614a00133l9421L232M3530O1842N8188M3630J8735k2185o6925q5729o4105k2091Q735J8015J6818J3597M383j2561
127596a22445k4162j3538J7435M4407M6208L1425K8186M5252N7659M1130N920k0947l4428m7185n4248l5093N368
127579b9056L1089K2546O97j1894k2323l6702l0131J6363P0597Q2687N3162K6809K3963K2012Q305M673K2100L1638
127561B86535Q933k1234j7878J5315L3995J1963l0903o0239o5189n9006n6541o0610o5116o2690m6086p331N2768
127544a43314J09755J24913Q6023L0307O356J7586K6066R053j7564l4787m5352n0560l5350J489K9608K6105J0433
127527A50767J2318K4492J9913J269l513J1302K2626J9312J5182J6015O361j8503l5761k8012j2549j7107l7796m1093
127509A05223o443M5478P0839M6611n329m1123m1858k8626k7353l4683l2926k3924k3921l1525k7111n067J6313K0736
127491b4689J0326n455j7045j0183K2124N8997O7048M2078J1339j0046l3858n9620n7418j5138K6582K0543k3237
127474B348n2892m3133j6012J339P440J1610J5092J6165J7135J8629J7712J5000J5469K2304L6123N4470O4712M8976
127456B52487R458k3825k8989k3634l6794o1355o5992m8676m0530n2119n4453k7792N908K1211K8838M8374O6169
127439c1714N5424K3202J069m102j3613l0975k9501K185L2460K5142j2187l7877k4865J4971M7855M7446J3327k8400
127421D9847m6392l3733j2816p106j7092k9220l4293k5478O264N4011Q2296N9522K647l5121k5864O441K6368K7682
127403D7963K0537M834j9093l1072j1388K6590M9175M3771K4421O74l1008o2223o7607l7097N788K9130K2563k361
127385A3597k3623j6319K6794P1906O7328Q235m5327l8415J1054M1965K9942L579q628q975p963p430j4238l8884
127367F4598o8828p2072m1754r832P26R082L6854O1158M3664o191l6196k0791Q232R753j5645l7891l9773k7469j0057
127348a52432J1895L7928N9551O3104L9404n064m5409n6289l7726j3936j064J0710L2064M6645L0494o468k4306l652
127330a4551K9374L9364K4520Q471L281J21q808j6747j1435J2345M6956P0963O2266K5030n352k327J4357N388k7515
127311B55701l9664r673K5429K2210q899k5638j9594k3797n7298r5827j06712q7574n6276k1668J6650M8615N3927
127294a30088K5715j6072m1642m0654l0831l5136n2772n9413l7371L378M0002O3628Q0732R3883R5339Q0361N5632
127277I4691L1619J3937L512j101k276J54Q336J7302J2575j3602m8698p3200q1753p8220n7511j3133L8677O5433
127259h3258N4959K7130M271r748j4311r56K6130L9739K2343m759q835P242J0999j0526l4531l9081l1206k7084k3430
127240i4912o433J9913L2729J8811p441k0062j0126P632J5413J2740J2432K0742K9504K8066J5589q82j3927j8716
127222D1072j5535j2360j6591k0244m575L1586N9038M8720R862j8980j7211m199q169k7508l6194k2216n668j3114
127204c2286m2021o1435m9155j8046K565L592n58k557j4972m3875o8167o2448k9964N097L0478N0857O3936N5100
127186b13859K1187j8731m3857m8608l3913K20M1868O2638M3294k950m5613o7531o6959l9884J6069P9390J09750
127169b07489Q7537L6376l892j7271j5370j1802q497m237j307l19J620M741P146J2668K6335L7568K2137k6769p8179
127150a39004q9087m8267J6285O8474Q8500P1801K7110j8179l1658r807J4118R975j1733j7439L013K6695L1937K3271
127132A6005J7723K0871K4160J7054m309l4371n9442o6696n5336l5439j5617J992J4623J6125N341r748k0412k4030
127114a91506j9892o304J2440K3752J9944R678Q401K0016L5138M4746M7160M3013L3273K3897K2970K8701K8127J4102
127096A97656k686o682J723P790L227n335j0398j5354k5887l7174l7695k2243M381L1997M7620M0297J3400j2210
127078A72427j8708j2640j3849k5362l0170k0291j1393j9224l5141l7737k0469M044K1787K9084L0917L5678M6518
127061I5471N1090K8917j9510n9474n4840j2568K1248J2305k6662n4066m2527j141L5258L5473j165m3193n7972m5460
127043a38816l3800m0792n0726l5379J0229O1504R0178Q9408P3343N7492M3703K5017J228j7376k3461k2453k3787
127026F5512k8588l2663l5542l7909l5499k5350j2992k666J2822L7516N3647L8644J026k3416j7642l426m314j0731
127008f1571j706J5696J5663l624j3540M159L1097L6679J4332j7450m0224m9683m9573m3376l2763j7788J983K3068
126990a88621L7774M3936N0459O2720O5271L6232j5659m7428l1496M775J1788j7734m4425m1636k6449k0765j4358
126973a35616R223L4952L6684K1065J7789L2016L8946K6023R718M528K924m726j4503k3721l9180n8334o2387m1857
126955a46456j2096R448K4355L8294M3360L3222K0751K0290K3070J1078j1555k1808j0923L151q36k2545m0996l5600
126937g5796p536J8764K2316J3439K0504M5787N6074K9767q161j9260k917J1184J0356R287J7155K3494K0255J3505
126919A98217P194l834j7688k1187j0374L47k102j4091k6760l8847m8981m7172k5212J0673M4306O1251N4052K6417
126901A46209l401j4767p251j420j0366k1169j4192Q978K9624L8144M2131M8676N1264L9367J3817j4320l8093o0834
126883B32397q4285r5333p4877k4387K4174L4759L289l8018n0743k2059K6488N4698L6325j1637l8654j4756L0175
126866a2444M0495N531k8798k3501O210K1986J5053K825r491l1476n6010n6878k6349P462J3645m967j9965j2674R358
126847a59988K5388K2449O897m3J6280M2231M3812N498m4528n9866k6207K2988M1863J5475l2474o5509o4475l9863
126829b50072j9815k1830l3978k9588j062L1867N1716O6083Q7710J04221Q9944M5537L416j1737q899q596j3141j3074
126811F8702r067r052j0959o395J562J103p151p431Q216K6089K6791Q294j2364j7163l925J3540K2051K5015L5424
126792A53280N0909M8383J5424k3408l0571k519K7305L2696J9659K021k2058n2316o6009m1732M236L0563K0627r58
126774A65532n411N355R386m276k6298l9815l3165p365K0568K9313J7616R410K3379M5106M4548J5911j8337m0996
126756B10461n5591o5102o0223m1106k7890l0765k8673j697L0946L4960J2725k868k569j0035l1169l5337o928K0145
126738i0716J0358j6596j3947K0597M0095J5506k5655l8595j6934N625l72k5834l4399o409L3301M2965J8844J663
126720h0503J7493L6699J7072k9615m9394k0736J7166J8417j5092m6230m9327k8854l047J7253L5523N9170Q1664
126703b2341Q3034N7595L0412K7818L9109L0634n748m3991o3266o7783o3416m5209j9375q986k0625k9182j4614P752
126685a28182J4861J4534L0221N9001P2023N4449K3658N580O377R412o773m5589q3559r0494o1275j7529K2528N7118
126667f3639P8984O7680K2750j7881j9301N160J7696J3052J8608M1178M9779K1295k4620n1528m7937k8102o371J1467
126649H8270J9403J2271k409m660J9263N9436Q6189P4380K6930k5880n2826m8122l1451k4165k8015k7575j2830L032
126631A31241m728l8489o5095n0487m497K6735J6414j2046j8100P176L6680L9999R229l7628o7664n6346j1330L3284
126613f5652N3053N3399M8358L6845J3755j1371k5084k8070k5675j2984J1384K9345K4590J0093Q996J5238J638l4315
126595A03543o0680n0952j1230L4779O5113O2089K1506l2446o3064o0403m6665l8010k4058N880L9064N4905M6389
126578D5760J6251k7496o0918n3775r488K4711J1613k6376l6080j640M1864N7008L9895P771k3690m3614m5906l6399
126560a20509k8291k3312q258K2441N0983N3706K9854L840k84J9378M5406N8718N0450K2586j3863l9712l6982p831
126542G8320J9587J6741j1843l2282k2692J221J0359Q13n564O978L0669M7688M7586L0566O607n867N359K6104K3632
126523B73982j3631n4429n8157k4283R430J6698R556Q467P251j2847m5996o3053n0159k5756j3452j4950j8914k1574
126505i1817k4224j9924J60K8823M5568M0073K3207J1350Q127O978N120N739O928j621k3784m4082m0996j4122J3732
126486f4765K5801K7940K6932J1303k4141m8716k4087L8599Q2480P3286L3580j269k7239n1407n9848l7819k461J5725
126468f106J1043l894k6876n7902p6109n9354j9442J3668L3971N1754N4707K1328k7626l9299k162L2869K2280j6379
126450i3529m0582l7531j8215J2178M8151P0463O6701M9109L0633L550l4421n5287l3908Q695K8159J5417K278J1706
126432C3567L0737L4991J7650r717k9049k6919o339J3903K1076K1977K3831J6207q237k7863j4525K2604M2794K4126
126414A80814j5904n0996p1179p2303m7908n913K6313L0196J7679J2057J7490K0268J2310k24q817j2014j1764p056
126396A3049N280K3597L7262L4196J5061o124k0982l8132o4547q3003o6971j9347K1973K5697J404j7732j5977n593
126378a60889j480k99J0537L1527M7412M5720L3479K9522M0321N0396M0404R243k7037n3331o5798o8053o4430n4622
126360a57378l0119J6516O9548Q7394M3137l2059o8629l3258L1961O0063L7173R815J8713M9724O0333L6795N341p426
126342A97644l840K48K279J0031K1105K2233Q204j1498k5806l0695k4857r915L156J760j0628j8764k1177l2548n2161
126323B4771n2293j7367K2543K3239j6105n2253n2515k6048J500K0032L1939L5546K6342P130j1975j9780q783J7574
126305d6503M0492L9588J5390j0977k3275k4459k2353j5305j165J1213J1723L642k735n984j2068k0809k6575l1684
126287a21844m5221o3692o5163l4169J3045M1859L9831L1483M4649P1533P7194M3883q323m7093n8509m6074j6023
126270a42634K1495M6882M4793K1541l159j8445k5140k2623r564M055L591r120j7069j4293j5212l1526n3861o4559
126252b84848n6820l3274J977L9205O1179N8270M0466K5604K2077L0754N3040Q2452R5474P0355J7044k6850l5235
126235A60870j8290l891n498j5705k2344k0111j0270Q92L773n591j6658j1816J3699M3925N7230M5169J4546k2026
126217A87904n1437o1843n0126k8416j5900k1945m0501n8005n9796l3542J8656O9111Q1478M9276P310o561P047J8180
126199A0890J0558k921p997j2533l0065n0575m4935r72N6718R1280R1776P6188N9662L7107L893k4651l2595l0827
126181B00001m1849o1898o4268m1629j7603q720k293J4506K9923L0910K7834L2816L3393J3768j4576l1382m1910
126164E7023o1101p5271n6202r908K4753K8976K2168K1380J5935m035k1394j2758K0493N4220O3193L7808m743k5932
126146G4605m566K8879K2877k6246o6328n8976k4005J357J3544K6954L5548K4254K707m690N231J4694J4646R572k428
126127H7629k9494o5193q7646q2294n3385j4683J9304L7456M0960M4790N8582P0851O3833L7997R514r805j7525j4027
126109I6864o427j1169l4704n6567n0020j7304J2500J9075Q637j858j712J1574L1314M1412L1155J0904P44N148J2405
126090A01971J6453K2723L2742L9545L9543L3295J4762k1418n9677p1391n0695k3913j3258q545J0114L5250L7861
126073A35362P559k9670l9212j5849J2268J6976J415q989m684n849k8946n5025n2900k7335j7521m2213o9914n7078
126055b81605j171N8083Q1550O4009L1812J6004K3099K8939Q822k6249l7960r331L3121N5279N4461M6809L3847O423
126037A85942k6658m0171k3699P465L2925M1701K8164m783l5370l7373j2473R940J2097O413N194l322k9318n3376
126019F3298n2021l7489m0313n8290n7117k4296J1310K4315K5684L3560L9767L0261J6392J5936J8434K186k2621
126002a1004k2550P286L2405K6119j239k8811n2215o9083o3428k7119J8074M0673L3809J5770N730J0746K5146L0371
125984b9320Q614k8680m0477l631N1325P4165N5198K6060O314j9005o2327j01893j04303o4707j0686K5664L0068R132
125966a78489j6292k2862j83L9726O9118O5439L2684K755O735L9355O0828M1795k115l0472k3701L663K6040K6599
125948A40623J645l4412n1115k9839R474K8181J6470Q31K718J4191K1430K6388L0456K0151r687l5801l4570j9213
125930I7921k2512m6514n7021l3068K410J4928M897L093K5196M9178M3067M009l9825o1741n9759m6713k9956j0723
125912a63133L916L858p255j0245Q006L7957N8830O1615N3701M3278K7944K760k5516m0491l4956k0078q548L953
125894d404K5105L7721J0927n0433r3422p6812k4361J0464J8032L2661O4871P9548N3698J4282n602j4032l2130m5411
125876G02k3468K3987N0607L3727k23j5606p113P072R321q500m0881o4195n2727j0008K8072L1085M936k2148l2776
125857h8136k9252j9408p092O414K1401L9509N8424O8625O0884L6292N856j7978k7404k0995l975J4096K4518K2637
125839A44416P857j4576l1588k8768l839K7965M4548L3708K641k5190k6025K948L7758M9431L1399m68k9922m8901
125821A73394m8030k0890J5078K3939o682m5349n6138m2924l2804l0364j8453L796J8530K4622L8941N5365M2074k469
125803I1636k9423n650L2006K7422j3000l5278k2448j3081l2223n2191l9426l090K5088L1275J9321n179k9706l5908
125785h9855k7555l6354p5845j08963r0224k7059K9322M5309L0574J1027M944K1282N1804O4239L1719k6070n5643
125768b47348l0118K3620O1861O5540M0487L318k0439p829L3096O1569M8386J1500p167Q806L7914M9636L1300q504
125750A55628m8568o7288n6770k7912J208J9744K5808K1164J0415J029k372k951q326k3500m5401n9247m3091J2807
125732a37623Q6870J34595J23066N7344k4398p6883p5690l4750J476l977m4471p8691p5648m0147N297M5927P5140
125715f2563Q5504P3010M3499O691k9978n6918o2592m7273k8308k1330k0780q170K2436N3786O0660L4158p838l5499
125697a505l4993j8007l61J8732M5358O9923P6457O7238N6853M4575J6048k7302o4803q4605r0652q0908m9649j6001
125679g3602j3190l6246l9053m478K2539M026k6404j3800K9367L9585q78l7033j8974L6240P6249P5485M8500K3849
125661I2182K1351M1145O1810N6237J6335l9960q2645q5867m3031J9384N3730L6444n386k9658l0303l0975m0772
125644A0021m6965m5697m6608m6519l0177o50K0940L0247M3623O1703O2268M0058K1110K2137K6009J5677K987P26
125626A40890p298l9231p6555q2487m9755n872K2558L0617K6489K0659K0155K0602J0140r020j5231L034K6036K9188
125608F4919J8560J8230K9971K9406J409m0676p3075q2685o8439l7445n594R223K730r642n945K1060N2999N9112
125590a5882K9188q515j6411M919J8043K655j7316j5735p135k0031m5351m5542q590L8871P1113Q5793Q4719O3412
125572A98205L0128Q840Q675R728p193l3632m9077m7127l2103n762K4675L8136K1070q380j7497L55J8215Q974k8028
125553A38202p4129j08218j11592p3091l191O4608R9693J00467Q7052P1847M8540J0228l3850o5820p5680o4341l7250
125536b6525l700K1420K5103P364j8337l4184k7153J191K6969J8894k2441m9247j5216O0549J05181P6708J2314k3167
125518A35723j3655O357Q234l606j4841k1236k1397j3198n495j5446m4876p1649p1848m1684N119M9077P0559N8847
125500e015K5999L104J3173N0250Q6745R5148O4037O063m6273o5913n8490n2701n9151n5665k4132J5970L0592J7038
125482D0779M184R966K0868J7606K066j0435j2200n917M558J5100J7715N667j8530m5103o4138o7014m8007j4903O002
125463a41736r238n1373p9652o3370j4239L1838N6886O9545P6121O5171K9965j0163k6397j1958J4122K8308J8070
125446a8100j4041m6978n0668j8804J2718L453l6071n3060k2167K2165L6622K3549J1378N751o102j6911m817K3918
125428a48165L4277J2874j2025j3440j309J127p829j7599k8573m1104l7010j062M6348O6462N0722K6209J1800k907
125410f1204k6661m2554l3439j2060k824l967Q002L7578N6081L6347j0911m4318l0373K8880R8693J35410J14320
125393B47000M6986k5030o0840n1910k3512l661M419J3620K3547J5672j7553n3716o4511n1077l9047m0882m1058
125376a21553k2804O639K6858K9154J9981P593l538r147o179L232J3943K1540K1202R747o360j3509q784n520j0560
125357d8065p109K1652N7931O1553K0918k7897m2893k2457K254J0118R269J6382L0678L3680J0193l3315p0670p7425
125339e5203n1729j3294J7217L3618L9659L7333K6282J1685M910J2325K5386K6693R648j0931j6206j1778k4817o2894
125321b096q9805o3874M205N6736N6398K3589l675j9903l9342n4550m2593p040K0097K3316K1095K8179K9255R637
125303e0371j1377n671J8223K4940M073j7052j6858q631j3201k3600j6258J3431M4713N6993M8996L4471K7602L0290
125285A40713K8783Q880k1470l6264k5557j0056q563r009O171K2856J6025j976O089M0167N5161K7725r213j9590
125267B10872j4488k0741l3166l5434m0890o7426q9670o5864o549L1731K3792J984k025L793O255J6593L9873N0048
125249H688K7187n275j1419P014K0629J7861J0779M944o861k3573l3818l5480l6231l3480j3666K4049N9400P2574
125231E3322O3121M2531J7812j0200l6383m6866l0476L912K8188K2892J203q524l262r706m2673p8802q4005n2229
125213a70145m821L4317N0643M2060K5370K4722L7988L1865j0368n5621o2140l7411k1798k5664k2151j259J0091o638
125195a60960l0454l2285j1684J5281M2420O7973P9573O4920K8369j5837n5632p6308o0790j2619L4103M8067L7184
125178c8679L3792M9526O4005N5844K6045j0680m0193n0301l4402l532J5938P901j4578k4164j0624R852J6015N493
125160E7258n207o01J8042L6439M2765L6084K0728j816l0144n4365n9704m4871l0576l7474n5102m7771j125M9258
125142a08182N3792Q929l9138n3169m4827m4481n1999m1773q788J6939Q568k1944l7689j8405K1920N6319P3601Q0750
125124a49577Q2308O9878L8561L607j3918j4017j3184j4115k623J9116K1592j2770n8874p8352o4699l7596p593K5465
125106b06791M9128M6498K7138J9513K8513K8625O665j5972j5815J249J5269J8611J1334j0845m3229n9456l5306
125089a34871J6949N5394N2509K2550K651J2523L6548M5653L3199K0014K0139J6772j0255m3849m4787r076J8716K091
125071A12870m0593o3531n0359k3758r005q031o178R493L6693N4063L6656j5430p0070r4011q3956n7702k4565J8504
125053b78910O4343Q7769O9387K0626k3001l4889k0563m638K570J4340L8963N7682M8268K0141K350J175k987j5868
125035D6758j7844j215J2267P808L288J6343L0275K0057o532k3158k6376l2284m1154l7291k1357j3202k0071k7038
125017a30726k2704j2253j217J2167K2682J6768n138k1222j4293N634J4736N020p643l919J4333K3189N388k2346
124999a21544k3834J1141N2187O7016N5325L1615p08l3401l5241J1894O9575P6541K6104k6889l9553k3972r051O77
124981H7882R541P982r135k4766k3848j7061j9971k5747j9367l375J0795K2493L1987K5331o803m4515n6402l7131
124963i2110q946P888P998p654l1362m3324k7572O166L1614L4844K0867j410k2624k7486p360K3718M4792N5382O4669
124944B8090N9302J5010n4424r3668o8272n883M1691N3852L9796Q912k5873l3504O520O3633Q0181M1407r019l0985
124926A16766l2937l9097m3832k8241j517R554M581R246L0503M4120L4648J9334J8598K7015L0264K9397K8346J6846
124908B73594r879l0693k6434j5933l0747o0113n9390j8101J8120Q248l2854o3133o6086n1345k5215J1271M8313
124891a30377P6177R7430J09452Q9606K5448n0963q9501p8694m9026k5442q184J733m453j7276j1302J2913K1234j766
124873c2991k3638j1994J4118J1948k2625n2963n3668l4127j1726J0548L3645M9639M8717L0455N161j1559j0353K50
124855f1163L497K449K0548N8870P4708L2854l5580o3795l6392o356j7174m6930m9841k1666M999J1258P999R399
124837a12316J5457K1250K6847L4617M3744M7497L5101L463l2501n2493n5035n4101n0348k7677J3754M5055M4435
124820e3251K4808Q181o690k8592m4743l6598j4382p023k0835l2243k0607J0587M2417N3774L2219j0748m1829m0073
124802a85628j9499j809J6089M3102O2162N2920L2678L3690M7192L5402j543j9916k794J2104o500l7671m8030m0030
124784b8081l3158k8432j9925j4900j5662o435J5416K0595j0741n1397o0204l2640P959M5805O9304N8745J6062j4553
124766h2242J414L2627K3838j8035l2185L060L9061L0846m986k7394k7036j8132l112K2975M7276M6209J5987j9976
124748C0195l5431k6814j4715j9994l6759l6252m702L3568M5402L1270J8721K0400K1654Q147j6033l8192m6377l1458
124730i7370O3K0411J1692k505J3694N0192N7914J9896k2006k6587n983K665r523k3811k7217j8747L643L7029O2569
124711D6019O2036M0486J6043o292l2871n8139o2838l9568p356O508m948k2646k4633j1513k642p714j4865j3371
124693a38304j1763j7538j4936J1859M3832M6335J9756r84J638R859R414R826J3957L112k8013n1673m3868j4970
124675a52461J5674M7265P6225P7018L6315j5276l8245l4029k8544k2821L096M6029P5955P5352N2949J9808j9958
124658B14352n4084o4566m9397k2709N554L0250L6962J4273k0099l3219k1220j3125k2864k4864O134N0852O2410
124641I4640K0876m3517p9639n9941Q00O2155R0583P9350M4548J0193m604K822J4040O868j6756l2011k5540j1838
124623A53029o273k995L317m485l9074p4891p3843l9387j3936k1896m3342m8712l3905j2555O059K1536L7859N9469
124605a34025Q1937Q8763P0734M2744K3777P949k0339m9192m9810k5681j5724l7171n8310m6700j6192j186n395m702
124587a48523J0618K4240K2063J0280K199J549L781O151J1843K4379L8059L7963J6243j4471l3625l5695k7725p960
124569e8631L2394Q2891J11074R5993M7981j1941p0901j11048j04514m7810J4809L2802Q884r912J486J8451J1694
124552D3702q786j3576Q49J0355j37k0047l3459l6289k7835m851K2115K2585k0843p8703r8458o5034j5672J1856
124534c12228K1405L5333N3534N9434N0756L7573J9486q262l2009l1438j2810l034r286j1874q86Q883P377M851N965
124515a17230l076k3314k5295J1812O1601P8672N5694K6579J7998K2941K4029K0343K0830K3809J5522j1660m4982
124498A54273n8932l9764j839K3912J7534j5618n2316o6353m3682L418M0494M3657K5871J5799J6148N729j8925l3101
124480A6305k2758o500n105j2936j5577j4307j4614r712M276J2994M124j1121j5878j2250q345K237K3395L4152J3395
124461c8225k1557l1646q363J8968K7557K4551K2521J9075J0940P076J5060K7488L0976J9222o673l9427o3223o1880
124443d7560l5482j733K1727L0139K8384K4032K3193K5125K2580J4214J0899K0226L2543L5286L2400L2164K4383o446
124425B86074m7881o5751m7973j8217J554J7868M1276N6180L6948j4475o5366q5127p0361l9071j0207Q429J6603
124408E03J1843r768l9443n1791k8856J3206L5007J4399l2676p0948p4559l9436J6054N8673O3481L7348J0446J597
124390h4920L570M199N001J1223J8780K2005K2877K2328J3511n294k1320k3019j7150j8505k9584m0896m3473l0306
124372a90973L608M6211O3324L2786j7551l1887M890M3616L2667j4044l5525l106M6768O4527M6117K2620J0818J216
124354A26082j1696j7249j2298j1430k0713k2666n231J1700J374k9224m7672l8975j6582N310K4456L4402K3391j485
124336h506j2281L569K2275J3594k0341m9158m8194j8137K0466M2800L7924J9331J0141J3226P929j7748m7184n8670
124318h8964n4496n0956m9881l8120j0667K1330M3801M9283L6605J3299l648j432J3612K3606K1976K1276L6422O3540
124300D6586P6654M9146j3866o7692o8158k3147J2923L189l2211n1617m3776k4439k640J9602K7969J1159q989K670
124282h6637M2033O5050M5797M443l1278n8794p7821o7619j6998M2358O3577L8187n35k0434j6019J320J5833J3352
124264d4185m909j6055r83K7278M0424L5694L4607M0910L0388o351l9205l7117j1063N280L136l12k04j1595l4972
124245A0766m3641k0937R684J1551j8446m8515n2632l4586j1765P021K0811K7405K5963K2134K1386K1258J7206J1421
124227b3916Q057M895k11J60J1302J7231p009n6708q9965p3993k6337Q656J5884J9546L9378O2560O7871N6814M5352
124208G9567L8057K6775O863k0143n3388q6778j00761p7329k4082L0113O3660P3417O0068K3030k3630n0210m1876
124191g6647j9482j5512l5281n4609n1107k4647J1296M5408P2180Q7856Q7418O5301K1955k8190o1821o6400n0076
124174i2358k6307L128L9267O8338P0298M4450J0813j5774l7229n4667n7391l9708j4334M067J7756L4047M4239L3142
124156C1777N654j5628k0991k3814l4627m1917k9823k584K1956L4899L8719L3584J7640o15o394K388J3779K2067
124138D6070L3564M6352M2560J4164j8806l4034l8853n2891o5619m1671K4285Q4277Q6074L1695k8232m9204k8844
124121E0887K921J4384l944l3124m2931k1680J2476L2612K8820R132j4209l0304l1171j9928j0510q082J782L0306
124103c2563N9842O0460L0709K877K958K0214K4262L020k5324l6480l0874l4497o3277r2727q1993l1756O815k288
124085b20622k9258k2002J7332L8053J8047o177M728M1843O7845O0983K3942k6939o4599o4676l3371n141M17r62O083
124066a94474P553r667k2634o23M3704O4406M0804p30k3121j3944J5672M5423N4964L5770k86l3220n4022o2020n1336
124047a57781j7727K3741M6018L7053P290k7288n5357o6390n4011k5607L249K3386L1234K1020n219k5833j9519M435
124029b57306J8445J9565L4192P2596J03951R2278M0579j5557m5526m1735j2749K4048M7012M1835J2284k2319l8619
124012G2974k1868K1549O2458P1237M5745Q251k4377n2221p3283p4245m9985j4416J9925N5272Q6366Q3659K5294
123995B42335o0491j09996q5785j0547O0461Q7497O8137K7844m040j6634k0913l0118m2666n1635o1548p8249q4853
123978a71201n0527K6967J03571J29007R7988M9056J7410L100j4005m2757p2487q7217p7734m4111J796L6266L8721
123961e6157J3158j3457k0389j3283q746r135m446Q666K4794M1287N5249N4121L0103K355k63J7648J9332j0248m0684
123942H9905m2854l0261k8220k8387q817K0138L1634L2768N2628Q1106P0036Q460n0376o1314m5599m4552n0478k7528
123924c1711K0469N0436M1658J4948r562l4815o0492o9588n4401k9174n420K0435M4276M6767K4807N376P930J4851
123906c210K276j9624k4790j5384j7268l8213n9029o3430n0294j8178L3127Q1587R2033N7630J0954j6789k7367l5853
123888a11822m1001l2851j4480K762J6803L2187M6981N5179N5232M5746K2253r490k8310k2196r122j4054l1425l2733
123870g0341j1082N118r409m2875o2540n2932k5295M079L0779N5763P1595O4017K9314j4728m1917m1954k5488n407
123852a43303J5691L5689M4834L8989K9903K7144J8013j5140o0380p9817n3236l406K8870K4202n084l2650l9153
123835a68834k4074l497P469J1415K1805M0777N4647N3755M5239M0608L9905L5086K2452N782q072j2861o885L984
123817A58701J2022J7370K5851L6601L9958K9320P554j9228m5639o4402p0417o8959o7863n9857k8038K3999O2972
123800a0055N9992K5225l863l904J4740K5816J5087q680k4829k2616j2476j2127k3773l3616l2843k6548k0642j4457
123782a09569j0204j3315j6893m002K3683L8154K1933m189j0542j704n339k6325l9747k9246o886J0309K1290K9085
123764a33507K5477O67m0007p7265r1116p1676k6378K0827M7311N2994N5868O4689O7125M9879J9985k101m646O852
123746c5022J8675K0470J0479n326j8541k3686j9494r113j589p015k3518l4213k5683m852J1951K0686K7143K8440
123728g0208J5838m637j4711j0873q658j3737j1500J954J992k8653o2628n5167k621N2491P4189O4923M1762R259
123710b0985k8836n2691m4571j5526N966R852J2710K9924N4807P0124O8501N4538L4664J3064o094j8201j8685l613
123692A44948K2645L7393J0581n9517j27078j33972o9020K0344P9579R6130R0469P7000N3945K3423k787k0784l8823
123675B04476n6924n8639l4354J06K2244L1229M1058N0893M2069P851l1379n1957n3810n2424n2871m6188k8747j0987
123657g8354l188k134K512J3682K3827K4492J6035P763P552J0960N210j2073k4951j9736q165j4550l9369n3603l6559
123638a80649l427J6467J5670Q640O492Q499J2683J8518K2353K3418K9602M2938M5855K0821j9126l8926k1258J8348
123620B6918N3369O4050L8209j7835o6327o6186k4689N652n361k9082k7280q907q321k7030l2801r923K1701L8686
123602g5157L9788L4786K8548K3526K3601K7816K8265J8781J418j6437k8731l6070m3473m7164k9453J5742N5007
123585B0793M2237j6954n9028m1531J505J2833p131j4390K104Q508j2038l4095l5950k9565k9003k3874l687J8577
123567b00689K6521K2435J3336m129k8103m0178k8097n877M095k300j3162j6295l417K5757N3462N3991K5151o135
123549a23634j9963k6443l9071m4890k2141K4063O3102P0052M3896L843k1807j4562J4160L1858K3329P615P719K0473
123531b401K9887L2649L2685K5554P902r526j6866k1416l0854l3932j9380j530j728j2508o637K1751M9503N6331
123513I9484M2019J3099k4164n5001o1771m4419k0480k488J0359J8651J8070J0244L042j586o110m610J2004L7188
123495D3531N1917M8590L6134K0509j615k6864m1984m3603m4836n4186o2070n6733m1476k8289k4332l0121m0017
123478b95445l9567j4955K7790O3786P5868O9982N9271M6138K8278R863m438j6972k7899k7213q260J6621K6514J5815
123460E177j538r506l384J1338K4046K3265M847k0982l5703k8409m166K2546L9130M0212K7600R359k780o05J2403
123441A12850K1339J2237j3992m1017n0738l7329j0687J0721J3998N422O857K9053N0796L9442n251m5040m9504l1775
123423A7382k3750l0680l1962j9063p620r503j3412j765K5372N0813N7120L8835M847k7056m2024l6933j7403Q770
123405e8032L1188L7944K6776J0358J276l029j0358j5599o467J6160L7662M7904M7667L9138K3264N656p174j6323
123387B08011k4303k4307r850Q273J1216k180j4560j5542j2747j5649k2340k5044j8192j583J4067R165k3218o1466
123369b0249p4815n3843r908M2421Q2327P9454K7338k9015l8299j3964j7626o6433j04092q1485k1776K1988L5669
123352b42308L6342K8029O522j1739o769R505J1647P344K7582O9262Q4345M0339l2166p0406m8628l335J0478j8484
123334a02440m7465l5653J124J1137k2456n9902o0888l2735o786O101J3149J4341O451j220J602J0350J9848L8192
123316b47250O6042Q0693O5855L9784K6957K0127J296j8633j9199j4160l1952o0216n7470k1398J816j3065l4848
123299b15621k7416J65J7490J7387J2265O810k290j1701j3909o810P441K3986L3186L0119K5438K9051K6157m849
123281e3101n0023o6015l5672J2084M7146P0492Q6928P9759L8028j5829n1703o6261o9331n6737k3606J1929K6713
123264a15199K3131J6980P424j2654k6588p479L8023O8864N9548K8967J0870J2554J3565m082l4061n3192m8454l3783
123246e5566l2978m6542m9726k8706p81J3597K0204L1981L6104R234l8453o3545m0755O439L5295K9252M891j4883
123228a84938k2562k2850j6032P966N2524R4297R5463M4893k3460o3581n9915k8796P694L3324L6498J9641M110O425
123210a9299J5342J1681J942N951J6761N778k8260m8957l4009q057m118j5956j3869P342K2686J3067j4902m2428
123192a29305n3532l8514j447L3262L8125J2711j4651k0201r039L47M541J5438L6679N4615N6578M7140L8165L0445
123174A01357J6636k093j7404l2245n9604r4179j02806o0718J2571P2404R7859J01747R6700P7273M0593J068k7262
123157B21897m5413n5347m8269k1464P533J9572J5489M479j5408m5029o3957m9265j1874J2041R295M110J5209K2822
123139b3579k524n3121q7976p9499l8637O302L9434N9864O7258N8408L7443J8683J1614O240j6810n8589r3072r3740
123121b42301o2255k0498J9035N8026Q9276R1654N9234J9172L799J2498J6025n792m3615p2861p6329n4595k4527n952
123103b40006j153P811L1723N2500M4910J3491j3030k1771k6011l3160k9432p124J7073K6677K8393L3601L6067K7914
123085e1527J9997K2986K3974Q904n543N105K7217K3896m565j4825J4349M7680M3730J0071j6856k4873l0161m0436
123067E9123m2471k5909l89J4609R347m998k978K6555N6218M3875r767n0572l7329K745J2708j6156m0287l0722n408
123048d1806R572J4077J4427J451k7939m8257l2569N945K4005O09l7724m8737k0901J7792L3271K1814R609J6674
123030h8687L0369K4592j218k0223j6768o809j0052k0045j8957q537m342n643M290K6024L5607J8639n127n686K0341
123011e2232N1460P0740P5499O2271K4458k8447o6510o7126l9107j0027K312l266k1678m2014m3298j1030L7909O3483
122993C397M3869j777l6780m1847k2184N329K2299J8627L769j162Q270J1909l252j9231j3541M552R223K28n8J0423
122973B063O746j8722l6255j9775J6142M0229M5778M4443L4161L010l8485n6689l4445N334K4129O870k7192m4210
122955d6868k3970K2230N7811N2194J0232l3652n1178m2714k3363M95K9683N3859N1412J4697l3189n7192m4907j4987
122937g9407Q414J9187K3217K0449N501j8338l8857m8784m9461m1076k1816J725J7238K4704L7944O0127P0707M8824
122919D0298J683m1025n4562l4035O772M0600M3058J9375M800K1281M4543L6635J680k0914j6653j4446l6233o2254
122901a9397o5793n3846m6900m0584j9023Q377J8707J7754L3565O4577P0175K8250k5716l8335k09N1075P7102O8920
122883A28699M0310J0603p776j8327l5280o0205p0937m7870n683J8455P958j7588l1387k8194j8905j0479j100J1978
122865a35728K7765M1843M8228M4770L7725L5380L6725L2904K0018K473j6409l7015n4884o0944n5092m9186m9890
122848a31317m7095k7244P437L9309N0898L7351R678j1916j5450r966j2103j9895j5165L987J2513p133l6139m2349
122830b14599k0813P002K5369L4663L4715K1033J06j1045p310l033r713j7419p522K1339M7709M8376K3462j725m110
122811c3515J0007J5373M965j202Q156J3443l106k1941j2512J5704K2169n283l2679k8249P73L1157N6249P7419Q3420
122792B00348O0241J2612l9170p7235r2679q5171o5965n1037m2497k7767n122N641p979k5000j3178K7590O1920N9802
122774a04646K7963l170j5081j6704k4882l5759k6682R490M6260N5555M7627N5408Q2875R7631P9595M7614K4987N863
122756C53944k4397n7159p2342o7963n6782m4829l2024k2892j7869m621K3003M7319M7110K6054K044k1309n0309
122739B6978p6267p8724n1752r699K8409M5078K6823j6871m6512l0842J2915M1947M3939M0514M0054K5057p866l2380
122721a9199l1655k2054j9233r094K2866N5777N6876K8628L450l545q447k2498k9051j1390J3259R636k7146n8432
122703g1252m6864k009L3895L8400K6269J5214R37k1476l5212k2558P672L6016O1767R0455J04109P7265K0207k5789
122685B87046l9472l6320l0038j0396K6987N7529N5402K6659k898j9400k6023k9017l2638l8839m1970l2544j2878
122668A01190K139M899K177j973j2856k7766l1574k0735j3073k0058k6729j5076P779K2139K3985K3680K6663L1288
122650G6099L6390L6603K1254o058j8758J505L3309L7531Q025k1689k4428j1839j2646l3109n2453n2452l8043k3628
122632d4387q563J8542N0512N7237K5369j4417k3897r572q570k9517m4905m3086m4376n2989l7907J2929N9261O3855
122614g4481M8708N5617P5767O4355J2515l8815n3110l1298N127L1560K5952r997l7987k1729K5368N9463O3742N2046
122596B52803K6309k3522p7979r5737p2768m9398m5044l1175J0706M8804M9054K6564J3820P155j5333m2922m1931
122579f0594r591J7740J1901j7321m1054l8985p637L9242P4348P5174M4049M258k2226k8300k0385j2893j8281l2896
122561d3451l7458j9869Q078K4931K3753J3026M68j2180k1478k0239m447K1607M5471N1713L4684Q924j899R120K5014
122542A05768K6385J0134j5247l9580n1077m1037j7017M78J404n965j4988k9929m6230m3022j2438K0675K7724J1029
122524a12933r417k7502m3916m1099O93O2889R5677P4827K9392L112O093J5463R147j4217m0900n5801n2718l7233
122506a38443j9278k267J7286L9902N8209O4045N8049N0561N1490N6926M8712J5127k8549n1331m1321j7766m157k810
122488A54385k998L15O755J6651K4865K0317K930j1829j6823k5389m4906n6891m4206k0698q596k728J2681K5681
122470B9516J2153j7298k6264r199P73j2225k3000j2409r13j1241k7329j9601P555K1579N582k4905m2921l3090p63
122451a84000L0477L8564K7861K2560K9097K4092p608m2111m3643j0429K5761L8040K6452Q408J055P840J3651K229
122433H296j5544p912L1568O4837N6926K5425J5515L5691M7586J9565l3118o6379n1828l170L2269J5115m1677q0653
122415E2512o5622k3969l577p050j326K0446K8939J1176q187r161m328q372j1358l203J858r595k0082k586L9199
122396b4286P4264Q0568O0368K7442l693k1834k7269l0818l4364k4033K748J7734o867n4919q0733o7623m6696m9386
122378b09397o3528n2889q176L9326N4439L7240K1196L4674O7614Q0506M8451q651m5887l9845p260K0280K8350K2959
122360A9402J3302K298p796r885K645K5830M2610L3065r028o7106j09965j12997p5893k1538K3032M5406M8873L9919
122342a17826K2392M528P9J2657K5537J9787K58r977j153J2622J8443K3511L7601M9418L7243n90l9823n5784m5650
122323f727k4655q371j557L80L059P030R295P357k018k3729n5283p9453p8285n5073k9110p401K0672N5438P5609
122304a92822O8767N4118N5041O3172N1976J6539k2041m4824m6532k7156L350J8120p88l0745l0831K411L0464K8741
122286c040J5793J5398J9780R808j1347k5976k7709k2519j7439k0623l5676m4561j9057L4398O6416M5199K229j1825
122268c0751L534Q902j0463l1171l6567l3531k3027N491M1525N2941L2511J2655J7139K8154K1064L124p700j8370
122250C5460m4691p4736p9086n2135j8754k212l464q202R47L2184O8906P6061M0920k635j2481Q439K2831J4662J774
122231C788m549j4667k6935j6576K1678N0827L8940P256N05K3051L6624J6417k0440m4595m7328l7113k3091j0874
122213d7082j663J0528L0427M8353M8443L1493J3963N23k3702o3880r5524q9363m6695L682L6777M7586M3324L3755
122195a9055K6466K0572P273j5120l2644l2187j9706r139j35J6205L3692L3998J5086l257p870p430j0692q636O825
122176e754K1410J5866k264m363K0920N1261N7951L8710J5586N461J798j1365l2416l9393j9609P131R321j5050l6374
122157G8827l5859k8802l3823m0055k7873q729j4591m8974p6536o8965l8080j1349N707K5328M9341O5461O6301N4032
122139h8639K8311j2224n3582o9605n0907j7464R071L2788O5191Q9088P0225J1017l6027k9035R324K5123N799j4830
122121b6376j7381j9836l0585k2474J9365N7863M9323P266j7971j0452J050k059o714o721k0845n5205p9955o6005
122103b47712k4252J0543J9281Q223m646p33K4636M7900L6595n323l4257k4240j686l71p499J1392M9972O2652K6346
122084e3179l1768p0712p3062m3326L486M3389N5478M3308K9899K6310K0484J984j9151k5980j3802J1328M1409O6771
122066A2866P6736O6430L8874J457l3290m9782m4800l4296k9510j5796K1048N5673M5134o896m5160l5661q425o048
122048H554k2793k6929j7946k1149l7903m2169k5625j0186r588r074O306K8340M3080N1104N6423N2022L2568J1229
122030F6264Q816L0093N9048P2808N5188N562n6128r8109r9825o6856k2138J2203K3625J1200j2559k7934k4373q613
122012g1728O456J4187J0986q611m1374o5210n4535q727M3587P1060O4017L3180m421l2660l9035k1805N765K5531
121994g3337L0846K9629L1264L5045L3412K2854Q155k956p171q595j5349l0418m3821l8362q810K7642M8310N1498
121976H9836N5598O9042P3829M9234L620l1540l7570k5537j5700j2528o941M674J2987O752j3120l1970l5013k3719
121958A31934j5236k1499l3906l6768l1270l2225m1051l8765j3483J9081L4567K9817K0526J5901J1076L670L394
121941E763K0003M8691P1601P1786M6662J0601j7675l1556l5496k7946L86M2839O7237M8817L669l1232m4467n1956
121923A97727n7007m2833j2688j596k4976m3971j5423L9889N7353J3939m3053o1206m4275k9244k7430j8845L512
121906a10127J6355L581j0657J1250O4955R8366P2265J1735k2987j1776M860j2248m4491m3834j866L9847M7075L1587
121888A43890K3079K6001K2580O140q561o873P197J7074J2226j435q447j519Q544M431j6652l9373m7810l9807k3178
121869G7507o550K750K32j0753k0902k4760k2460j0922J4999M7157O2363M6862J4817q667j6463j9746k4675k3038
121851G7751o535K0243M2627M4861J9361k2287m9075l5803O397L5531K1859k1637n7369o2729m2442j0279K4054M8210
121833C2738M5105J1292k9183m4069k7324m044P60j2445k7178l3230l0124j8495r23J3832J8930J7308J2177j174
121815g6047k0277k3945R30K8579K0773j5274k9333J046L6259L1769j76j5141o58J8629K6924L1972L6687L0056J2610
121796I5383M189J6105L4223L8878K8052J3818O117N069K861p068j8257j5917r91L951j2055k4862r268J6493J3333
121777A90054j6987l0401n558K6169K8555N806j8195l7569n8235p4916p7746o8231n0308j9708K0286M7502M5520
121760i3962K8616K3185L3342M2250L8625K4650N515j1790j5623j936J5192J8829R467j914j3289k9731m7502n3654
121742b9730l9994j0963J6728K0644o110l5310k6798J7589M7545K9114j0220k6414k1912k7587m2216l5737m947K0392
121724a65926K9146M2972O9798Q3538O5991L4888J2413m103k1108k7072j4891k791q798k2792k6911k6433l5217m4057
121706f1353l1108K284L0313L4687J7789j3369n4439r0961r6606n5971J4407P3212Q5999N5907K3503K6312N5872
121689A6478O8115M1613P001L829K5002K8148n018m6568o1973m9755l2577k4307j9278q400N128Q702l166j7450j2582
121670g7058J6755M9401N8307L8213O887j6884k7082k4582j0616P857J4890j085k9232l9734j3462L2438N7419M0840
121652H3272M251j7410j7321j3983j4426n464J4354K1271J715j9308r612K0843K7895j0239o5891r5691q4739n1076
121634b31559j9521o44J0404K1779L2525L3417K1407P038N30l348j5642l2157l5539j8741O680K8560M7745O7169
121616g9897P8147O8784M2359J7366P236N760l307k4007m1246l8910k0204k931K759J566j969j1920k8602m0846m0629
121597a10491l4749l0832k2405k256J8766K3954J5866J0427R704J572j3109j5138M457K8979L8330L2349K3167J7850
121579c559J8255K5851L5283L3496J7401M278J1137K8596K8866q12m3495p2391p6186o0983l4832J20L8251O1471
121561A0747N1377J3677k0221k5994j4270j3333k8444l4640j1469L0523O3389O9268M8652J3897j6829k8514k1445
121544H6371r543k638J714O080N213k740q833p006n554j4302k8243l4889l1545k4967j9551j5904j5522j7041j3556
121525a52456m054j014j3688k8898k4124P55K0156J5561p05k570J5961L3717K9459Q469m736J293J1607J0667Q469
121506g6131K2187L9354K7922j1760l5375j2280L0261M4606K5112M239P28M896R256J9060K9973K6582J0704M130
121488A63464J4221K1772J3752L604N079Q435K64j1402j0544K383J6592K8124L3570K0463j4568m7980n2854l5897
121470A58478k9079m5430o4088o1935m0964j7493K31J4022K5408L3291L7886M0210L8223K6020j611l9336o3982m6974
121452c7123J3696P7692R3978N2128q116m1238l7715j7107M047K1017K5863O325l2867o2145n4041j3964K6006M1834
121434E8270L5900K1808M996j4685l2114m0520m1169l8880l0853j1058J4939L0410K5014M837j5750k5705k2302j2460
121416h9322p045n691P084L7774O2586N1262J1008j8075j6591q188j6226k5586j0345K1411L8514L0280J1148j0507
121398F3491l8719o5871p0295m4715o639K5201M6907N7780N3122L7543K8026L1973L4735J9595r926l7040n1070m9979
121380B4119l3204n228J7885J8782j879k3335k5672j0276L439J719p653q941m338j2517l6602n0501l2494k15R720
121361a77191q056k1412o287K4096M2511M0549K8186J6736J4038K4221M0457M6371L3784J1971o154j7169k1628j8568
121343D6455j3939k1536m3592n9895m8859j4135J8832K7522Q101k4219m2219k3796K6015P4518R0659P0524L0236
121326A00672j5288n7432q7408r7344q5528n6074j9351O202O775n625l80L2122O2801O0768L5111K1075L1966M3795
121308b3143K7266j8138o2530p1980m0418J520J7820Q384L265J4303J9143M784m741J0801K7385J2001k1612l1888
121290a27778j1569R912J8389K6230L3184K1009o210j8537q321k237j0952p052K5476N6238N0236J6080j4260k8642
121272B1196l1293k0341J696J4233M168j1114j1960q777j7301k1542K060L7241M4563J9714l869r677j5622l0663
121254c7288l2719o708K5353L2881J5614l681r955l632R418K0150J7267j180k2599l4445l7365l7202l3021k1522o056
121235a66690P609J8934K7872K7759J2325j1444k5060j5823R647L0304L0045J2495n987j7719k9838m4295m3271r621
121217a92758M3082P8753P9073O0630M8064M5198M0242K6621Q022r374k0329k1484j5488q605K78J9239M4323N1675
121199B77162K3708k0726l9258j4429K2587K6871o788l7690k9307N525K1264k432l6116m0381j5743K202r846l8125
121181H8478n3652m2421j0228K7501N2270M9421J9280k0769m8900n1716k8289P942L1434K2897q310l0315k3048K689
121163a5736K3731K8744J7328r046m1163n8452m7810k0404M170K4310N0378P6224P6881L9541j7063o0468p2033n3733
121145e4601k0512N811N932j9466m3602l7240k418K5419J5325k3813n3848n0553k4544K331K4890M6960O0680N5710
121127h7539M3014M3448N1423L8202J25k6332j6296L758m479l2613m0401j6465J2822K9972M2810N0319L1011j9273
121109A03506o8716q7329p9708o3381l9032l459K9246M4704N1117O0557O1135L5136m014k2217j0400N874M126j0510
121091F635k2021k4136j8238p525R33J952K614J2491K2914J5141o524j1411J6391N1463N6772K7951p060k3947k3108
121072G1287k0467l1154n9775r4361j09389q4951k7446L2014O2109N5059K8798P599P20J594O120K0117M0492M2513
121054e9121O460m7856p6626o3510l1943l033K8839O5322Q0224N3055O366j9034j3880J21P788Q219m905l6580o5878
121035a65972o1463k6509J394K401j807J3286L9059N1565M4452K8959J7126J7109K9739M0255L0376O572m597J661
121017F3606k163k8682m6650k4914J8711M3759M3503L9209L1538k66n1589q4714p6803m4786j3340J2153K9249K5418
120999f6761J239j5673j716L2077N7749O4497N7655L8665Q441j8213k4774j7135j6308k7767l5385k6685q011P557
120981I452J2837M994j3303k7032j8886O144K0839J0626n648m507N035m941l5224n2670l6246p580p0j3722k1802
120962a71704j3925p344j3341j6684j071K2052K8504J7780J6137M1866P9937R5943O9801J4270l5357n0258l1978q511
120944C6117m636j9471l6161m5515m9356m6234l0291o925N661r21j1250m770J7628L5726L5641K3766J5013J5157
120926g0821J8031J5884R195O884J7399L8216N4324M9768K3151q735k5488k3419j9872l3450o0192p4895n8776k0069
120908a62865J8340M5887O8650Q8159Q9595N9179O816l8761n7914n6903n4281n5120m5090j2109L1198N4942M4456
120891B4179J8710R002K2209L4674K4752K006m883J3595L2736K2497j4990m6945m8603k8724j1353m865k736n753
120873C5508k1326m0091l6670m443K8958L5262J9410L007j1949l9550p6607r6730q0207l3981J8152N1425M9982J9375
120855a80475j1140j5788k59J4165K7085N1587P2825N2050j3866p0318o6487j5662K9857M3205L5471K2903J5829
120838i018L0096P2955J16239J14723N8306j6953p3127j00587j00096o7115j2492K5773J8242j8490m1610l3606j4829
120821e1589q115j1881j2229m349Q043K3434M0532N0041M0480J4269j0116j7193j1440r499j7870k6034k3325j4695
120803d1536j3376k2000k8898k3206p275P708J3899J2204R122J1474K2580L9671N3437N1669K7312j2794m7271n4367
120785a647l3059q740j0802m1075o8971o3151k5746J1504K4613K0718J8667J8064M379j8255k1797P739M4312N1249
120767i1998K6972L108L088K2060M4261N7589M9294J1303m1181p6053p9776o9293n9289l9140J692M5955O9190P3332
120749d8886P4370O7325L3499j9539n4737m9493k1076J45N505P422J7851L5590M5782K9622j3291n1887n0506j3129
120731e433J8248J6977K611O012K5237L7009L4799K7629J0430l1407q4755j06387p2776j2745K5144K3865K385j5942
120713i9099j8497K869M5776Q3023P9606L4928j0049k0455o738j833j5174l1215m2400n4184n8424l2930K0733O4065
120695e9998O4501L4887J1423N892K072q486j3199m043M386o998l5441n6754m8912j3174K5049L7321J9341l505k009
120676d7647K7167O1007P4255N8582K4814m378r359P716K2496J6903J883k207q68j8378n4523p4495n5105k0682j2405
120657e224l3457m8226l3781q740k781j5438k1277p641J1787K2687L1921N2564P7873Q5627O5750L0599j388j9220
120639A81635j8078k166Q254p214l6948m1046k534M2395M5873P377l1961m5640m5541m9802n3268m0197j0708J7032
120621h2537K6755K2852K9274O2079R9360R4572L3449l9036o9313n6946l8791k7640o071K4927L7487K4478J2581
120604A47480J3580M606k1716l0077J146L1976J2661m0013o4343l8873n0K0768L0644L8067K6655j2860n5368p1585
120586g302o6467o3780o5165m8988o781L9878O3242N7695L9488K6871K5922L0139K7307R562j6597l1706k2834k254
120568a1770M011r477j7298K776L7625N6642N2303M2144L5603K3830L592j4165k5769m0749n7230n5805l1186p320
120550a2243m848j4367j9826k7072m6142o2680n3694k1453J1249L0214L3961K1219j814j2709K381K2953J9255l586
120532a39202j3264L326K8833M5768M9235L3919J474j9948nM4132N8996K7614m603M462L4981L8957P593k6546m0104
120513A35618m0038l7648k7734o4M1060P3477P1336K7956l1217o6319n9739k8840j66J6934K6131K8148J9996J473
120495A50364k5717n7571q1797q3456o2731l5830j3066R983L3573M3779L2846J3838J705o097j6293k1565j2361M962
120477a25434J8280K6675L0954K1296m033j9789q19L7231N2180L0824L488k179L573m396k7571m4407l8422j1780
120459e4329K2940N2996O9415O8306M9899J6884k2738n3368o0828m6073k3840o213O264J6059J9038Q162j6495m3884
120441B195n7216m5734j6085J0393J8411J5541K1061L8871N1226M2883K3127J5762K8660M0809K5542j4666m6271
120424A54509m5131k9715l6213o3316o7737k4650L3050N6990M4356K8318K2555J1580p941j5051j695J1372R122L456
120406H3859M396n37j6193j6071K0565O5781P1193L1303j2774l0507l2348l8680m6121l7230o674L3049O0691N6163
120388A89865J5852l4335n4493l0062J1612L1010J5757j4390l2256k5390j673J7600J4141j0064l3130l4938j6037
120371I069P182K1265K5691K7890L2536L4787K4044k275l0685m4489m3912m3675m9479m9254l3014r042R280K2647
120353i1434L9135N4517N3355K9540m243k8324l0968j3903Q486J6472Q04k6697m4162m1689k6975j0198P819K8938
120335g9527M5751M3564J6356k0540l8017j9857J7435L9224L0671J1202M839P100m905l6118o4816p0566n5458l3707
120317b07369j3514M467K1296L9639O1657Q0733Q2511O0877K7102k702k2858l4072l1192p505K8437N1166M0876M934
120299A84483k9153m3036m4392n0530o0929n6968k9614M642K1679J4142q112l0772l9348k3498Q702L1640L3129L2921
120281h5014N0383O7166N2387J7824R817M0474O4509M1410j0196m1989l5389r017J2342J2305j5600n4696o5889k6724
120263B4103L7931Q3380R2348P6466M6935J0075j9894l2851m1230o0293p7527p0052m5917l5044m0346l2105L051
120246h0970L8627M4284K1284p103j9803p242K1848L8629K1704j1061k3412j3653j4263l4918m5565k9302j0714q794
120228a20424j712K9119N4905M0418L348j1557L8N890l147n448K207l896k6836l7401k3744j2224j9069j7956J7096
120209a30393O5312Q6692P5834N7391M3110K6907J4578K2151M0890L6235m395m6019m7438j4976M931j6359n5349
120192A59102o4006k3413L5503O2999L9440q074l7621l5870k3106j8842j7370m555J4168J8307N02k5055m2582m9075
120174a9548m6735l5345j8081k856Q509K1194L1877K6877N530r785j912J5184J6522J888r204j1025j6151k8113l3402
120155a04576k4861j2466m983J255R406J5136J9028K9323M5071N2725M7338M1124M2183M0304K3609n572m0238p6587
120137I7219j00791q7572l1435L3403O4214N3727K7939R541J368j082q45k651r526j5418j2096k906o39j2745l4669
120118b4964n4045n6940l7615q007J1731J8199K7202M3383M5382J7573j9273l1354j5864J306N227M971Q766R830J029
120099e3463j3544k4798k3532j495L5962O0971M7581P397j8295o132K6674N0454N4112M0966J3662k1960m9963n6523
120081F8074m5295l1564k3847j7537n264J0677J8173J0636J923J5169M9307O9031M4375p406l9398l1546q115K209k74
120062G9328j487m87m620j0541q098N22l12j9009m2230m6221k3756L135M742j9505l5936j6994K2739M3773K8206n474
120042e2225k8262k5321K61K9950L8538J9057l233j284J2878L571l1221m8899k0782K4930L8270Q038l2400m8833
120024a16967l8082k1731k1069l6748m8539l9219j6653o23Q556K7338N3148N8386L2673O702J4008M6343O8101O1733
120006C7357L7017N695k7376m9733m2166l498L7690M7183K1166o871j888K8746L9699O637l5817m0015j5995j6473
119988B1358n1994o9842l5098J4826K9754K0269K6921M6191M1050R936j0347q712j5017m3263o5225n5091k2222J5812
119970a50694N6387Q9761Q9234M9497P100n093j807j4560l5554k7350J7953O1949O6841L6082J162j5292j4566j0921
119952B00129j5382k7973m0595m4447l3156l255L8486O8496O2263K4966o385m164J5704J5985j1671l7047l2191m438
119934A65325J8018K0269R620k802j7001l8160o1163o6820l8245J6429O1689O3104K1382k6063m0140j4398K5135
119917I6179M7347L9313R647k1218l4715k7401j4229j3522k6164l4782k6589j0919q110k4291m2629l7931K457O5661
119899f1896J14839J12123N4517j3815l9087j1914K6040L2208P367j6940k2448k1325l3259n8137p4055n7561o993
119882g0336M9590P2767M6405m499l6572l1378j1786j1621l3466m5844k4925J1839K7042J3688L388J7616L3658J9493
119864B5059j4206k7213r254P576J627o161R783L5616L6746N448l3502n5974n6184l6885k990L2925N2303M2425N015
119845A2154m0885o2688l5761K7526Q1275R0055O0374K1206r049k2649j1321J8965L5412J0272l8591o4533m8080
119828B3682j3719O505K381j9724m5281n1975k6531J2919L3035K8724K7625M4973N9692M8343K0228L08o442j3026
119810A31717k1694j7293R649M4645N8458L3854j5885n7328o9558o1816n3094m4609k6807m547O130L265o71k279p239
119791i5102o768J6756N2914O1138K1862l2471n5371l8067p138J2978J6976J0549L161K322M542L61o662j738J4143
119772b5615K0570J1760Q710J9877J7180k0868o4374o5690k4815J4270K5134J9990J1881m443k5583k9368q575J2424
119754a07535J3385Q109J8246L5381L3903J1625o848n445N094P772K659K789J6090L7563N4191N4076L6442J6221
119736B33718J1967K2853K4126m054m6850o7775n3351k9418k5407l7324m0101k4920n623N437Q121L934n031o949Q531
119717b8116K7150K0079j5651m6391m0544j850M2047O5744N4960J2415l3889m9540l2815j3852n950J1585M4912N6440
119699F6734J7824l5922m7597j6276R185N666j268R075K0014J0363j4430l7822n2288n2703l4197p247P110N701M973
119680a43105Q486m21k3236l2516j1280J7935K4598J2212O879J7862L1488L5689L0715J9670M094j2724k7764m0182
119662h1600m5610l7172j9838j3415k9662n3075n5778k8498J0887L7043L9843K9113J9746J3717L151p074K982L2901
119644a82339M3545N506m5284m3050J4493N5486L3466q372m124M1558O9663N2092J6098m115J057K6884N7201N8500
119626A88265P943o8387j15518j11683q2724n4179k2963J5201M3692M8062L8141L0304K4957J5379L533n938j4678
119609f0593k2763k2886j0640Q997K9213M3491M0671J6931n211N828M5861P1330N3374J3050j2627j6783j4866j2423
119591A49954p405r631k9277n3232n8730m6142l4902l0832k1525k946J3114K0116K4301K8336K6922K1266J8564J4749
119573B2700j499k3699k9416j4812m999j8490m1742n1980m5434k7779K124L7399N0555K3663j8830l5070j8204L159
119555a92354J3020K5023M6738N8067M0158L544k8260m5397m7466l1382k379J7867J5078L131R58J910q199j4363
119537a44306J0453N2852O4015K9982o04J5800N2688N1788P386k9299k5181l052L939k241m709p971k4789m2955l5826
119518c2030k595K6615K7494L991k7525n6278p3014o7125m1095j6292j1268k0763k6081j9302o104Q893K5541L9390
119500b67548M3836M2419M6496N7087O0337M6374K3220N735n68K297J3720L0727M0873L1694P391j3133j6465o753
119482A47739K263J364p642j4488j1425o230j8015n0138p4362n9999j8110N011j3840m3637m0963n359K8377M1177
119464a38277M5752N4219N7933M8411L5433K9012J8831j0136m9398p2055o4605l9495j5276K423J5481K0588J2555
119447d8604l219j1636m071J1769K2435K5275K7298K8586J7815r043l4661l7813k1538q960r724o986J4488M2129
119429f460N1108L6439J3952m325j7389j9260K752M4543P5292O6174K3839j6527k9874k3447k0226k9885m1505m0350
119411F4851k4475k997J7338L7564N6762O2575L9364j1936o6684r3963q1506m2055L321M3026P2997Q2852N8379O354
119393B21767l4494k8045J1949L0160l461n3591o4799l1905J553P177O89K947O091l705j6329j5233p080p485r424
119374F782N484L0539L9380K9055K6982M4971N3539K1182l8567q0998q2388n8649l5589j9979m484J3115K6100K9672
119356F147K7007K2789J5483P15j8826l3344l8246l9148l8633k5984Q184N1216P6629P3258N3254L1333J2361K302
119338A86497J0796L1153L5487P422l1773m8672m1982m0505n8684p5165o1767j8877K6063M6487L7330J5494M780
119321B4084J4535K9533K6713M276j3884p678J3089K1084O142j3358j6479p343o643j8766k2622m077J5127J079m1140
119302C672o3415l2759K4797N5507M0115M539k2251l5500m0184l4787j9377l297N343P401M423n278j6608j6896k966
119283a47521J2429J9139K3118L2756M3431M6256M2309L6880K8312J4177N11o885j2546k0642k2702j1011K882J029
119265H1922j2683j5689Q85K0218K4242J4932M502l456j3610k5985l1255j8656J1562M2057M9798L0219M601n892o532
119246A51180j5510l0672l0881j1041O322J388j9675l9545m9135m2769j4770K3638M2309K6984K615J588K0593L1491
119228E4110K4243J1997n29k2810n0314n9829m2377j6759O62J6939L8897M9465K8053j8191o1956q5448q6252o3924
119210b84023k1621K2735M6585M6307L7966L4641L4875L2253K3231M969k1256m2063m0258j6445O840Q808o755j6048
119192a49259L30L7870P0305P3463M9940K4211R721o207l2766m6696j8788L6070O5927M5393N170j4248j3847k2556
119174A14033n1626q4588j00801q9196m8576N629M2677M4592K7451J7063J2085n710l0872l2747K113N0269P9699
119157d8505P6800M2155j3688o0427o1951j9276K1171K2643K756j71J3368J1137j3740l1365k4855j5222k0908k3600
119139a43678n92K9724K7903p902l5665k6281J381J4370J0620R380J2769M078j9224l6251l1887j5459k274O191J3017
119120a89780J2906L507k388P524K6346M1783N8830Q6397J07348R0523L7634q264j4197K926L755k2056n0491n9120
119102A33183m8533l1160j5764n481q14k093j2446l4105n6866n9215l2418K867J7983J1901J1192L3529O4401P4864
119084E1025N3404J5654j1694j4015n09O602j635r047L379K8197L7977K0887n331j8943j8725j4888r965k764j917
119065A07692j7975m3177n4174l9066j2138L646L228L406K1500N2432O8552M6418m198m4420m6324k3552j1828k2843
119047a2821l3032j9774Q783K9248L2990K6279J2357o874j7252l055K6285M0095K4023k339j2833m207J0200J9796
119029A17869J8278K409j6016j3536J0716K1218p646m5986m3779m605J7582K30j4367J1538M8075M0706q576m5085
119011H9025l7526j0609N59o074j3783j8433k7463m1815n5107o4006o7352n8899l2228N297L0382K3174q014k6198r41
118992c20011N3092Q4549O1025O521k8282k4579q629j0879k9714l8531j6476L0617P1685P4186L6458n829j6047M981
118974g5863K9305M1635M6314L9036L591n2707q8637p4766l1484r23M799N034J1983J7869J8219K0905K5727J7181
118956d2782r785l2654k6427J170J5604l073l6879n2583l9134j5069l262q665k1955l4065l9008k9382j818L2352
118938c47415N1487M2877J3584j7418l1887j9644J4689M9275O1510N4136N5036Q1049J10177J03613N3311o257l7270
118921B30853l8372l6953m8227n5514l6306J183K1243K521l5401n6299m9257l2812k2028j0137J2482L7433M7791
118904f7800L9530K2784P239m217j0855j2143r420l579O754J9130K2201M670k9372n8687o0965l1183J3458M4869
118886a07586M3354J0433l4008o4557o1256j8214M6814R4615R2381M6583j517j9712j6159k0172m1218n9381n3951
118869a63551k9753j0901j2808k4594k1269O498L9037M8927L2074R705J394N832Q706L04j5939k4566r800K3268M2940
118850i4496K2348k4252n4483m7545k0444O198L0823N0401M6603J2127k9984n2553n2204l5728j932M1510O6428N7425
118832g9758L8450L8025M6021L6057J2805Qm193j9093l8074l6692j9393j4208k2357j8674l328l311j6032o047K6392
118813h3402K9695j8555o7063o3078k3677O668K7910O2537R3529Q2190L3199r173k2358j9571j0711P372K6208L1673
118795H3393L0914L6012K9496r998n4786n2744p275K0476M3k9715k7795n847R860K3264M0954M1153J1093j6536p206
118776A14756J9807K1598k463j8089j3425l946R079L6475O0434M6067K076j6153J8715O6587P6254M7300J1002k0720
118758D55354n5051q6094r6789q6435p0298n5614l9102k3731j6092r114J1007L9350N3522M4418K8327K3172K8427
118741A45257L4122L3593K0488q871l8041l3328J5436O7069O5303J993p4737j15600j13031q5746m5956J26L5517
118724i6406M1960K5850J5729K8135M7218M4099R341l7639o5496n4894j3359K8806M2429K4531k177j4810r510N260
118706A9067K3504M1886N2448M6511K5214j087k2947l5504l5258k2476o429J615L217J1874L3133N3276N3983L3191
118688B75218N900j1448j2708m324k884k3592o0213q1253o1327j6752P373p537k8112j3141L0033N4664L5811j466
118670H4242j9998j4391l713K516J0144J8874J6053m182k8606l7056k0797J0923L5457L0794l089l7260m1137j7939
118652a9165J578K493K923J8621L2142J8136j4373l1401k1944j0801j9526l7273m0997k7789j3796j1089j7433k2679
118634b12373j6803K812K5842L7471L7226M0030N2276N8755M3409J1761j9591m4258o0721n6766k2123K6594N6099
118617d0360N3791L6770K2947J3460N724Q49q042l0676n3116m2401N661M7819M5578J5296j453p2j0427m0695o1661
118598d1008n0882k0508P276K5711L4764L1398K0027J2339P613n614k1154j5875Q507J5415j2024l5701j4722K8548
118580b5890L5505m765m0439k9458R249K9446J4905j2751k4929j0426J8941L7457K9739J0076O093K2594L8337M0220
118562A43904L7978L7351K3554j1641m5934n1410l1730j4225j3592k3299l6704n4826p2795p6681n8104k1281K3381
118545b46054O0777O9777L8762j3798n0167n1600l3236j5222N132L8859P4340Q1193M6806m879l6702l2305k862L1044
118527d0135N5276O4463N9347M4275K2322p314m2052o8649p3334n9844m5071l3274j0470K6183N0842L9495O163j4367
118509b6144j2763q395j0291o150M530q41l0101n4075m3878j0667J4364K3595L2725M8621O1336O0994M2494J698
118491H7052n2382r0313q9949o4546m1210k0830J2198M7204M9935J3007k7557l6737j7003Q264K3486K3444J0956L103
118473a61878J6607L6536K5878j8647m8363k3459L0902N6960L6505K002j2504j928K2533M6974N4270L4403R17j9580
118455G8128j6983l154R696J8347J7121j888l1002m5701k9845P369M3837O4545O7263N8799M8481L6965J2549k9796
118437C04731o8131p0429l6173l101k528k2551k8811j0391J1658J6478P128K23M508J5600K4784K6578K0726J2093
118419B02392P843J0081J1149J489j5167k0334j090L1581N3209N2688L8548J9938l246k6895l6588k7368j6939k3715
118401B57576m0169m4200l0587j3787l426L838Q046R78j6933k9624k2412L365L5308N8544N8268K8818j3744m0714
118383A99145l9986k7124k2728k9835l9025m3048l7239j6264J7582M8264N6990L6778n761n3560q0629o5945j8978
118366a21363J9041J6141j1353j5864K4375P7290R0279M5119k3102n7685l0313L5429Q6459Q6428M2242r340l4964
118349B18819k6334J200K5534L6208L8512L8756L1081P528k3980m7338o2874q3807j03042q8336k7945L8725O1374
118332C4081L9117J4365J2556J7845J1493K888O308R942p786m1029n8463m2402r544J0934Q342n505j4938j6538j9798
118313d8132l4790n6465o1196k7603L3319P7047O7178J6487k5903k8250j845K8838N7603Q2100Q1057L8589j6327
118296A81707l1107L914M2304M5930K9293J9820Q272k5671o2303o2261l0099j0566j6894r705L3399O9225M4884k4210
118278B05932p2266o7068l7228j7937r095J283N682p629k7817l3856k2392k974K3182N4771O8633L8869j8212n0595
118260C1283l6478j4509k5195m8779l7455O088K7720K409k7375j2805L4719O5620N9219L7248J9508k149l9348p7019
118242c7298q1522l6684L3166Q0913Q2538O0775N1592N3738L5850n241k8314q988J4745p853o4919r6408p6254l9424
118224f9588k3642k2353j0435J3037K9277L0299K5737K6547L4197M2489M4462L9680L3394K4659M691k1925k7842L164
118206A75848M2309M4286O201l3293n3716p3943j03915j14599q0133k0965K2205L6800L6209K8733J5897P228R767
118189e5081J2581M660k123R558L3227N0402N9856O8194O1959K2260l5699p0530o5981m6258l5584l0714k2003j4468
118171e5744j3557j1295j876N595L709O54L308O84j8644m2333m5575k2918N695J9916J8145J0608L360m283q746M108
118151a49189M5385J00166J28189J00766L4583k4144m8726n1685n6135o6209p2374o8225n0092j4596K8399N1388
118135a12499L6072K33j8007j636L2544O0560P4696P7296O7062M3392J7601P016J4764K2039O938k8873n8398n8879
118117A81921l8833k7012l5628m5943l4192n65L5219N7058N9947M2664Q914k5871m3850m3659l8587l4119k1378J381
118099b533J5919O399j4055j6420N253K3921J4416j4286l2506k8229j7330j5395j4996q51K3110L8578M2522N2286
118081F5803P2945P7708M0256k2230o2471o1102m8148n7405q1266q8437o9527m0809j2616J7623M2943M7911L9050
118064a39772M4564O8738P4070L3349k2101l8274j0327J6680J5254N325Q896J2413l799k6662l0158j7222j1478j5541
118046c6045q995J1171J8270m026l1625k7999R562M9382O5630O1896N3778M4674K9072J0625K019O351J1406Q559O767
118027B80472J6870K9253K2917l859k7682k9510j6587q176j1395k0273k8155k9942j9714K102K3788L3741L2160K4805
118009B70815J3526J617k605k54q156l3377n2443l9196n913J1955J0280K1474N6351P5646M2783k0529o1253o1913
117991B18808m9215m4171l8320k2910j0004j0427j3674o840L019L941L911J9383M5576O0410N7150N0935M8518L4308
117973C50398q27l5352m0594j8045N360J2019M365j3409m0198o3312o3419m2594k6616k8056k6756k356L1550M6085
117955D8243L7481K6456K4539K3721J7408R953L228p189j7402j3076J0431L7591M9774M4533L1699J6873l924l3659
117937C06680o1620o6645m0851q347m140k7946l8252p625L5713M6433K6620J7642L3963M3888K2617j1332k8035k5799
117919B12964k0819k0258k4177l4348m2209k5857K0493O8101Q4173O9266M7351L1619J9362R412L137n550k2740m1459
117901C28461m9481m2545j8156K9304Q8931J23679J06195N6548J9013P016j765j8875k5723q200J6364K1415L947
117884F36128j6410j9223L215M1610P1015O7497L2111q334k8650k6425j4635l862L062O521N764k356j7977k8609
117866G00442j4672K3777N5082M9238J8900O288K8740N8472O1061L4396K410j2088l70K9175N0863L9542k27l4159
117848A096870l5523j0885J6999L6005M5658M8248N1912O8465R4636J07882R3944O6321M5457L2787K0669J2613J3504
117831A805562J3413N367Q169M2255Q7669R7854N8984O757k2465k6976j3598L0280J08517J80058J89064J31871O5663
117814B768444M3995O5961R7716J20607J38322J51650J53388J47420J48972J58015J51610J16566P6270O6836R2504
117799D498276J22500J31238J25002J26246J46860J82715K21263K46725K48996K36765K33477K51939K81143L06121
117785G359266L29563L59591L83745L74497L23153K53858J97418J60471J27466Q6414M3159J1484j424N068L2755
117770A0046484Q1386J37840J81129K05243K26021K54513K75892K75117K76890L32938M64227O38661Q12789R68808
117756A5177938J094509J153845J109732R69321P82343N95700M25252K66314J12239l7786j76525k96538m08892
117743B0767452n42904p11283q85776j027288j131788j224746j318261j399107j452760j468872j424332j295620
117731F884715j098051q86246p05317n63103m53494l74871l13518k42725j61540j08985j14063j50552j66180j41496
117717A404574r7284n9467m1933n0573p5950q8809o8183k9856o221n024j0145j4228k2656k9046j6693J1976L2424
117700H32906L0285J6298N502J618M985J4360J5982p005m6731p2577o9635n5890n2037n4517n1123m4228m1349l6613
117682C90231k0497q56J774k1630n7494q0108p0411l2519M980J4214j567j3824p212L778K354n147l433P975J9598
117663A30206K8431L5341L5982K6831J1441p814l0864m4821k8364J3429M0735K8286K931L310K0120J3878j8169l6229
117645B24660k0882l20l634k3857m4053o6317r1413r7973p1294l3954j8061j9065o303K6713N1281M4819J9972N178
117627a24503J0854K1566J3917j9013n4233n3801n010N6772P9635N0086L023k4191l0403l5536m2939l4741j426L9390
117609a50553N9617M9857K6549J1511Q470K544j7210l8496l4393O599O2335R3474P9082L3595j1348l6599m3098l6180
117591F5756j5426J5518M0396M3599K8750J3681Q053N710j429j2942k4476l0949k2964N738M0655N0913K3466j7308
117573B16741l7366l1749k1200j8852k0619k5059l8134n2591m6084j4589J0045l477m1489n9545l8680n444Q250L504
117555b16338L10K947K5r061j0510l7R763J2363J9520L8544N2090L7798O37l1425m0687l2681j7778J713K2132L2870
117535a27805K9441K1550J9829K2562K2655J9692J7185J4348Q504J067n069r397j0060k153J4512L1654M2040M5903
117517A56458M2071K1653j8717o2815q5513p6314m4781o286K8216N0646N5444M4139K5552R926M076Q418J5072J3385
117499A80630K197p715p551r24L968L790n182l0810p0635j01193r7766o3678k7630j2422j5928k0490j0763J5189
117481b66913M2540N1077L9782L3078M8855O8150N6332J0621l5429n4709n0610l4946p670K9372N8671O3242M5056
117464I6499J6731j3401l9440n5057o2002o7334o3048k7207L8933R2182Q8385L3911k2872m4412l0384j12K7332L6480
117446E184K1500m664k1085k2666k2714l1709m5528n4728n3264l8200j3169Q939K0191L2193N9285Q8433Q8233N3082
117428F9313J5066K69m712k3939m7681m2961k458M1851N6581M0270J4217m449j2345j2920r937m997K486J0582J0730
117409I4966m252k6016l3993k0490o185j8755n4588p2529l6118L9293R2730P9427K1576j5043L980M5251N5060K7379
117391A71693K689N376J1361j1572n4691q0276p0517m3077k2609j6458j8303j8426p999J2307K6446K0845Q301J4382
117373g0528L6527M1686J7084k306J8987O0127O5833J9095l8664o2603n1723l1983j7452n695M148Q918J1433J7370
117355B0254K3047J7345k820k5353l3105j9733L644J7713J4169M672N517J5532J8940J0988Q255K5970N3153N9994
117337B18182K9379k2632n7699m9451j1918J0684p333l9603l9288k223K5176Q168l1296m8946l5848j5922o25K0304
117319e0891M3602M1088j707n5538p4682m6903j959K7120L7761M7451N9028N2866K0582q684J889M3153O3760L6852
117301B34788m706j8921j3415k1649m1107l8865j3138k390k3582m3072k8459M965K3421K1734J4676N922m119P67
117283E2850L0475O0946O2160M3678L7005L9134J3755m7798j04989j18322q8894l7095K2582O7669O5747J8266j9998
117266I7171k670M3047N1197Q291l2163k9103o559r206l6982n1572l2049L111K6018L0276K7636K6701K3456J0726
117248A47326q320k0799j9439j1082m249M521K0612L3388K5325j362k5201l5184m0804m7208m3148k5294j1306r543
117230g1767K892M3827Q2373O6692n250p4379q7783n2095r435J6331L1650M6558N6589M9843K1340j9340n0933n5166
117212h053l2807j964K1014L4312M4202N2612N3750M0234J4169n730L047L7178N9825L8617j4273n7898p2999p3863
117194A31373p2342n9748l2407p562J003J115J107p303k6371l3450r464K8150M6674M3071M1795N1751N1517K2143
117176A71052k3580n2718m5282j3061J1240O346j5178k5321k0305k2691l9032m2989j8103R221P228j2184j5959n057
117158a46373o570j8894r814K6346N1734L8457M354k0576l2108l6846k7695L32K8468L2862J4711n547j4172j0838
117140a32169j050N054k007j5069j2784R743K7780J9595k304j0109J360J4789J8036J2090j66j2570r685J6104M4716
117121b8646M6826K1606l830j2475j3075j4016n198K1426N0118N6597L6992Q428j4013k8810l9353m5972m8902n0683
117103f2980n1334m6248l3398j9114j1290q206q49J2354K0182J2886l380j3043q589N288K1778L7206M7423M8245
117085e3069M1156L2179K5113K0863J9316J4058o739l9621n4197k6227J9178K7840j0638m1239j5010M4852P7399
117068G5214O3469L3106N154l4233q5039j08300p4174j0313K7107J9964J180N777L1238M9101L8819M232l2221m5579
117050c5498k6797Q894L5803M1780L3142J6758r752m3550o5098n6401k6272k681K77n263k542J0021K4718L6064L9200
117031b7197K9649J3929Q618J8395K6374J8484N998Q823K6326M1307M3816L3046N367l6363o7758o3008k9062L628
117013F0372K2513L8069M8335L2452j0308m6338m9469l2339j9227j0931L615K0810K8592K3928P128k3434n3371n0562
116995a0165o585L7704L6309m810m2661n6628n9211n4374k5279K7639O9044O8121L7304J4201J4682J9131L721k6006
116977D2137m0875k8008j3858l1293o7360o9775j5296N4168Q3405O9248M7895L6259K0938l300k1283k6179k9782
116960G041l7807l9643k8826j1878Q020L4105N6794N3485J8090k5361m8023m3990k7956j6191j2666n497J9853N4154
116942d6296O1523K1521l4935n6200l1223N302K3713K4733J5747l030k1717k2015n818N252P265K0894M9978O4669
116924G9363M2559J39l2713m5356m0684k4063j1791k1638m0484l3524j173J2518q864j9099J7331N8824M4813j0141
116906c3983l9593k5009j0357k1118l0661j8566q272k3584m7613n0891l3276j6087j1586j5556j4866N218M4162P4445
116888b77193O9186M2124L1347M1126L6761O858j1880M941K4440P521k6310k8849K136K5923K8187L7049O3463P2953
116870A49783L9303q733k5215j0672n589k9298n7201o1776m8681l8615l1703r793L1811P2767Q9191P3871L3132k1150
116852A41432o8444q2924n7317j8696l446j5003k0650O528N6657R9561J17106J08307P6429L0227q074j8315r787
116835C33591j4448m3359o5815m7820q38K8597J6037j6127l6671m5476n7889o5817m3409Q029M6870L6075j2843n3858
116817c5171n5932k7470J213P069j0725l2931l6550j6008J2219L0145L7334M1473L8490J9141o455j1701J0727L3465
116799a667K9196P787p40P839R293l971n263K1817M6492K9519j4280l0272j512K8266K3159O906J6882L9382L3914
116780B42747K547j4438o249m205k0468k4663m04K0835J1859k657J1639L7590L0394j3180n0134m9133j8755J7358
116762A70683M1049L7313K980l9219o0131n8733n5525n5988m7807l1872k5090k9618k8605j6772o271K661K4851N4973
116744a21121O2664L8515J4321J7068L0033K4268N579P95J2315J6302N46k0485k7206j3928J2210L7345M7414L8502
116726A75137J8345o053l1963m8356l9194j2102l238l1552o3797n2682j758L6866K9230l158j8298k920K3885L9481
116708G873L7029K4111J1712K744r744l0217n1182o3977p2449q1979p9904m7456O219M3478M2700K6313K8540M7379
116690a58810M9365J8584k0651l6103k5488r261L385K2201N0279O9873O4013M0337K0147J0986M492k847l996K654
116672I9160P975P294O774R416Q545J351n603j1674k6622m9123n7712l9002j0629K504L081J1116K8089L6030K8909
116653D9879J9866J5185M952j3580k4374j5152M178J7029K1349K3636K1874Q359j4110l0332k8226j1410M560P653
116635F1336K455O901L1950O5113P8943N6989R314l5607n2091l6343j0847n378k7156n4434o3908n4072l4006n570
116617f6411K5407L6030J2715j7378j4539J4081J9628j5523m8475l9542r571j009q617Q466N6320R1107P9052L7701
116599A59442N726l011j693o202k3564n1719p6825p8917n1823j3062J3243J8236Q788m524j1434k492K1344M2263
116581e6224M1040K0244J707j866j244q801j2908Q820N1550P7703O0093J6977j1885j4933j3260j8616j4339J1798
116563A35856L8934L6643L397l7037o7133q3557q2441o1014l2617j7521j5599p531J4022L4548M3265M6078M4450
116546g257K5166j2504l9364k7973R931L7921L7674J7701j1133m4068o9269p0831m9452k2143J077K2591L8845L8898
116528a24190K6997K3625L3389L3397Q587k0647k5252o660J1378J7528J7105J2001J795j568J2175K5066Q218l0187
116510B2757m4699j2675L2130M3918K1260k605r508j1015k0305l2212l2031j0925K5250N2814M4491J117l8610l7398
116492h246k468K8882M0655N0338O9240P8033N5030J0454k3835l0324j9180j0569j3164j9013j5355j700O455m873
116474A90360l0553n3198o2706n8787m0581j0323J5320J7237m75j4770j6166j6957k2509j7968M585K6671K6889Q201
116456e5730j2799k8402l6266k8728m084K2804L7634M3631M6811L9150J5137q773j3210l424L580P274J4671J5310
116438E4586n003l2231l6718j5297Q177K2013L5007M5844L8668J5239j169k326l660p215Q020M2738N9606L3376j0525
116419B49130l3922l6500l9187m0269k3604L393J4885L953j3886k8940m1956m5363k8342k96J6171J6947J8144K5508
116401A5866K5785J2299l046r276r080o403J062J1002J4079Q539L217J844q22l280N215K4289L5329K4271r07k3888
116381A26095l8713m5450l9428j8184P334K0276J4534k256j7723k0747m843K3977M3917L2522q668m8051n0523j3807
116363c9738K6848L6755J9256L636J107n125k2890l2139j9235m501j0092k1411j2880M626K046j2340k510K9136L5418
116344b4033j582l7278l0346o19J1183O200J0151J9794J1935q880j6349j0832j9603m6177n8078l5763k229J1075M229
116325b17202j087N142J3425J1160l434j9042j9282J191K8855M6492N1813N0690L9452J2313j7460k5954j0600O794
116307d6734J2917J6370K0791R562k5212n7469n4327j9900R656J2423K419K010R390M647j8972m2270m2336k1787p527
116288b36349j8627m2741n0631k8558J1800N0235P2942P3488N4124K9220J5172J2360O895p502k1486k6573k4393
116271a30624j3288J6333N9950Q7681P5654M1023K4065L6085M6062K5116j3946l4928k5862j1797j9949m5775o2389
116254E3411n7303m6139m5592m5608k4301J2851L0170Q429k2974k0624J4570L8839K7116N998R964K7048J6571k7449
116236d5023o3604o0665l7496k6216k0522O432M4449M8510P013k9767j4008L3089N1654K5086n645o713Q451J4642
116218g0333J5766K7196M1661M1473L0657K4899J6632j6949o7814r1141o0520n118K8060L0866K8772L2123K4239k045
116200B8424k6953l4937l9792o0591q8065r4528o8589k2889K5269O2909P7409O5000M3321L6710M6727N3288M5378
116183D8091L2710K5657K3505K5812L4125L7634K0831p069j6576m110n745m5192r3926j08157q3930m7692j2284K4148
116165a52168M9675M5696J7478j2280l4017m7043l7001N105M9714N7659M0291M3965P0431O5019J841o8738q6957
116148H670n7696k4819o842L510L877j0735k2553j2086P388J2399J3646L7547P1109P0497K8736p993o162R621q73
116129A17241l3824n3167m5733l3669l4783l7628k4386K44J7971K5102L4077M8258N4030M4516L2472K5637P678l2430
116111A11606o5659n0837N386N0712N3835L5315K4431K2675K4931L6898M6590J7662n3140j04721q1431j0251L7841
116094A01843M4482M9440O9693P1725L3113j8193m4921m4780l7060l4669m3267o1029o7903m2033L225K7110J6118k65
116076B2629m06j481j9579l3671j9408P193J3258m65m520J4023L9152N2175M6192K0004j9271m9665n0248k4048P046
116057a090K5508K5563Q315j4471k2027r289j713k4422o3023p8404n7614k5777o638L879J8580L6617N1763O4800
116039f9443P3363O2774K3532k7856n9009n1937j6609K1625M0898L4249J3118o66M611J6094R927j7851m2416l9323
116021b4919j5714m06m730q885O378K9419L3852J6323r73l994k932r085j4523p664M819Q798P443J5893L2545L5702
116001I7347J6237l039M279K9219L5768Q857k4792l3368k1919j9871l5798m8506m3456l2809k9971k7680j7651j1864
115983a59017k1881l2541k2493l72Q694O328J7494M2922N0071K3087q489q819J9037M4992M9731L2024l625m3549
115965f406o1109m0599j469K0085J2140n036r595j223P582R971Q519O517J469j0789k5751k9444j4236Q977K3608
115946a06789K7110K4782J0832k2465n7874o1976k8392J1378K9420K9529K3030N232k3618l8874j9810J8764M6923
115929a32798N6917N7820N0387L3976K2855K5218J8420k1175p1871q6257n5583j9487q359r844j465J4677K4551K5670
115911g6348K2448J4966M948r02l050j1710k9476m3187l9247j6405J9018N6341P5813N7772O373m5530o3100l8767
115893a10043K728K3224M383k6642j7685M3499R9237Q5177J2928m5815n2050l3818k5395k1866j2620j3656l4265
115876a22679m6716k5967O503J5921J0376K3411N4204O7580N0089K6681J7106J0287p309k4987k4078l751K0758L4326
115858H1755K9796R959j3622l0954m2498n0354m6970k6657l049L437n936j1410o932q161k3857m0216m2973l6185
115840b64827k6482n461L4401P6691R3146P6480M6406K3152Q284n437j7308k0179j2977k769N145J1534J5366R954
115822D5119n236j5351o622Q702J548l2367n7761m2772m136J2464q199l5253l7637k2313j6651l0472m8970n1903
115804c47810k8277J7895O4365Q1858O2119K9909J5833K2299K8070K0946J0357Q131J1727J0828N63j5425k7393k4421
115786e8426o642O641n879l7393n3124k9756J5520M6064M6949L1920J6783L800q132j6117k1845l3007m7152m5998
115768a95794j7705K2462M6476M5079L3094K4803J7626M309j0375j5080r382n602j1762k0491k0812j7234k7228n5488
115750b13104p8859o8584k6792J1694J9191N965K102J7774L6183M2611M2929M7670N1656M1777J9534L558P958K6151
115732a0586M0536M3263M0277L5684K1661q395m2438n8398n2016m3194m7458n2786l7407k810K6948L6283L2198K6189
115714e2449J9666J4392K1036M2098N5495L4607j3112m3127k0256L8259P7744O4137J5958k5500m3617m9691m9402
115697H6238l2895k817J4854N865o163P759L6858M5691K7236J0030J1622J6054O712o422p652j433J07j757j228l447
115677B05212j3667k3530k4918k5350l1901l2711j5845M295M927o898k175K3066L6713J5694k0078l2408q503L2349
115659H4272O3657P0296N0308J2230k9185o0141p0607n3102r931L6244N4625M0342K4872L7099O1724N6368R804l8575
115641C40300m6816k0068M285R035J0485K0577K2091m961m9824q2489q8971p6421n0942j4300J7554J9856n765k3020
115623a9394n202K6782L0352l471m1344n1526l6602j8379o564O768K7946M6406M1871Q023l2138m2514j1592L1736
115605d8842M8803L3682J5162J8651L8171M8339L3854J789k8517m1829l6887k5717k3103l3719m8413n3789m6111
115588a48476l4956l0876k9976j7506R161K9847K5234N072l314P683K0305K4848L3461M9645M9785J7337k3337l5015
115570e1078j8601o964j2535j2579P959K7313J6010k1404m9277l9489K43L2081K0828l0479p6701p2103j7867L9929
115552b64714N9025L7632M339j3662q797P911J9585K0759K2209L2869M2637L5187J2790p075j6360k0001j8301p707
115534f1674Q46j0035l1567k9211J2236O5013R3455R3372Q0609N8124J6374m0857q8958j00974o8513j0840L4747
115517A2147M3899K9753K2154K2594M347l6763o3045m4741k569K2750K0673N589j5021l5639l5656m879K6176K0051
115499h180j1121k2262m823L831j4876l0736j5499J3684K4132J3053L04k733M051J9729L5383L2365O360j9721k3149
115480b08q681O030J5912K1240J1478j9231n0359n3279k7416K094J9080K8271L4766L3216K1408Q083J498Q41J046
115461D5789l790k1343n3068q3546q9669o5049k7953k461L066q37K897K1459M3547N0818M1785L5493M3645N1394
115443g823M0316J9237J1331J7870J9633J1820R651J5552R836j4554l4355k9232j0355K748J2233K5503K7909K411
115425A29731l4548m9361l9913l5465m5315m1624o877L0819L2986L180k0701j7458j967N011M578J0289K5302L8704
115407a2629L8615K2073m107k6335l1030j6236J742N7k5793n1365m6062q285L0386M0380K4222L600j2450k9279m1878
115388a44374l2171J772L3103L6145J6079l979j2343r001J0195M4918P1242N9594J6702j5929j6091q830k2986m3075
115370a9029l3871l08J3154j3903m7636m7920k1323m565j1844k4625k6946k4900k8194l3271l2691k6843j8430o409
115352d09554P854J8397K4371L1421L7866L2378J4200K127J0096K4709K2832L995j0862p215J2629M1182O8717P7639
115334B782N5004J2973k0851l4833l7553l2427j3358J0385J4147m101j2487Q980L5152L2837J1140M441J7765K2475
115316G2471K993k3054l4132k7780r719J5023L2389K3824q155l7092m5891m5165m6235l4889P446O5989R7700P5907
115298H1630J8022l3288m9662l6842k0257j4639j0907N824L2781N3492N9662N4419L6292k71m3748o5077n0179j8449
115280a197K525O617J461j1809l1874m2617k9193m392K934j3819l0586k3818N814M1090O2477N3491J1352m1296p1213
115261a14053o8109n0152l2855j1790J6140L6739M0242M0428N0388N3664K5998k1747n1618m9847m1573m6495m6316
115244b70956j3615M3797Q6539Q4966M5579L300n287K6959O3728N6269J416m6663m0675n47J5655j0984m5026n4766
115226f0311m7558l8970k3003P083L6190M9217N3862N7706M3439k158m8509m6808N285N4784N4630J1099l4139m7409
115208B4430k2576K1444N1930M6270J4517j1752j6599j2118j1383r613l266q741m0761p9285p9793k3609N1721Q2407
115190b6777M1671l0402o7068m4467K29K2493K0859J7115R423j7675m4596k4683M5371J02596R1983L5696k199R84
115172A30553J3654P981q007j8010k3408l0068l3303l1000l5874n8673q6674r2391o2946j3716K6680M0362K9709Q994
115154b36137p513r477Q071L7835N8978N5327L4571J6187J015k6781o1537o5458j6611N0621Q0412O2720L8158L8326
115136E8707N1014N1707M1438L5126L0474J1642k1593m7461m7237k4881J374J8285K4278K3826K2056K2665K4611
115119B76031K0249K507k3833m3635m8083m3763l9063k8780m171K5388L6325J9794o102j8785j6160j3107k0800l5080
115101C8932m0279k3645O695K0585l175m4342n7739k7376J4892L2803K6655J6671O384j4325m2131o0483o2341n3087
115083b65306l4334l893K8333M1466K4936r943l9813m5633k5499Q60P528q501k0975n919K9523N8794O5590N1753
115065a51033K8491J2081J5072K8735K8528R492l549K317J354k9200o4276o3515l1674p005j723K306N498j2554m4053
115046b74708m8758j2558L0601N1430O1343P6089Q0741N9339L1536K8428M7717N8006L7982n283m6823o1194m1675
115029G2213j0504L279j013j342O838N017r381j3377j14N196j0763k3727j2362Q278J7962K2399K5899R645k7400
115010F6743m2121o815L6078L1349k594o319J8083Q737m8913q8630o0488j111K8527K7684L4322N2294M9466J5371
114992A11663k1950l7172l4645k9167k2779r589J0000K9003M2634N1980N8848N8073L8701j293m3163n9839m3088
114975I8217j0746J5007K7016K7192J3877j2715l8197m1954k1341J094K082j4847k5183j5739J250J1452K0608L7753
114957G4826M8364L0585l116j0669K3025O0715O0459K5440j3840m4134o8312p7469n9365k8667j5808k4836l0871
114940e3673k2212j6700k8303m2606l8300j5433R269K2553K1862J3567J0238K0413L8598N4474O9192Q7685R7846
114923B28470P8772L3090r532k8214l1601l5375l8427l3297k3618j6679j0886m620p199k5338m5146m4293k2772p952
114905d4617k1475m7305m4928l37M6487M3104p453m5728l3394k517k148k3472k0849P710J4990j6727m4791l3914p989
114886b85353l154p555J1548M6260N7833L6283J0493K444O121J2258K1571K7916J7392n250j3623K719J6968o50l9360
114867h5139n8593l8885l046J7950K2446K6456K6583K338l9776n4936j6228L9036N2657K3569K390J0261J0880k2152
114849h4189n6761n2024k0918n159j1868j5294m752R942K9933O1830Q4256O2334J636m8313n3606k8488q57K1697
114831a10601L8097L7590J8440P26K44O178J704q883j0064K388K4303N2826P5472O5907J5361m1499n9027l6801j7982
114812E4379k8222m1848k2657K0347M0600J3422l2541n0744k9760L169K4196L6777M7796M2394M759m6023o8284m8879
114794h1119j9030j0563j6723j0341J5543M3349N6688N1471K7176j2684m9505n5634k0633L3488O7699N7385J3051
114777H9618k6520k7754M737L3625L1747R080j1657l0804o1967r5602j01912p4409m3445l3441k9564o369K8017M2126
114759c04494K8105J2664J9598M2247N8374N5149L2840M20k2563j4905K0114M6637L0928j8911o2043p1897n8678
114742b06415m2782k3315J4364O8302J12759J24043J04667P5923N0242J9510k4581o4378o4147j1916N5079Q1722
114726B69077N2891P194j1607l144N46j7031l9080m3896l1120j2756N348J9894K0501K494j5944j0787J1288J5217
114708B19085j2932l9219k5442J3138K1792k1435p3836p9359l2867K1604M3274K8403k53j9272j9371p159L493M795
114690B4439k190j8221m7497q0821r0944o1388j2246K1138L1088L9775N9981P5739O7987M1055J3993j491o050o413
114672D7934j1078k2837l0981k2087k964R35k2428n3771o5510n1122k2374J0245M1492O4420P2421O4374M0627J797
114654C9093m0858o4830n8698l7755k5002k2444j3749Q968L3690M3483L4973K2963K9753O3154J00564J04659O2670
114637B80634R82m5436o5285o4676m7614k0642j997k872q037K564J9962J8178m421k2046j9468o449Q459K9808N1354
114618A02998M8155J0977l0996m2893k7673j7529k9220m7317n0632l8501k5405j8837j0634R633L6398M8816L3619
114601d9041L042j7604j8253j1074r993j3922j2746m34K1660M6728O4220O6643N7471M5503K9630j803n1886j02546
114583D5595j26787j10706o2734p030L0953L9568K6646Q795m108j1472j4397j3145q813M74K0098M5288N3048K4323
114565f4404k6309n9309n1357j4526K6012N6014O9295N9484K7480j1907m0516m9759m1068k1850k614J1436K6612
114548a07286M8035O3232N5212L2063K2517L5455M3727J9519k9647p1190q1067n9191k5322o826j4673k4317P80N7186
114530d1793R4844P6880K5007j3409k3861k6937l7778n0375n4803m7020k6288j428P423p751k4996j7604J0089L2397
114512a27403M0596M8180O0956O4823M5546N535l7245n5204k7553K8791N6803J7135n6096q7219m7194J8803N3354
114495B608M4640J5350j2860k6712j9016n81J127k7110o5576q5130p6652m7819p956K9240M3099K5749j907r273J1825
114476b06954M3145O2146N9182L9227J6817N854O845O543o056k7241m3834m4951k8264k881J3410J0325j74L558K3904
114457f9399L9860L3759R141j9355l8463l6387r344K5035L7629J9468j0739l4985n2499o1587m9455j5097J8218L1258
114439a82942L2871L8703M3080L2408J2533J573O082K1672M3575N7653L8237j8621p2753q0955n2730l4540m3048
114422a57202m7454k0665K4196N7967O9113O0860L7564R292o573m393j336j6455m3456n3002k2017L9156Q7075Q0595
114404I3265K5097k7295l4602j1365r2j0428j7598j4397k3748n0463n9497k4924K7603N2911M0678J3814q627j9282
114386d8950q547K3701M7746K9126k0393m5102j1981M4960O3732K6532k4483l9883j5214J4104J8052K58j6005j6510
114368B1143n060O485P665n319k4004l1460k0763m174N616J3766K7268L2208J2427j4991j5508P766R723l1569p6928
114349h5709p5639k7711K8432O7889Q8601Q5451N0654l738n1499p9401q8309p4658l6249Q471L4099M0037M3782M6001
114331b9496L1714N534q301p182j6191l9588m1870j652M4678M6106O056k6113k4319j1366j2809j7719j277L3257
114313g0538N4841M0578k383m8306p4530p0915l9410P099M8505O8421O4444M6657K8369K0931L0260M6664M2375j575
114295A91487o1604q5146n0823K180K1184L50k6325l5633k9852j2376J4736K9389L469n1154q2488n9955j0286K2991
114277b19856L0142K6793K0192R637L197P510J1201J126j3448j3655n21P968L288o813j0313N032M6230R3197R7404
114258I8311L2773n8227j00903p1959j8762P146M940L589J5964L2917M3056L8165J1689k8910n5424m2132M369M9051
114240c4347O2637M6600K5682K0126K5370J9669o746l5605m1690k4754p024j773k670o378k3090n2044o5634l9336
114222a41007J0794M1260L0306l614l3359n3499o9874p4992n3422r418K8384L6772K1348J792j4819l0154l1729L24
114204c44907N6117Q8794O4104N225l1699k0030J8074M8355N6549M3346J3283j9591l2899j8748K483L102k0425m3625
114186a32492l8770q68M6165O8232N2678K1843P437J2556J1319j2260m0064m2248j3235K2918L6653J7753j5976l1100
114168b9459r317K9475M4721K0625j6967l4205k6163j1534m845q516k2011m0640m8221k8085J4496N1206N7593L6868
114150b4979J3590M854J053k0236o0275q8379p5213l0452P863J8632J4212J2224J3903J7191K7645M2265M2118J8251
114132f5733j0570k2883k2383k2754k0275m244J7538K8777L2544M4262O1587O5558M9125K1809j0597m5911o7671
114115B8179n6428k2316J278K274Q3M135m474l2664m8146k0848K9395N7375N1742L8454L2068J7708j3646m1271m0669
114096a7771j5908P930J3703K476j5856l0614l4858l2614l7434n3125n9337l0305K9262P9305Q3636M7441P998o309
114078f2380J713J2774J5637J4403K0368M0340O7098Q0139O3336K3385j7462m7421p1565q9426q4015m6408J429K6172
114060e1883K1115J0079J6084L8913O1437O5693M4240P620k0692k7530k5539l4150n0634n6446m8013l9479l4140
114043a23325j8578N367P932k8525p2269p0258j1174N9519R0930P7452N0767L3612J7934r668l6729l6221o990J7568
114025e2656J2534l876Q93K1885K2878o157l0726k3831p114j5904m3661n2298k9451l376J433n667o406l649p339p611
114005b40099J2443M3249N4673M0096L0026M7790P2279O8424M1683L0466M5042M8760J2905m1013p6291r1645j04805
113988f017j05875o9629q970K7201J6997j0542k5190l1107l5148j9361K2710N3673L8269K587R69L1234L3520j6688
113970a01367o2498m1781K3337N3118J4122m2713n2519j2852K7748L5982K2333J0197M676J419O731L0490O5926R1678
113952G4027R2931P0995L5874J17k4482l6678m8761o7339p7926o6222m7040m5874n3655l2716K3470O9314O4349K4097
113934d5519q497j7743j4229j487K1253L5848K1549q604k0208o536M841l882k0456l1503m0889m8749m1237j6850J997
113915b40901L042Q201M0310Q1515R1648O1505K3560R257J5512J8092L009k2782m2791m5644l2001j1769O030K0777
113897a3430L5696M6398L8785L237m8376q4739q1620m8092j8775j4499j8637k949K9660M5190K2737j8255m2538l7092
113879b07299j3788J4039M0768N8602N6642L5543J2523M117Q705J1780N634k036R23J5324K7184J9298j2295n0837
113861B4827o9448n4535k0040O319J2713J2312J9229K5631J4727r706k3515j3000R383K4454K7784K6130K5861L2569
113843G1695M9294O5727O1315K9673j0807m0151n6998o4737n4938k3482J0837K6226K6025K4531J6318j1065m0854
113826G8609l8401k156K8394K4246j679k4521m0512n4744o1146n4194m2278l1389j1555K3798O0356Q0923Q5396P7166
113808I6313M8855L050l0422k5680J777J6503J4266K1808M7765O4037M2217j4692q2024j32398j40072r3009j5717
113791a77423L8699L6867l708m0568m8989k8573J3019N9963Q3089O2708J8672m368J1291L7303M0559K5105J6098
113774A39744J5928K304l0518n4787m5878j8156o513k1859m3156m8812l7195j6692M760J6093P925r703r816J9338
113756a36993N5820O8251M8086P996l7720p5352q6823o4350k6318M30J2396K6301M7014N9424N4044L9778K6164J3030
113738C1178N321J6679M5108O4138N5491L4753K4684J7274j1382n5792p9964o4046k6664N155K4225L1791K2809K48
113720A41006j4866r023J432n750k4858l6230m2651o0753q0283o7982j9226K7671M3046M1443M6282M8531K9361P05
113702A7855j2264j5680l6721p3646r2610p7496m9899l1599j6829N812K9842M4962N4693O4369O6789N3217K6958k348
113684d4595k4747k6254P47L5900M3101J6344j0294j3185j2412l1704n1156l3855J5598N4477N7872L9581J9710K560
113666C7688r480p536R202K8328L8734L6264J6858j7178m5254m4582k0163J565J0464K1405M1856N5623M8187K6543
113648B28524L108k0108l9728m3713l1520k4735l9450o0132n8728l2193n192K0j5316l0888k4365Q961M5413N1292
113630h8750K1544j0594j4647j195j529j8841k4070l53L2168M4611L4370J8698O065q474k3656k6508j2526J790j419
113611g3316j5675j7921p73J8574K5458K6598L0895K8231P655j4313j0222J5099K5868O995j2077o06K7792L4829
113593A03091J0048k0164l1255k5759j7393q770N623K4232L6618L4952K1928O675m512j1148j3671j1102p036j1597
113575H0760k9018m7249n0723m1167l3046k9491j8911J676J7586J7763Q590k978k2245m8032n7254l0485J4069L4408
113557b35747J3905j9355k5937L374M3044O2069N3361L6028K9871L1250K1202m667k7813l1443j8706K7K1316L9409
113539h812M0048J9768k285q693p564j4633k5717k8261k6965l2494l5804k2673m654k751o339J2814M5065M5351L291
113520f1308l2118k1849O713O177j6679j5398K1205N1435M0309K788k3376k4324j5256j2136j2975o412Q173J5309
113502h9722L636j2175m658K6057M2143J3023m1752p2651n6447j4575J9641L1991K5525P874j1431k2495k1079q532
113484a85627J3433L9635N5481M6984J9297m931r143K440J4411J5941O102q057j7025j8867k2270l1983l5961k0687
113466a40827L014P486j4300l5925l0954n512J3517J2229l26q644n408O733J8728K2279J8616J6350J7463J3543J424
113447i0514q044p068p202k3872m9758n9914m3409j5196O096J8024K5454K4446P713j7640k9732j3812J9643M3352
113429b21433M0039J7005q555l2838o3437r4392r9438o2025k439M0654N1901M7294M3402L9146L3073L6635N3342
113412a82066N8610K4121l8621p9759o4709j3621K3029J9455p623l0316l9412l7540k1721Q501L4340L3351J4212
113395b99769J2367M0183O3303M5779J613k4368j6047L349J5088K4982L5099L0843J1313J527J3586K3482J2525N161
113377A6K9860O1912M9642q506n7768o2546m5180l5781k4938O392M1261M7094K5862R938J3167J5369k063k8162l7277
113358a708j8260J5958L9145L1501k304l4428m0544k3451l529P673J2627J2776N513l987n090J47l413j9486k9972
113339f0832j9626J97O721j250j279J9982M4672M2540P305l3702m7190k6487N975K4206K0575M364j1238j5837l781
113320d4685K0124L8649L5246J1675j2270j8481p082O716Q375m350k2619l6654m2634l8492j8669J6802M8437M7943
113302a1969J1686k8365l9973k7739k0198k8254l6189l0286j3868Q462L8926P0447Q2004O3000K8327k571k8026n2899
113284a7485o9203o5833m8691l2647j8709K489K6998L6683K5032Q029L631J2022K1303K2759J5474M656J51Q355K1178
113265d3808K1833O938o450l398Q066R189l244j6660k6050m1427o6537q2935o6632j6656M1198P7107P8004N0389
113247h1073J3300j0434o561J9587M7397N9857N5907M3995L0018J5003j290j9016l5592m1847k9354o491M031o403
113229E1034j7035n076K0598L1432J9242K473o487j5904l1029l8804k7480l936J8744L3575L0429k440n0546o9397
113211f0607l4842J7213K9928l444l6216l2642n889J2439J3489J0485J6036L2244N1369N7834L8980r73m5381q2892
113193b2869j09082j13774q6530l8139K350J9018K1510K1836J8579J2473J6369L4950N0999M7172K8442J0113j831
113176h8414n355M976K2605K4718O262Q25L6835Q4253Q2109J9447m7194o6070m7066k9837k4469j1170J6600L8197
113158A7252L4383J0782j0253j1098P859K8227K8454O198j6213j5838M173K0061J7227M133m598q580j8687l8596
113140E4886n6244n4696k9120P533L4628L8895K0669j0600m2453o2252o1778m4974k7887k3966k8296k1099J0745
113123b96009N8076R6391J05635Q2805M1068K267j3264K1K4679L0889K549m7014q8181j02277r3219p6288o1541m6607
113105c80020k0151K5087P5685R8652P2960K0742r231L746K8733K5371m564k5297j7053M712J8589K2854K5057K5089
113087i039K0996J9032K3885K5800J0807j8385m1696m1578j7193J8671M8865N9846M9647L0003J4606M955n553j4569
113069A79100r939Q897K1205R971j0522j0039J4009K7470L383m0286o2180m7620k0438j0125k4500n2119p2668o4191
113051a60592k0417L4071O4249O5637O5189P5409P3174L8550j0621m3955n6135n4844l4221N533L0024N003m7174
113034B8880o9032m7936l0711m8162o9055n1927o239K8021L6073L3035L0717K9036L0020L5511L7344K7959J2997m96
113016F035j5836l2361l6440k5413k2201m2040o0940m5807m203K5842K7306J5294L218r635j8518j3540k317k865
112998b54421j0494j222K6812M5456L8454K1986J2745M491r111j5875p914P6m927j1735o915j668j5032m3028o3804
112979b96126o3233m0194K99M2705O3348N5416M0310L8283M2155L7807L3155M2293N5103N0809L1677J4125n065m0055
112961A02812p6588p8241l9217J631J1905L674N951K3063L7522L5786J4982j9837m9973n0840k2121M589N926m24
112943h9400J5272M5854N5606L3659J0043J1707K5895K1237q560l7438l9476j8504l488j6744m7745o2238m0460n40
112925a45320K3824K3230J7822K5200L8702M1159K6186q85l1231n2949n3708l4324j3504q791j7175k2653j6738j610
112907b02765K0468M6590O4162N7041K4819j2375l0691j9960J1335L9310L7836K483l9631n6829m7767l4301k3736
112890a64011k274L1151N3653N4898N7976Q0714R7411O9913N941m5045n2568l4332k3009k9593m6006o1416o5202
112873g1799m9642j9769R839L1964M8554N5072M1364J3494l961K167J6014J5952K918n853j629Q309J1760K730j3249
112854I4235k1681j4140q65K162l674n718o898k2495m6898n2124l0678j0858j1400r502J9720N6166O0668L2366N233
112835C3619m045r623k0028k2207q051J0127J8968J8675J2222k179k2505m1243n4133n8256m6180j9052J637j479
112817b13733j1615n26K3311K4785K738j151L1144N8558L9051q209l1906j7539Q217K7435M7325P0079Q0642O9777
112799A98383M4195R561l2258o3495n5522r813K6822J1353m0120o8981m5058Q76K2195J2920J600K822K380r414j8373
112780i927j3019o763j3730k1410j3231l697j8711m7874n2354k2098J0808K3762L1362M5289M4283J3269j6941o605
112762g7587L3006N4452M1188K2242J8435J0024k6817p5021q9138m6731K4374P0698O3136K2896n428n886m225k3898
112744E720m8070m4715j6866l23j2120k7637j7896J0290K5940J5431j643K496L0117N2592L9493q135n8106p9829
112726a33261o7678l1756J6444N8228O6060L0600j7931l7217k0139L212Q174P52l7J3693L5094M7789L4037o272m4343
112707d4551m7565j7538J3579K4648K4200K7205L5909M7281N5777M3726l742o3923q5962n2848q506j212k3496l5076
112689a12094k4659j4444j4719j1054L518J5766J7756J8680K2773J7501n459l4301n2039n4398m5309k7416m385J8409
112671b85874M1363O8078R1634R7081Q2386O1892M3094J7761j4705l5543l3944k6941l0914l1103q765J4076m497
112654D5079n9598r2510o4373m869L2756L7334L3576L2794K4836R271p6j702q195j8548j5877J878J5727J8172K5233
112635A0908M3734N3705M1890K7828L1099L2154k265o3136r9769p8465j8715L1090L6899m58m8331o4869l6586M182
112617i9105J4458p539k3301o087K9194N1564M7965K4316p186l0222k9833q648J2370J7698J1278J789j1063k6525
112599c8877l3719k5354j1127o770j6910l5207n2209n7895m8289l4632l1686l1882j0532L3583O5331N8613L4979
112582b42583L3092N3183N8658K7592k1250n3090m9842j9716J0246J4051o933k2541j1511R621J2476j393r320p505
112564b26765j0525j5379j626K8134M2880K9834J4597J8912K8521K4819K0652L4709M9862L2237j4955m8959m1750
112547c4802j2007M118m566k0762k6109k1630k2389l5442m5580k9537J3033N2433O0008L7459O721j7393k9757k1640
112529a47842J1438M9101N5812J9421l3330o5385o2081l2639N046L2433L6395K0138K544j372N648J3091J6950J6594
112511e8038Q193o393j2087K599K4436K6858L599k3247l2462k7717k5351k9583l0664k1492n115J2006K5547L2841
112493a36070L4380L5776M1564M7016M2854K9112J7109J5261J9693K2455K2158K0792J6234O243l480m701L29K02r900
112474B17027k2851l3672m9259p5019r7945r5936o5579l0234j4196j5303j1481P822K6485K1798o596l4400l7144
112457c16483j0413L3097P6298J01730R2876M7011j1518m4634l6104p247J0061Q246J580j880n918m345K1629P0696
112439B4682J04772Q6864K7636k6782m8773m8212l9388j9488Q316J8460n401l8543m2223j5580N712Q79j2354j0413
112421b9836M590J7542K5388L4272M3606M6477L8420J7471j3988l9385l5188k976J8520o060o1960r7518q1678l0139
112403a52442K3690O1534P8765P1519M0617l20l2638m6684m5297l9126l9902m9645n3950l5907l52K6692K8289J5164
112385a49993P122Q514J3296K2824M1573O0116O0030L7422Q697r748j6584j7331j2377n68J1917J4928O480k769L78
112366H3927J5943K6690J5551j0935k5091j1166J2532J6267l630k6697m3085o2728q6136r2415p1316m5286l7761
112349c45336l6150j3868K1210L3326J4021k063J3255M4174N8551M9930L2904J6294L838O540K7827M4889L1187n489
112331d960l1277l0276j5800J194K5242N0772N2765K0158k1366l7863k4638j428J5105J8611P289j0540j5001L294
112313A281K7307L4682K5558J3876K987r469j3426Q16J7485J1358j1466j7517M853K8583K9370J6147M969j1120m2508
112294A13766p1998p2297m7591l0967l8409m6942k7356J4927M3847L4424Q53k1942k0280j3603j9711k4139m218K5453
112276b06183K3542j5207m0307j0607M5652O6816M0119J2986K4091N6703P0026N0005J3411j9638l9152m2342l4559
112259d644k8947l2070l2177j3280J9066L7419K4119k623m419L1566P0023O2866Q188m1174l8768j453J4126j4203
112241E3615m8858m6749j3567J2517J2963P87j0832k4815m1754m8270l5778j5678j705J2087L8046O4961O3100K4941
112223d989j7531k9865j7218j1226k1218k2216L521L5368M0912J9385k256j0594j9606l9368n2483l6869j406J8416
112205a69243Q98l6557n6033l7415M813L9317M8223L9841L4528M1824N2996N3259L6918J0606j3326k3790j5578O543
112187A7824K7338K9970J0445j7733l7487m6154n3211n8814m5403p26N7814R6806J03580R3506P9160N2681R125l1777
112169B86944m6902m2105m2609n6311o7412o5198n7627n1472l8225j0674J8199K4353k076m4459p0436n7696j5427
112152c39133K4284M3881N9877R1178J20137J11276O4258J7441m450j3729k2333j7890K221O942k6049o7738p2997
112135b2824m2754j5393p334m04J5552K5910K1445J1910K497j3149k8762k5230n992k378k7044m9704m0014j0468P998
112116b06138J2701K1615L1990K0162j6694m6221l8021L62L3445L5422J1853j1638j7077q954j479K311Q471J2540j4
112097a55364k7791m5139l2043P6K4593L0108K2013O466j0565j8404j4449j4339l0072m4090k7453J6693M9321M0093
112079b30346L59l1763k5740K2619Q8887J30433J15146N2028j2535l5368j1229L0512N4201M3013P491k5499l6612
112062A35597k7190p357J8504M3647M8852K2651j2727k1141k150K908l6382j00128j41591j32910p8251j594O3086
112045b26176Q6058O6253L4226J7771J4263R218P139K1734M3266M1670O962l2058l8787q477L1014N1766N0245L9950
112027B16037K9096J5211L07m072K672j354l1150o2227n5249j3750J3471l153l7318n0585m2486l2724k0532M153
112009g3653K6547K1335n691k3403k0169j3716j8243k9753m2198n0137l8892m617J8680p816o2924p8279l1324J9309
111991d14944J8603p006J536M0971N3965K0784j2414n109K3776L4717K6308K5549L7987L8954J2859k1901l4162j4304
111973a73831J8952L9157L4159J2505n238k746J8266L8781M0993K7084J4830J3952J5609J0095M611J1756K6745L0919
111955A76599J6788m392k0906l2021l7329k8867k882K8309M3554K9024j1927n6629p2952m6173N68K6543J8421N91
111937B6319k947L389P312J4938L4788M9650L1316j7860n9225n8299j9070K3397L4701O625l7544o1383m7002r853
111919h0748K1053L2407L0438K4590J9592J8072J7336O325k1087n1824o5700o0674n2660n0516m5549k7819O76L2273
111901b53815O0142P4740O7337M3820K3404J5097N267k1313n4969o7337m3075K087L6027L9462K0796M100L026Q488
111883c6716L856j2502k7466l2823l2972l1513k3553q697L04n170j0914N332M1208O8129O7166N0988L9511K7951j035
111864H1084m0433o0032m9426l4171l4405l1172N4L9782M4778J3207j0445l305L204k0310m8242l8045K244K5070
111846a60563J1891q291p850Q540K7515M7756O4040N8725K7213p774k4296k7603l2616l5173k0211J0202L5764M2000
111828I269L2303J8523J0314J0934J4146Q147q763k0100q810J8616L5371K2643j2503m8200o9303p4745o9032n3409
111810a84599k7219N439L5230N4478O0180M8771J5649l3220p5279q7964p0681m2081j7464J809J8397K9948L1299
111793b37307J7917j0222l8590l9323j173M4374N0536J3347k1036j5706J4802L5665L9181L7156K7190M23k6147k0736
111775a29649J6027M4969L9912K0819J9825L3242K9038n609m5420n8480m2505k2129j7190k3824k7293k3630j9716
111758b11613j6023k892K1858M3801N0117M7598M8901M6758K0296l0238p1620p0942l2444Q334K2559J2016j663k295
111740a17492P773J3193P36k7805n4239n7092k9754J3191M8489O2710N8022M3417K6566J4424J3431K2626L0712K6451
111722I5359R756j2444l6507n9600p0493n5316j5218L0628O2533P4311O9888N5842L9939K7834J7666N632k318L613
111704B41105J6363J2075j9975n9122p6041o4816m1609k0209k273J3670K7033L7097M0162K8461K804j7464j0802
111687A06459J9650M7027N0607L4945J6505J379j6304l8194n2087m2493j0760J9066K0025j0964m9977o9618o0607
111670c5341l2011m88J8836K2017K0952K8045L3649J4654k7290n4874l7710Q281M1846M5364L3443K2366J4537R807
111652A26083R148N625q822k5424k5467p963O967N934l357j0264j6101k2889k2296o769J7318L5457L6937J7912j6877
111633I5152n0311o1421m5672k1191j0442k0005l7928m3077j8514L2424Q1353R7294P6756M3154J7979N018P72K079L4
111614A43454j5649l9192n0964m4098l3732l2371l2098k1621o857k729j4824l7635n9504o2390l2267J9792O1593
111597b61092P6180P9056Q6924Q7733O1438J6214j9230l1597k9819k1897p260Q967J4218M174j3467l1348m6535n4025
111579h1366m9264l6372k2789q929N278R914j970j4354j367L7079P0259P2829N1626L0191J9238J1585j586j8805
111561G1197l1186l2448k3609o515K2503O1391Q6070O6186Q226l7705l4522n016L383j3607j8394O035L3804M0865
111543A96658L4726K6359O142l1635o6346p5755o3974m5642k2355L489J0975j5380n5253p1765n4068j9411J7505
111526b25730N2252P4378P1064M8061K4966Q592r093k7279l3100k4424j3922o398O087K0757J9920J555q065J0210
111508a0169L6918L7989J0282j6305j7965j231J1466P492o085r675J0899M5881O3399L9677j2612n5055o3203m6912
111490B4791l0101k1362j2266K094J2592Q417p098j8680j5767k671P739N763j0913l7702o1050o0478k4921K9019
111472b12594O4411N8990L0243J6802L3679N5115M8820K0308Q086L1576O1005N5270J8500p148m525m526l1012n4577
111454A88423l5014R432J9589j9125n2858l4843J3822M3433M4511M3095M6826L5638L495k5243k9749j9445j6040
111437B15947k4671l3601l3634k8957l0767m1866m7865l1460n73J0692j6139n1883n0898r507L0809L9579L1546L6789
111419c6459N9443Q0172Q2973O3924K5877j8483m5331l8093p496J6040J0442k0807n4576o6008m6156r368J7674J7510
111401C1278p706m3544p3236q2263o5593l4253n900J3198K7585L5818L1121K1744K9604N6763P1178M3954r679m3964
111383c895l2245R755M4386M3857P903l7108o0106n5671m7585n5768p0933p3281o3192n5180m9830l2354L082M4277
111365d83888P4983Q5086P2051M7406L5225M5905N6879M0182M389j5629q967p9n958j2699p351m114j7489l1472k2003
111346a47543K960J2903r65j5782j2318J702R549R035P794O957J909o051j0440j1024j4394k0945k1486j3474j1039
111327b32652k5523m1218k9935O997L2538K2387Q08P474M1979O7978O6627N5549N1200M2584J6956j1525j9286o233
111309D6705P802J1723J1465J4212J9581K5129K7912K0424l700l7165o0697o1777m8021l8620m3271n1101m1309n440
111291b06148M2092P7200Q7684P8628O0152L7228J1896j1690k8594l7465m2253m9221n8935o0564m1456o792J8974
111274a29264J8004j805k2248l7269m4599k7254K9826J04444J43610J15325L9499l7634q4501r5021p7683m7422j9177
111257a73169Q10J4365K1664K0746J5956J5150J8410K1688K9438M7599O4681N8084K1427l0135p9397j11968j07048
111240a51699n4537J4660M8031L2737R148J2124L0769M2622N2636P0525P7634N0087k200m8585p5521q5867p6659
111223e4095m6571j3454L273Q587J6308K0411Q455r233j4046j3125k6759m7473m4561r910K9512M7935M5468L4817
111205f4461K5449K2822K4854J9623J991j4102j7754k3321m5511o4076m6287K94L1909K7043R473Q727K6167M5915
111187c1245N3616L9650P791j6848j3222K029n998l7140n3658l4491N81K7044M2267M7036L4623J1768k86J039l807
111168G0749j5004n010K9276M4191Q814m3761n8964l2493n139j854j0017r494O228L4678O4645P4345N1321J2956
111150B15467j0504j0815m126l180m996n333q642j8773k9296k9003j6144n014j2125l0779k9873P204N2126O3253
111132A19447M1229K2331J7923K37m1254p1085n9324k6597p178L252K6851N3627N3786K9041J2485J8864K6845J2217
111114B32697k6497p5338j14094j18128p4936m595N1958O9427N4664L1806K2287L2447M7211M2142J3664j2474j6433
111097A55808j4752l5785p4757r6536p9680l8011K28J8109J5885N023k757o284r932p221J4380M7117O3796N5442
111079A0073M2817L6611J7795j9520m0394j9294J2321J2093m576P370M3676N7066L5579J6151J6914J2841r501k7031
111061B00991k8590l7863o2456o5923k3698K9205M2111J3376k1607m3542n5754n5028l2919q73J5912J1493O575K0877
111043h7713M9949P0043O0776K6881j261J824K5085L3363J2084j8067l3583l3853k7845j7041k902O637Q788Q605M080
111024H5850j1595k6850j5155K7112O9534Q6830Q5441P7924N8290K3153p037j2992n586p973k4537m6551o9614q3834
111006B02410o7568j8489K5401K5470p560l0405k4336q981p812k6977o1897r7514j05473o7772l649M7491O8070O9175
110988i0416O3104N2495M1763L4724K3333J046j7171j3284K21n331k7292l0564l96L3891M0187K3386Q686M912J260
110969A44554j1551k9715l9064k5506O721K7468Q967l5398o0158m1564k526K3554L1109L1313K3825L67l5063o7274
110951d9941q3836p6330l9542J5066N5409N6660K8435M3j4681k1811k3924j4218M952J7791J6460J2345J8242L0450
110933f8430L6918L3977K5657J2775p326l2217n2732n9051m5434j4471J7421K6176M480k2329j9516J4913M5489M3234
110915f0466K0342R375J9830L2234K8756J1191r709k4932k5818r272J1898J9994J8400K9440N9135Q2159P3583M0316
110897C26456P215j4176k6931l0713k2630j1664j4376l5097o0528p3276o5019m2187k4028k4343k8145k819N3644
110880h8617R4090P5585J8772j4841O61L2077M0896K9283K1784K6986L4518L4396K3109j95l0282n3474n8228m6808
110862A39712l2959k9198l4514l2065o529K9348L8239M320l6381l6778k756J5552k619k0577l381K9676L8033K0464
110844G7587R964K0311L0186J9343o271l0907m9520o2025o0766l7092J477K8633J9341k4063o7411p3181l6567J1369
110826b29592L7379L5869K3853J7402K0481K9674M0138M7922N0942M7191L3080Q609j6803l1306l3511l0776k6317
110809B4235j8163q810l012K275R999P607j8130m8930m4998J525M8778N7472L7751K2207J3985q297m5681p0347o1155
110790a01689k4618J9543N4621O9299O1727M2588K2384k66k5611l8659k7444o820l15l867N758K8041L3921R338k3639
110771I4292l9059l6588k7672j5468l480l278j4996j6382Q404M0527M7212K3404n527j7045q700J4227M7053P7176
110753A64100Q4757O2322K4870p681l1338n2866o9470o7262m3329j8039j4295k8405l3745j4274J7968M2825N5352
110736G1490N9202N0356K5172j480n903J4577L5291L0690k072m4463p0695o4327l5541j9229l8987p4619q5140o3322
110718b19000m2717m5561n1810l4046J540K9441M1070M3891L8542K2107O693J0651L2417N1448N3638M0292J6223
110701e181j2381l0031k1993M151K3057K1305Q406m487k0250m2734o2051o4706n1510l5545k5283j7155m299J2485
110683c28202K5344K9971L1645L5938L6777K4766Q924J4328M7637P8565P3059L6973P518M369R708j276k9331n7622
110665D9091p3471p3346n6431k4699J3365M5006N8977N0523K5186l485k4686l6335l7627k5043m470M918m860j1826
110647a29213Q695M4129N7187L6735Q669o171j4472k2461j8154M67Q451r347k5739m132M9274R2782R9455P5505L7819
110628B89479J008j6552k845K5838L3845M698m2161p5231p9125n9460l4408k3156l0250m0226l6994k4359j4846n563
110610a30308J5610M3328N6566M8430L3148K0518N816r274r883N612J3607l275k8596l4203j8553l899k496n267l002
110591f121r88p319j8606k5910l0117m1740o1832o9818m3456N622L2352J0310k7392k3584K8053P1163N8367Q987
110573a42029k1578r518K2472M3194M0049J5042j9630l9649k4635J5413M4238L8422J2413k332N773K1529K7728K6091
110555E2993L0770M6376N8806M9780J6764k5915o2537q5000q7877o6914k8716O774K2391J8920R232K841J885N515
110537c3912R389M947j1817l3034m7752n5182o0478n9406l9042J500L8934M4208J4686j8081j9696Q905L3701L1391
110519a90739J8290K3394M4400N2392L6703J8777J6148J8358J1065K68n458j5404l5773m5159k0376K1779L8534J6009
110501C208j6690l0957k9870k7461k0668P08K8924M1472K8465O474J127J7867L4635K8844Q059J55J1203J3912r249
110482I0158l3144k4985K859P439k1822m8016l9079n474K3723L5878L2652J6102o055j8333j7172j9862l9221o0988
110464a25340o0373l1699J0620N0885P8999Q6938P2296M2331O981k7147n1448n4968l7690j4603J904J3825K3658
110447a4831K1826J379k4762l6767l2679k6487k5591k3335j2488M928K1455L1081L3954L8482N3556P3933Q1021O4712
110429B29387L5491O950k2370n6462q0276o8936j8669M3420Q0322O8638R025o9927j19299j00958k3262N9500R1102
110412F3676N8808j772m1554l8798j2155K847r583l2747m0660k8491j5535k0024l5891l7527j0103K5769K8986j4387
110394a59141o7177p9547m5846l878J9058L2746N2138O9425P4612P7736Q5915P8349L4670k2198m2961j2015L3572
110377A25458M8215K2871j5636l4189k0404O920J3998j1005m1565m5017k3340n477o193j3227j2110k696Q839J5809
110359A1251R638r164k0977q447J4806K0626J0207J3386L9961O1228N1395K1017n482k2404l5173l9554k8963j0728
110341G2623J518L267k699j1516j1538Q223L4438L2916p213n0313n5332k4946Q121K8982M6686O1206N6094K7095o889
110322B10723k7930l5296l2685j8656Q79O107j7226n7140q2551o9994k3165K9118N4959M5839K1368M291l523j1952
110304f834j7764o544K0318L8321K7016o723l8724n0757l8208o880K7074M2448L1600J1986R534L0907N9725P8451
110286B04946Q4119Q0911O7770M1430P388k0166l0000k2309p641j279j4638m3257o3877n4659k2378J234k810j7776
110268A87008j6689J38J0211M556l276l464k442l507L008J8857K6791J5950K103M131J3803J0868n58M320L1929N7023
110248C60760N2135J4331l8490q0310q4164l8323L3898Q5883R1294O5953L8726J5686j2263l8739m1963j6191J5623
110231D23846K8298K1607J1278J105k0782n6158q1525p1414l2457O57O567R02R424L0079L8909K8207J7754K3601
110213C79898L3908K7769O591q131m434O076O035m587q636P440L7225N9979O0483M0114J0358j5999k4660l757L8563
110194F44235O8476N7112J6263j4179j5307n215k279N73J0205Q287k0548n2673n0772j8758K293n310j3027N760L5678
110175F50814M6758L8139L0269K9901K9696L4328N8992R9495J25551J12169O5987J5949j2450j0999J1954L8725N2971
110158A418249M8286K8998P922M375L1581P5047R4206O3656P905k3737j4460Q874K1149K8533M3450N6292N1836L6904
110140A989066L0338L5630M2315M6078M8601M5041L3156L0461N7854J03012J23092R4791M5905K3965M2662P2492
110124B864459Q1094P0768P0904R7786J31620J41749J29981J31101J62921J95001J87434J48517J25195J37417J53418
110109D829365J41950J21829J36198J92625K54651K89164K99155L05643L16936L28415L41635L65902L99399M23202
110095H746069M24246M15692M18374M23543L95256L19709K33028J80996J64536J49265J20747J00060J03063J14665
110081A2309249J15063J07464J05340J11710J25409J49800J80131K00690K12543K45927L22369M19793N02382N75603
110067A5683473O82049Q43882J033413J198788J294174J287453J172043R83513P79849N90279M00858J99319Q159
110054B6157252j47102k81156m30975o04075p73687r23466j066811j213080j341875j431462j496353j569281j646047
110041A3231882j671061j589147j401881j164343r34591p36882n68184m23642l07596k25765j74379j39411j07007
110028C787993p4560m7842k5299O747N3405R0509Q1320K0709m7591o7641k2771N3125J10802J27835J20510J20578
110012D287829J41941J70526J86022J85220J76110J57838J24677Q9156Q0700J12979J67152K15340K46752K63789
109998F606031K70906K80264L10448L60409L97786L94632L66254L52977L68851L89815L89502L63743L18523K56476
109984A1426617J83679J14226N9905K4775J1891K2830M7624O8592P9286Q9079J05854J26581J49648J83253K32210
109969A2926050K85276L26266L55587L94883M70901N96321P63042R48960J125834J257554J300534J227885J062253
109956B3041346Q67153O89406N21775L37013J40487l8437j95312l55273n28364o94263q39394r77309j118226j247750
109942A9602852j356620j467016j600713j732138j797861j751317j596144j374621j139222r28650p53188o00280
109930C505082m59997l40277k52061j89730j37346q8084m8343k7859l1489n1909o5210m7357n473K0734K666m2495
109914A740852p4448p5809n9813m3678l4713l5757m2619l8718j2094K3192M1163L7973L1842K9542J6951j1508l7759
109897A454599m6364m6018m9626m9896l4673j5069j4810l3708m3127k3211J0858K7966J6208r196k6007k4519j1185
109880A082222p94l720j6227k6215l2357m9592q4842j14304j04368n7537j7236j6076l6970m2441k7992k2155l9389
109863C90007n9757n9872m1977k2438q181L042R669O242p182k1682k4134p169J8748K8110Q607j7496j9452m353j1856
109844A58876n6087j00506j06330q0660n3339k8041J0827N4018O8524M7593K7823M0517O6388N9314O699n3485p8297
109827a6166o7207n2738n1777m5840j5488K5943N2093O2464P3242P6758M7615n250l2930j3143J3036M89l3490l9615
109809b2004j1935J1214J1571J1393K7586M4748M3304K3779n516l7900n8304n0996k5022n402O762L3521O9955P3591
109791A40345K7535k0131j5126K7777M7464K2065r700j2735r78m087j9536k3227j2593j1531l1251m7191k7909K1284
109773E0475N9175N6200K8247J2099J5667J1157k0654n8525o5291l3100J0214L4632L3647J8196K27j1783j1493P23
109755A29813J3808J3930k398k5805m3704m8741l9729k2198r560j3909k9345l4299k0816j0733k4639m2908k5102
109738b36335K9475P1143O3177K7605O028L35j4512l4887k7214J6578N8575O2682L7823J8192J7460J8459N59l4123
109720H1020o0797n6290k4418Q656K8382M7556P5488Q8980O0355M785l1804l0850j6818j3624j8640k6713m4305o4064
109702F899n7504j5399K9625M3602L2716K1977J5138L906j792J2851L2580K4197j5686n2476n7644l8817k0609j5130
109684e1566j9990k9351l4690k3497R237M7618O1837L6362q768l3953k4247q336j9615m6976m8611j4501J5412Q575
109666a85060j2310k886L9115P1435O2004K2756j0049j1859J3475L9455L9654J3382j4872k7335l2997m4869n1118
109649i2079k8864J9102O1215P1575N4326L3402K7353L3102K9277J163l4649m4619k5155j5859m8433r9049j15293
109632a73485p9104j7544L9809Q3701J07418R8554N9509J5220j0347j2909o4J8272K6658R380k9812o3891o8296m4878
109614d1809j5080M695J5797K8595M4828N0779L1911o382m1238n6980n5969m3370j9576N021J0377k647m245K0681
109596g4612M2651K9261l015j4054k823l609k5521l9772l0850j8222j6195j0806P056J9947J5105P444R041K067l1198
109577a38105o9979p3492k8940L7012Q5322Q9671M8512j0278m6432m4910k9847l0174m2043l8578p376L6364O8743
109560a94530P7201O4748M2535J8210p529k8202k4366J2558N3936N7992K4467k313N276K2940J7862p57j519J7983
109542A56492K9925J7855n607j8741r317K1640N6509O6156L6242j2837m5415m7205l2385k0939k1701l2424m3754
109525I4494m6020m0401l7477l8230k7784J583L3171M5102L6955K3391J1018k917j6646k4085k3493j4067P357L2514
109507A4465L5216j855n7618q7549o8977k0556K1426L5583K6286J1979N188L797M554J7378N0033Q2752Q3699N3841
109489B09642K8566K5212J9897p282l6652m3141l6568l7831m0570k9528j3926p214M364L4021N6374M1605J0216M517
109471A81702J8781J1882j8359l3531k7976l9042o9838o6494l141O5128P5162M0887K1864L5884M7581K9042p174
109454B62358l1918l1002j4644q019k4055m0164k1090K7719N6023L1859j8536n1311n6755m8818l3498j7902k4666
109437d4419o0699q9242p0146j7162J9033J6844J29m792N322K6159N4035P4214O7891L7085L370j9046k9753k5475
109419e6652k177K5781L5263K8272L1177N1667O0438L0301k4341o3668o6992m6059k1404k413P840K513k1367m6816
109401g8637m3735m632L4854L1621q902l6250k0754J1903K7778L6403O4590R9694R9788N5601M680k0304k5328k9227
109383A99143l3820l3874l4307m0503m4886l6423j5831N300J3758L314j5055j5012J5828N0845N0662J5564j3502
109366G1201j1544J656J823o56J4049L3986L1814J1703O434K6470M1373K3111j3333k9797j4408P525J0787J014o35
109347B12573Q307R736m314j8348j9294j8702l2106m7175l5214P092M8226N8177L7259L928k8749n4822o7089o0036
109329e51l6767o377K2249M2342N0688M8181L4680P534k7167n0908n5256n8831p8621r0623n2057L1780R6979R4262
109311b8463M5185M689o828o834o545J946K0599L6828M1171L4199J7780k755j1617L215L0566M7559M7293L9011K7557
109292C34556J3541Q098K1569L8346L0370m04k0686j5415j0692l2151o5246p7850o3811m1656k4816j7098k5683m9820
109274A152o1159k6067M6088J01596J00446N7278J4263p534j3447q953O544K4102K7063J3198j283n094m571o673m584
109255B52365P818J8437R168j9374m8844o6293p3791p5873p0397n5102l3942j3231K862J2248J6307K0753K8317L2191
109237e6381K5000J1978M463J463r217k9555m3637l5908p590K7510N3459N7615L9368J7464J5205L2909M6676L8579
109219A89401J4958q260k2116k2036q191M083m293k3736j9295J7603M7217L6685J2986K4872O6403P9926L4382l7168
109201C83421q4982r3968p5625l9481O177M4321O1526O1771N4248L6310J535m2101p5145q6040p9051o3847m3613
109184c4544j5211K1040N4656P2122P0932O0158M5607K4974K719m585J0482L2258M3958N0533O1283O3117L6683q852
109166E87330m4510o1090p2834q4556q4818p1604n3343k2870L3906R6642J16719Q0586L1651R313M17k3929n6274
109149C80736p0370o5462n8402n0079l2997j6379j0466j60L0715O1007N5979K1901k283m867j2095l5736n1503m2094
109131I7445k4455j4838K291M5608R8334J23490J06848O6435K8282P468M534O408l772k7329m5743m2765k3230k989
109113D02022J0477J8324J9858J3207K118o912j1680j2883r677j586R326K1155L1152L0612J1898j3657j8051J0119
109095E05822M3532M4352J2029j5126j0201Q048M241k2382l7044k0138L625J485j6696q475M1000R2620R8276N6590
109077G81558J0216k117K2551N9101P8715O9219M3217K4235J8372Q202j6410l5644k5996J968J7063J4697K3374N9175
109059A151496R8481J08101Q5520N5791L8700L0361J2754k4287o8031r1164q1195n5897l8458k5773j063K7403K8082
109042A250821p476m5150m8041j7788J6180L3513L6010L4769L5272K9955M726l6339n8045k8739L1320O4186M4033
109025A339207M151j5513j4259o615J1006L9069N0259K5197o667j937L2799N1153L3867O483p124r465m639J2462
109007A539434L2422L1326Q935k156J8628N0379O1809M9646K9552R227r925j9624j2988K421J3503J5543P946j1902
108989A814176l9251n7720n5918l8375j1361K7584P3575J03401R9178P2611M7625K8504O362j0676j475L1210N4029
108972B143479M5768K7829L4416O3426P8641O0658L5339L9983P2662R2549P0071K0904j6007k0405O02L4085P2856
108955B856856J08247J29232J32838J24753J09231Q9993P8937Q6832J04142J10220J06118J16911J51919J84307
108941D490536J85838J63286J41269J25448J06668R0174R3145J15426J35744J37775J21755R2151N4208K2473J2135
108926F088031J9887L2188N1409Q9787J36153J58505J49130J37471J42535J42422J15821Q7316R7162J41811J80411
108911G770039J91537J86339J69363J29058P6619N4060Q1593J26098J46095J44299J48270J58776J51528J22108R5773
108896I751555R0580R7742J04922J17032J44329J85354K30374K70583K98197L07960L03946K97404K96915L09134
108882A2806027L44570M04940M64592M86723M67612M47640M66374N19665N71793N96714N94142N76656N58072N50824
108868A9856344N62044N91434O35969O91049P45500P86807Q16177Q47126Q85629R26519R73525J041811J130673
108855C0490607J215474J281365J343845J419404J500360J582121J689590J841800K008265K140027K235312K335285
108843E1083455K457427K569444K628087K607629K491737K281243K019938J772859J563019J361020J147102R45578
108831G4928538P83569O58544N72317N56721O27936P44309Q50932R48867J081936J267069J477228J692793J937231
108818H8127990K253730K664342L157869L711765M327011N031450N814021O541636O983240O964134O491756N708560
108806A47777504M747595L672985K533762J402896L39859o48520j591872k523914l469315m428870n364510o225556
108794A36222044p001992p727571q419674r039285r516736r784418r770573r403749q670442p664480o550823n475126
108782C7197175m513585l690622l012761k478270k072295j767700j534039j347948j197289j075305r73613q85561
108770A2648187q12094p55357p09874o69923o39533o19156n87049n16206m12404l14464k51548k20296k08661k16166
108756E715456k37232k48746k35915k15820k15569k36988k59311k66807k57963k36920k12112j95458j88031j75037
108742B533547j49278j28276j29245j37190j21929q2971n2117m8169n1638l3526P852N0240P5037P7841N8384J6447
108726A885009l7076p4448o9089k3694K6756M8951M5267M3662N6073O3112M4966J1125j3431k1742l1087n9660j06312
108709A788382j49998j63452j33961p7778k8815p880q852j6379k4278l1749l7286m5962o7681r6873j08954q9885
108693F98599n4324k1968N231K6699K8019P230n917J0134K7783Q648l0296l5853o95K4233P920j8861j8583N97J4040
108674F72636K3357L6630L7429J1692j6407j3458J3364L1359L5078M7162P3644R5824J05238J11050J10251Q6328
108658A461177M6320K5711M0608O1477N2295J5566j8295k8589j4535J6410N1504P4038P7091O8210N0491J3106m5283
108641A947302r9144j21991j17872j06164q7548n3449k1774k7480p1151j08504j05089p6342n7362n6962o2738p0534
108625G03198q0849p9903n5547k6318k3141m0931l9536j782L7837L8822O743k1523k9684l5158n5026q0030q6784
108608A30388o5264l0679j1405k2797n0480o5556n8512m6698m2817l2801l76L9570N4904L9841K2758K7660M6565
108591f5699N7639N6651N8910P4552Q9780P5739J9928n0430q6534o8021k5666l046o800j1953n410K215N126J3570
108573A30551K9923L8400K8910J1032m761j8582k3906l773L7931O3178M1890o146l4432k5491k594N589r556m0304
108555B17859o9286p4911n0614j8022k633J656K2582O2943Q7313O5002R904l4583m1667k3849j5464l7891p8146
108538B0193j00181q0612l1103J8648N1852O8212O6630M5310J8526J2013L3696O2690P3730O1284L5729R474p619
108521C58472j2833j7967l8991o9882p9827m8045Q328N2537O6306N8030M0365J4996j9568n5614p6377o7728l1885
108504H0317R294K9516K0251m497k4746k9749j8262L811K0884J3869k0793o1674p8253n5882o117M1480N9813M7390
108486B6652L2245M1936O9181Q0675O0501K7073L835n261l269J2023L1328K7270j1481n3989n9623k7991N099J3051
108468B69255j708k4145l8827l2204p241Q843m727k9951l4780k2349k1284l0938k0112J1262J6471k6271o5772m0140
108450i4618L6775R1867Q4225M0942L635k1942m9914p6045p8546m8805m916K7174L8489L8298L2540J0990l3761q0573
108432h4185r3266o5002k8853j1940O99L4897P6008Q0764L9467l999n743K5894M7578L6703J1040k990l214o476k1266
108413B6116l7479m2356l5734k4350j0073O248J5906J1890M357R273K0852J6061p259k0005m312J4872M184k6125
108395g7934l2485L070M9122O2920L3544j5957n2623n4890k4141J7044M4177N0577M4817L5226K6307K2611K1753R221
108377A62359k3256n7801o6344m4787j4510P487K0720K5465J7647K795n788p590j4016k2785j5404J1809L5168L3150
108359D4319J0823j4457l3311m0192k9038p153L521o002j6775p039K1912N5424Q2612R0658O3347N835m6053o3349
108341A15082n7355n4600n3797l4310K826L1228L3464J5162j1937l7422m5212k4524R199K5467J4902k772p841P3
108323h2367J2034J9775J3723r498l3810l6215j6741J457N855R460K5743M7172N8332N5057M0619J6295j3512l6739
108305G6640m3923l6869k2589o489O128J2117J6420K4729K8997J4395j6391m1305m5942l6553k1145K929L2082M5531
108287a1238K7604r911m1137n2082m2367j4384K2794M8209M6588K8129J5992J6506J5488K275j6946l1206l7224l5228
108269f8138k2242K056K6167L1974J3782j0547j5445K237J7715J0438q443j5329j1658j8335l4576l1898N82L1802
108251i9858K9038K638j1657j016J7116K6414K6581K0954J0557L03n485j2530k7084m0733m0515k9405j8108j128
108233a53918L4826P6918Q6866M7008j3015m9293m9950l5205k2881j2025J592J0674O126m328J073L0153N7693M8130
108215F0444J54m5637n1686k1755J6588M8520O9190O2237J7248l5389m6360j3097J2253l622k9518k4496o209k2222
108197a3357o8918q6902m2203K7566O4776O0788N0928N8236O8120N5790J9388j9544l9563l7896k7473j8363o290
108180D5083J5637L7193L4835k23m6892p4090o8875l9037J037L3999L8685P806l1542l6439J633M0322L4378j0884
108162a7374n0301n4335l3221q712J3218L2188L5520Q969l9827q1155q6633m9205J4239P3873J05067J02734P8508
108145D3553M6376J8141Q390K5133N0130M8692J2589k4077k9314j6713k0640m1900n0175l5133j8590j0489J0047
108128A6020N1347P7903N1883j0676n5033n3578l0747k1004k4430j4558K1280O2422P7470O0951L8883L3338L2470
108111C13941J1880k1717l6169k6999l0943o6925r5148o9690j1099J7091k731k2353k375L7034N7130N3645M2559
108094A47131K4610k120j6761q37K3352J7739j3178k7350j0207M928p272k6095k4700j5352k2948l6656k6790Q07P816
108075c883j7023l8336k5973M391K0536J8798J6609J7578J0560m664j5041j4920r741k160O081K353k2580m7631l5953
108056a40999J4131N7285N5464K4116O380J8134L9690M8254L5036K28m2343o1036l5865P081J9198q029l3848l0460
108038b7583j9681k5711k4820J8257Q1319R9319N0990r789k4343J064J7629J821k6877m1766l3469m347L3369N2217
108020A17599K9561j6970l6591m088M4656N5139K0752j6290k5129j9321k3305l3154l0882k0272k0540k9324k1110
108003b9269J0567L4608K2414j1216k7925j5841L408J2976K0227L3012L9886K7837N275p583l809O044R290J683j1914
107984A19670k0733j8945j8547l9177p5563r0112n5876L321L7312K9451R882J0114K7665M0776L7118J8676n448k1833
107966a2249k1677j3903j6067k7296k7230q521R540J0679M226K997J35j0552j0611J7560N3118N6778K4857p194j5985
107947H605j4768k1256l0947l5407m0343m6593l4621P902N5766O8992M2593J2771J1463L1590M3575L4876K3306L2635
107929A50139O0414P4861M7977r520n4325n4914k2898L872O28k8494o3337q2624p1498l1596J3438L5567L0868K0639
107911A9197J9899J7374l066l1557l9174j4048K3880M6411M2931J8977j6321n0012o2859m3743n881K3701L2128K8287
107893F124K2409J1714p037k1602j3477J7469M5549M1583L898l5249m0664j3714Q571N55j8513j3682J4193L1236
107875C9363K1345M313k571r998k7906l8358k0490J5861M4262N4830N2406L7236J1493p525n236R687K3791M1370
107857B43873O2060N6368L336o0012p3286l4353K74k80p259L921Q193k1324o1728p3632n7269l9004k3780K547L7480
107838c3875O1944O8294O2200M5609K2029Q070J4348K4188J6872L068R519L4670M8269L3142R90l2647o2802q3008
107820B40880q4863p4911o9123o4907m1238N261M6364N7853N2137N8668Q1204R1401O5465J6719j4833n416K5733
107803C86394M0090K6688R049K706r705m3836p6720p4780m6769l3546m6373n1558k5503Q372J6941O759J1093M1003
107785A40305P3382Q4016P4033O1406N7620N6488M2369R305k7719m4601l2607o443J2446J3989Q64j7860k9268k0789
107767D46936R660M8763P6219P8005N3870J7492j0627j6754l171J7806L6415M7809M6958L1871J2443N758J7246L1369
107749I48068K6269k382l3924m1308j9814N735Q630q796k3805k9281l9444n5229n1591j7408J5255Q439l0981o6348
107731E92085q3998r7376j05724q7935m2535O81K0168K5752L0899K8859J1291j2366l0413m4887n6845n3640k7363
107714F6653P904L1516L6630K4506m658m0370n6342l4969R861M6602N4342K9620j9843p3656j02570r0368m8286p15
107696a64143L4615M8338L8740J9954J4056K1943J8063j1788m5101n2189l3892j0197J0630K6310K1019j5112n4946
107679a33700n7984k5706o37m655j0558J0895M4206N2658L1305J0671J3109K8272L5213L1176K7316K5361J3973r934
107661H0981k9788k9226j4837m741Q26J7849M5194N5632L3066O69p744O124R179j5462m5331m8336k1985N865J0448
107642D8383l406j0905o64J1284Q068J962J8726N4849P4699N6549J8662j0741k6324l3760k8541q386J0968J5415
107624A96838J3507J6543J4275l705j8301m737K3978L1511J2254l051L084J2317M141j6620l5455m7100m8817l5540
107606A15122j2261N061Q760O226M738M810Q892J8329K1832P537j3371j8252q823r024k4185l1998k2052j3956k2599
107587B4786l3291k8370j3925k116J0655K8977M2143M1041L2507K0504m438l7515m6567j4185K7416L5019J2897pR022
107568A04553J3954l533k7791l5367k3092l634R541R785M035R602K8600L2966k427n6817q1852o3607l6403k7561
107550a49048j9727J3789O0734Q2788O5177L0312N560m091j0115k1456l6633m7776m7279l1710k113L6052P1350Q9359
107532H5173Q4328O5960M6487K2788j6340o2546q3052n6343n562K0310K111k4589j0145M8361R9754R5629M2740j1461
107514C43603l5304l5245k4786Q94M4306Q0270P6495L4093j2336l2864k4546k67K4096L1037J0989k3039m5368m6719
107496C65309l9231l1415j8127j307K308j2097k2207q558J4737J9534L585j0717j1234p281p457q408q885j5154k5377
107477A78018k5724j1427K239Q72q639j0497l893j154p728j7146k2551k0630o829J8418L8017K9565m634l2390k6862
107458F7025L319K9630L8680L6414K6430O460j3800j5062K655J2951j767k3898k5382n453J5614K9107L9549L9625
107440B62097J3140l2101o1397n5540l4885k7116l0599k8107j9727j8172k1084j3139P042K3573K6449J8738K351
107423A1523k1495l7017k4831M866J5680n562k7233j9341J266p85k2908l0880j5647o717k2602m1263l4999o911K7166
107404b57690O7433J11956J29281Q8783J5565k4206m269K7760J6614k7634n1033l2069j445R102K530n714j4305k4158
107386B6501k3323m945J4243J3966q92j0396r639q578q639j605J0730J7199J6024J1732l784l9877p5672p2791l0429
107367a80175M104k411k6428l0579j9257j7203j6659R842N4264P6338O3606M6565M5382M1055J6122j0567j3972k229
107349C7798j23j1013j9837k1300k1421j8703n193J6278L1428K9121P937k4147m7275l9897o574J5658j632l7888
107331a16783m5139p646M0205N7504L9436R884j2909k9828m4919m9093k9347N432K0394p545n1862n9667j9666J8881
107313b82668J3362r848Q523P4460J27710J17758O0407O685j7356k0236j3568J530J9081K2388M009j8987k2725p883
107295F2642l11j4852l2091k5901m184J730j3473j9395J687K5915K5853J1616Q398J2710J533k7084n2580o3312o1386
107276a62485m3150m845L5881N3728N0211M6583M4673K5939r170l3643l2627k0924j5346j7589l0073n6779p8526
107259b48142o0666k380M9656N5468K6865K954L975K4979N0775N8723K9824k2467n4028l9586j910K4284L4392M0280
107241b7004L9759K6700J2224P641J235k0637m2762l9998j7549m412j1850k2950k0239l078J8567K9759J6290j7292
107223g5596m1725l2349J812L2748M7030M9234M5014M0182M4632N6039N0434J0836m3685p7401p6184m8743o403L4037
107205I912M4150J2289l1451m8071l8269k9628k7900j7125n32j203k0659l2379k0995K224K3894L8168L3808O771
107187i6996j4466M537M8007O1249K6929j2351k1896k1364l9500o2041n7641k7184O224L5271O3423P6024M9331j3384
107169D172p5402r6463o1932P424O6227P8471N0616J9643N737k903j5027j6653m67J4679J4601J4704L0479M6431
107151H4337M0707K0470N187o791k5158l7798k7067m229N671N200J6665L7239L7389P134k7512m1099l5054k0134J937
107132C7094K8327M6974N1001M7094M0540K4609p151m7724q0787r0223o6441j6850K9054M0625J7438j1273j9814n889
107114A6604K0862M9208O0159L3998k1019o3977o4761m1820l6148n3395n5502j3991M8988Q5238P3841L5761K166
107097G6212j5264k2576k8117l5643m2345l7511j3584J4912J7628j3257m4323l9983r611R303Q287J5848M5644P1572
107079d2808O8667M7942K9456P845k7243n7049n3490k2704K063O094L294M496O324J3666M1909Q5010J05923P6486
107061B95881J3625l8228n3263m3328l6689m6140n7808n0286k4004l625o151j8791k1356j7395k1034k2370L104M8939
107043i8919P3370N2652J2723q525p668m339l433M150J3888Q982j2323l4058m7826n8086n8814l0298K7086P6073
107025i5365Q0791N1575K9757L2466L7278K5087J1349J7808L2552K3844j3625n1383o5602n8830l9521n487L8769
107008E1463O8179N9451J7745l1232o5475p4296n8758l9360m5206p4442q1888l3860L6210O0531K2586k4289k8994M78
106990b41157K6425L7821N2173P6850R4115Q3449M4274m658m2111o0285o4794n8844l6479j002K1855J1367j2232o222
106972g9455L6909P6838P8067M8289J3069j8375m2243m1751q560L3056N0390M1000K5060J0385j0684l8191o2314
106955A11490p8162q2675o6462l0905j019O001J1724M1433O9538M5485k5691p7439o8531k9922o167K977J2521Q842
106937a56962j8919l6893q377M0754N1723J9699k331J1875K6743R352j8165j6981J1951L8367M5782L7749J8895o522
106919D7740k9266m5980o2608p4040n9710j6135K7018M4276M6743N2601M7910J1460l6681n1102k0909K1669M9181
106902d7833N8989M7076N003m6314o0255k2876K2766L2695J7175J6552M3088P2253P8051N3885P916m1565p1792p2771
106884I2043n5722l5984j6689K498J3733J0325k430j4845k0396j0769J8085M6725M2400L142l0814k7558k635J2191
106866B3300J2747P626j2739n2594p6460m6105J4663L9098M745m0948m9879k7101j344J9281L8441M7794L9293K3926
106848c6256J5978J1265j342j8303k7512k6231j8102o73K8783N8452O5673L8486q704m1822l5851m288Q009k4210
106830a6648o9288p2203k3113L0725M3682J8176j4246l3569l8910l3645j9673R35K6289M9254N3050K8695k967q854
106812h2310J1512K1437m053m6506p0904o2533k7003K2307O2016O6335L5277r58j8979k5413l2838l7384l5389l5435
106794b60821l4640j1515L2785N5687K9035j1169r935L0094N8845N3071L6057K8519K4699K0817K6188L6040K7897
106777A31654k802l1733m0010l3196j8966M920K9679L1906O899j8046j9303n758J183m678k0079m3647o4744o1564
106759a58285k9976K286R174j414p289o406p925l835K0118N0995N6834L1579N723L170R043n463m0484o6411n9848
106740a98414k6933Q559K8863L1113K2046J1587P719J0054J0716R270K2219O1465J02562R8174L7890k6434l9474
106723A70982j0428R696O542J3104L9282M3015k460n6395o6366m5260m2575n7601m0286J9395O1780M0760q983k3041
106705E1161N131K7606J5706j0352k1829j5697k925R125J2934J429j6903k0738l927J4494J7561J1422P392n15k2929
106686E8146n1066o3072m8500j3463K9208O0476N8139K1199j6082j7866Q977K6141J4237j3983m5077p4529q2977
106669a50092m4109K7503P3689O2377K9456K4045M1703M6683L5229L3303M4617M4754K3881k887k7313n4279p5153
106652A33407p0971m6903k9314k2398k576L5162O1223N5548L4517J7979J423k0983l7258m1744m6937m9451k0012
106635d9288M1958P9432M6412k0850m9979l1900k0661m1752n9583m5946k5942k9551l8514j6065L4606P3825P5290
106618g8508M7269J2400j1558j4479L009K5716L3163J5818j9345n4988p2931o5272m1398j9119o395J895R284J1648
106600b23791R205J1372K2032L0960K8935K1653J8619J7118R800K128P965K7847M2675L2416l453m4356o4086m9803
106582a02764j0526L2052O1170P1728O3275L6588L14k9356m3319m7614n0254m7121k9877k825J8538K4711K0443J6348
106564a8489J7886K2227K2595J6775J1704J4410J8228Q207j5783l3560l0585j7388j0908q096M522K2328K4257K421
106546E0751k7598m8123n6009n5772n0568m3696l7258k7192j0211N754J2062J7580L6977O0850O1311L3576P357M937
106528f5272J1106J938j6789k1482o468J3622K6137K5006M104l1620n6879n0791k5064n698O236K9385O1533P4198
106510b6798N2951J7732n010r566l236P790J5541J1222j728j1074j8224l8145o9118q3564o2315k0737J2519K6966
106492b04794K8119K1286J3323J5123K5687K7197J2013r33M104R189j2462n0956o6604m0106P902M7392O6918O8814
106474b8788N7636M0864K7116J7527O815p538k5567m8368o8320o3867k4453K2872L5918J0174j2012P658O0013J02638
106456A10318J02598N9581J413l7219m3979l9529m6051m9742j9745L4735O0857L0978j7003l3512k4858l3144o6600
106439a0902q9939p9445m9997k3046j208J5275J6943O078N133K5384M5947M3734K7846K1559K3369J3417p795j7201
106421c4848q071k289j3484k3633j3759K608J56j6720j9128M230L4205N0317M9418L2426k182m0779n2751k4156K0090
106402e8350M3748L8123J8954k950k7814n0736o0259n1672k6077J9086P8824J22718J13738N2649j5797n0736n3324
106385I0125m7806m3080l1010j1793N44k378j4044k5789l5590l8952k3277J6124N8667P1793M6338Q158j3113j5745
106367a0828j3219k318K8440N9266M3611k8528r9080j03462m8171L247J0979p445j8823j2493P428L3203M5310K3671
106349h9212j7401l2401j916L5680L1079j4688n6859o1626l4450l815N766p326j7024N229M8861O4633K4226l7579
106331a58823o3647m4041j6853p613q7K8139O7586Q7233O9900K8449o894j5116l520J567j2628k9871k8888j0536
106313a15643J0854K9132M1056L2958j666l8315m2831j6109P264N370j1110k6362l8394m3999l3154j0715Q21n082
106295b55925m706K0265N3047O6198N7589M1578K1299m942k1393q294K4100L9881K0104j7181m2814m6023l3745j6520
106277a07482l366K65k145j190N046P189r95j1908j5459j6509l0904o2008q8336q2335m2031K774K1105J2926K307
106258d13056K407K156r127k1043j7483R56K5246N6284R3279J12465Q6937L0150j0399j4149j3498l9314o7893n5064
106240b51146o294K8047K5418J7692L3506N1938L9016L587j5887p018N921L211p309j1864j1654j4421k2283l4804
106222a74344m9904n6382m0230m856K8299M5117N0522M8835L0772o516m1032m6115k2588M664J8764K5974M0554O6659
106204h1807R6386J17594J21979J09508Q4714M9511O488l0320m1143k4494m927q094l7232q0113j22970j45178j19327
106187a09425m1270M8728R9268R9575P8541N9153M0098K0508J2055J7367K0336Q465j4216m2780p5858r5244p0851
106170E4450p481L8247J8128m4480q2549o8256l4985j7041m058K8355O9750Q4067N9484K5760J7967L5821M6019K0671
106152B39869l1147p0097o4227k0242K2913L0991L011l5685o1950p0333o3866m1677l939L6183N7384N0590K8044R427
106134A5249N720J9009M5800O9873O2461Q504o7722j19146j20601q3918l0618K6790O9077O4396L929p0800j04197
106117b06194q5375m6676j0089L0957P1877P8629L4418k1895l7660j3177P649O935J3396M5145P0180M9539m115m1645
106099e8101m0052k0774q512n45J5404L4722M1312K9255R241j148J0080L8272N9755M9771P950m1201p5469r2088
106081d2128r4177p4954k8434L1082P2857P3752L5460j6529m7143l4291J2192N6449O8014M6283J2923j2504k5195
106064C3657l1214l7567m2605l5531j2678Q625Q181m599J390L0455M4810J5561l3368n7107m8316l4498k9048j8929
106046b42781K150K1347L1629M0833M9662M6192K9726J5704Q519n672k7432l0348K695M8102O6446M7489J4203q152
106028A10312j1530j686R427J0945K374p180j2726j7819k1880j6340p01J1574J3583J7271L1361L9357J7855k8632
106010A45565o7346p0730l9750K839L1505L2412R815j9006l7615l8453k0710Q256K8279J8806j5726m5532m8593l1515
105992a57499j0583R637K6390K7710J1608pR705K3041J4127o667p346J1634J4673j2833m1126m2025k6386j5948n725
105973a77620J8072M2035M0070J6393L478J5130K7112J2579k2163m8124m7087k4579Q31J0858k093k5520l1204j344
105955a93176M8338Q0977P6928N1618L1632K2902J2466m026j1271M578L2622M3066J5590m0101q9324r7134n4872
105938f9187J0454N4592N1165J2750k3549l2080j9278r054j1936j4096J950L2027N3612N3519M1951L3769K5447K711
105920A94767l2635n7746n4588l0955r882m290q025p998R19J2507J7153J2623P457J3414L4606O3014Q1347P1055
105902C02743K6372l3636p4388p6541n3811l3053k3502j6373o800M77L152O64j6293n3274q6899p8030k2005L6313
105884b04884N4395M0991L3059L9351L5300R937j1899m617K0423K8761O726k3920l6039k8973k1292j8412l150L6106
105866d8137Q1033J00295Q4580N1197J7802j2957m2998o8655q4722q7911p5206m8738k0048J666J9076K9911J4083
105849h9729l3665o8226l4407N1725J07280Q6843L8243K5095L7058K3458j5578l0616m316K6189L2824L1227L6633
105832B20038K9831o546n0079o8098o5618p2628r2195r1380m8927R617L8407K4217k559j1196q908k2276n1243o6634
105814c36177n5597m1938m6553n1008k3873L1504P9972R6394Q2649N2392K3004J5390L4597N2712L6669o346l5134
105797i1343k7244j083J8204K9892M5538O5147P6232O5376K7723k2647n4399m9185k8336k7218m3868m0925l853L3166
105779b8823L4097Q074j0121o954M324J1441J3272Q136p946l0507m7259n1567m8028m4082m1049l4142j9326J056
105761b89404K1852M4380P4570J06946J20192R9442N5751J2507j8722l6181l4978j7071l966j3172k6840j2136K7908
105744A11078N3584M2235J3262q407k4653m6174o6624p1780n8293l1659r64J6908P300j8418k7499l790L5487O6004
105726a2403P8581P0746M2432R594m343j583p778k6451k8417k937J6788N073j2635j217K6241L0281N403k0619l4431
105707A32325m5008n0639l5643j113L0577M3719L8809J8195j3125l6166l3822j7562j5159l2836n0979n4306m3713
105690a66446k2056O541K4112J1227k4722n3734n6855l7934o139L0225N4385N0548K5517J452j2020j9282j8453n084
105672b18718Q437O044j505R659L3341L8978K2663J2843J7157P613k3226l6055n276L2884L2785J0407J4569M4895
105654G495N1144J4161k1351j0922K8591M5155J7730k5880m6484l0554N503L3459L4554J1570j6185l0889k9809k2596
105636A4692j8642j8351j4948l626J1216J9197J5067M654j525J713J1341J9600J8426M234j8601m1340n9069p1237
105618a27199p3730n9404l2344j2911j6237k8465j8164K4884P3615R3764Q1188N8538M1263K3919K537q105N084K5475
105600E3708J9852j7967n4209n5432k9696j3964k6219m4874l7818r94L8447N2966M1800K5445J7303Q928j1751l5892
105582g0367m1839k8078k0862l8991o3673n8367j2778M6611Q5982Q9979O1068J1735l6510o0713n4807l5390k1944
105565b48944j5844o096Q812J6285R094r01K496J6148K1239J2267Q286K5179M8090M8769K5926P970J2417K2376J3804
105546B7373r340k1989j1499R950K3473K3829K2230L3298N6354O8820M6799m530n1427o7602n9245m8325m3096l4384
105528c9311j2094K2235N1656N0479R480m1555n6336k5656J2456K6117K6242L2728L4895J6419n508n831p49k6919
105510F8748p6337r5877n7592P776N6034P3799O6835L8644L46k3402j9288r70J3021K0645K4979K0136K319j9159
105492A00657l3048l5978k5409n60K2550J9172p968k1050O265N0459O5023L4071j8493o3069q7926r3198p9942m9429
105474b17873o538L7262O4424O2055L5094J930k3810l7990l5179j0595K3633M2556L6611K0251O032j0633l0700l6561
105456h0031j6214J2446K1719R775j870o05M740J605j0263k1729k4729j9029j1861q497l100J3936L9206N7021N8123
105437B0643M6032K4992j408j7113j286L9773O7312N2018Q260k6567l4177k3729j0854m548p681j7163k6663l4203
105419E3638l9840l5644j3595J4370K4843J6855J3024J8462Q253k7353n6198m8825k3782j6338k2546j1297K0109
105402a25864M0150L0194N746j0576j2213m223L699J105j0211j4628r651j7412m4932n3627o568O6335R5156N9936
105384g584R794j1701j3990j9088j9515m095P521j0713m9368p2069n6239r620M1870O9854O0884L1589J5058K3032
105366a4380L5583L5242L1141L7001M5600M2821L1077J9733M505k4586o2162q9838r4209p2620l0534J6032M5782
105349d3812N1437M5291L7484K2108m693k8398l3559k5348j7915j1940M72J8257L3938M4405M6050L2116J0457Q096
105331A84446L6559O6450O1524K5935j0793m3362q6944j27626j22607o4420o081L397j9153k2406O384L3181L3549
105314e1967K3872L0706N2808O5481N0748J3763k4388m3481l7234j5706L784R182M72j1236j1660K964J8221J5311
105296I1640l653j3813J284K5870L1382J3821k468L729K9284N6938P1749O4492L4626k007k1438j7975j2034k0630
105278C30797l0527j5963K3765O1930P7005P0060M9770K0854n276q152J7754M7971N3092L2498Q562o575j9819l3727
105260F74019l5376j7048P985K3660L4714N6217Q3891R2417O7869K9346R453J9004L9149M5972L5181K1354J7984
105243A205791K2250K0064N805n831O245M1684P1805O8097L3796j927j8860k2841k6212k4916n192L3068O9675Q0969
105225A553470O0530K6324Q341K1909M9820N8774L7903J1572Q007K6802M6878N4702N0652L7486J9533P030M241j592
105207B082382k2663m8544o1688o8626r0055j21859j35959j25043j15725j24454j29420j07265p4502o5837q4740
105192G06002j01772r5912p4308n2111l3366j7355j0076j9716m3001o1522n7093l2820j0582J26J8185N7476R0076
105175B62231P4424J7339k9532m1210m5643o2734o3515k3590K2077K4135o705j9347r66J4235Q163N51M657P704M796
105156A47070J0587K3636J7428j5421m3533m1196k3191j3942r067O452K2998J8463n337k4326k6044k1103k0453j7163
105138a4142L263L9989O9496O6392L4333O930P270J6889L368l0205n0156m3956l5472m2240m8933l7321j5014M021
105120f5488K3472M7758O1630N1414L2053K8212L8233L9972K5082M557j5666m1322p0266q5756p5801m7326j6127Q565
105102e6804K5404L3676L0700J5925m830k1778k9006k6935j5459P683L5248M7357L3667J1021J794R75j3740m3143
105084C1755o3301o1371m7174k6619M822L3630K7672j7467o0631o4346l6143n11L9794Q4643J06467P9809K6939m201
105066E3767r66Q140J981j2905k6988l7598l2776j39M0966M8548J1981k9163l3734l764L2717O0106P6620P5236M8688
105047B80717Q439k1368l0268k8857k8963k8227j9159m529N028N687L110n03j0475k3625k1070O611L5258L1277p94
105028A58289j9909k903K8476M4120M1096K7282q45l9001n8919m2864j6257j3882k9398l2920k3966k5737l5362k5725
105010f8425K482J6972J0890J7912N2331P6363N5511J3735l05J9319L5255K1846q880l1956l7093l1284k8172l4191
104992H2310l8786k5682J011J6109P874l915J165J2486Q305o291p707N901J0175o826k5724k5686j5440j9278l9939
104973f9938n1248l1197O769K6366J3672k556J1266M3345M7218O583l5840l0701J6535N9883P4230P2136O4291L8205
104955B59019j2679o5871r4106r5605q2788n6346j2910L1054M9258M0069K8633L0474L4582L0670K9905M1712N0213
104938B05284L8709K4035L4649N8418M7842j3565q2280j10145j01577r0315q1330n0865L513M7647N1517K1945j1461
104921g979k5307j3487J3024L1779K7983J1136N83k589j0625j9076q315K0227L7871L0890K1744L0032L7961K0809
104903A96661q013j4126N804K1023J2763o020j8896k6256l0724k7393j9605k3666m4321o1841n6415l1063J383L6959
104885i3746O9654P9137N4364J9931J1109K5081K5319k225k7110k0506M205J6784J3680J0182N643j1443l0405k4060
104867A25594Q702L4784K9970N183k0686m8400q0433r6153p0594j0766M6696P2739O8948N7249N6636O6558O7282
104850C13309M3233Q608m472R735J6655j3581o3257q8036o8767k3382K1658N0427N6605M5857L5522L4644L0658J1841
104832D17257r040j4616j3505k3866l7230l1035j1022n536j7812k0233j177J7590J9579J6079J7912J6799J0100J3466
104814C43710L0256L5992J4328j5312k6742k2262j9094k1528k6221l3791l4818p904M2870P0898L8558k9744p6467
104797B62729p9777o1941m0288p327L9626Q1462R8090Q5486M9181R92l5832l9353j3439J5041K6608K3395J3012n071
104779D12594l1553n6974o4919m2625O131N1801N4028L072n8776p4996l3411K6557O0814N7657L1191l47k3194k9835
104761B87215k1278l574J7064L0679K3066q594m5104o4041o4408n8963m9646k9558m124J2013J8578K8621M3129M8715
104743A59790M2814L6742K7967l660n7943r6453q4041l3703J0920K8010L1301L6874L9869K9956J3492Q667K3708
104726B14310M7524O0813N2437K5841n845k8833l6242l1268k1750q238J8214N7422Q3263O3338J875n4072o5197m3930
104708C29662l0539l5330k7910J6361Q0385J22085J13426N8119j5901p3788r3131p6099m2755j2158P795J6992J8634
104691C55848J7360J4900Q911J477L250J9860L8562L9577J9062p961k4295k1740j835K2644L2035J9010L12k805Q218
104672E42390J4022M248j3954k9018l2465j9687J256Q970o453k7413l6930m8635p9452j04278p8593p116N1496N8829
104654A97217L8052K6995K8521L0695M1455O9395R1845P6533K6334k1987l6989j4642K6238N4253M4940O685k6348
104637F59192l9406n2903p6291p7202k9532L2876N4034L3371J9304L0871L5891J3795r519j0479r150l0133n2507
104620D92212l7051J1478M5649L6292K480k3011l2576l6448l4765j6282J7487M2324L4537R04k3577j2341K3000M5468
104602E35780L2589l692l4976m4418l4605j7468l736K090L021M659O172k31j6577l0256k5662l944J6883K3456K0670
104583D29755J9331J9319J5456J3757K5242M2402M0353J1068j9232k2278n578J381q836j4973m229Q104L538j4410
104565E40170l0011l5188k9616j5004k18J17j6075l0688k6471p593Q542J0982N93j2588j1541J2833M0942L7481k406
104546D34261m0347m5836l8208n0718p0863n3649J0411P7389J06080J00474Q3868N8110J0773n0212r0694q0723k3781
104529C36335M4362Q5017Q7941P3235O1343M9105K2443j6807m9521n9172m2212o729K6347L1453N788k0210j8907j810
104511F08001K786m371j900P116o99j9279j2280K6261N3338L9168Q795m099p372k0758k9163p679K9609M9317N1024
104492G67815N5712N4710K0249l4752n7907k8425J6302L9072M6328N3378M5968Q149l8874n9272m8459k9506j7723
104475G92765j4345k2277m0256m9768l4302n646J3278K3688M0686N5281M3316J3824Q122L6428N2950J9787l4299
104458H99232n2420k6615J741Q769J4319L7267O1341O2094M2973K5807K1840K9159M5498O5474P3383N6648K4609J988
104440A393107N263L1895O5174Q0347N7070K652m3220m5522j3704J2986J7293J8033K9408L4061J3176j7665k7227
104423A613127j3315l719j3975k6842j8688J2715N4763R6684J26298J24571Q3975K8176n600n647Q322J9642L4283
104406B114770N5823O1782K8237l0150o7962n7063q696N0095R8563J17956R4068M0480j172l823J6340L0418L8021
104389B577687N3840O8837N8505K5951L725P934J9640K0426J8871K7543L7227L3194K1221J8124K5504K8310J4470
104372C061009j3275l9268m5410l1113k3869n0169r1415r5999m9402k860p355m5217o1495m2931k3149j9314j1178
104355B407590J3336L6612M8038O1722P8764P0723K9072j485K3661Q3344J17333J06307Q4984P9272P2627M5268J1247
104338C368415m063J3P569J4978L0563N3784P3572Q4433Q9760R1242Q7626Q2643Q1860Q1048O8874M3695J8364N264
104320D279640M590J0153J8001K4037K0655L489k1450m2392n0462m0214p106M7817J11717J63897J86746J73490
104304D882608J32796R1097Q1041J13623J62258J85891J69921J35989J12382J07521J15041J29847J48600J63108
104290F731723J64089J48133J16123P2615L3565K4389N6950J12702J60082J85074J94279J94585J87141J80763J92233
104275H754446K26027K66761K99016L23082L42990L51128L38665L15618L05866L20435L44428L53238L37095L07936
104261A3186731K85093K75768K70009K56712K43192K51066K87695L28094L35034K97220K40574K00904J91734K00802
104247A6850628K10357K13953K16582K27048K52656K94736L42501L73636L69920L36571L01326K89263L00929L18861
104233B0898967L30702L38519L48672L62907L80138L96696M01935L85237L55770L46685L85973M62416N29664N48795
104219B6473076N24658M98782N07622N48083N83680N84543N59159N43795N64381O16926O83611P53690Q21700Q78990
104205C5142696R22484R66160J027611J103174J170927J220870J267594J326420J390384J443316J487046J539596
104193E0008278J607570J675829J730336J779417J842062J921887K004789K079816K148872K214554K274620K336527
104181G3624557K421809K539899K669007K784919K903230L066175L284430L520004L738904L954295M197336M468236
104169A13172801M744612N022447N312685N598685N828358N954216N957605N831361N569540N189467M742378M284061
104157A77208216L844071L429062L038595K669884K328974K051509J892046J874034J966540K128949K360921K684910
104145B07477711L097179L570400M099933M714697N439321O274303P220715Q296041R506441J0811820J2116338
104134B82624899J3265022J4039892J4203286J3609425J2303463J0501029Q450925O302980M090106J809674n04059
104123C80696642k792362n032692p253369r475143j1656220j3715362j5600843j7313082j8856589k0185842k1199423
104112B37615715k1769552k1778386k1160746j9946677j8267865j6311510j4260414j2263541j0431757q830228
104102G2595039p469153o316201n330432m490112l793943l240885k810913k468182k185453j958974j789726j655348
104090B9085717j518304j365107j219325j105267j013377r16850q13332p31510o95582o95581o97101o74406o30442
104077A7009533n85946n52525n23359m94792m86082n18812n77376o12644n95508n49664n17965n11231n06653m84076
104063I492900m43898l96280l52871l26605l21560l22501l08248k74749k32861j87867j37884r0689o2742n7102n7620
104048E919423n0144l6900k5813j9333k0076l4489o1094q3546q5433o8345m8925m1339m7881o3769q4301j05597
104032E042438j22414j31697j41329j68620k18922k67905k81166k55990k26994k21797k29761k27882k16240k05232
104018B126489j86961j50948j15398j05875j08744q6816m2906k2638m1352n4187k5043J5173J7006j0791j7970J0256
104002A199295L9125M2752L2849K3200N371k3709m0496k4179J0665L1958L0382K3967K8433L9647M5486M3304M2286
103985A550336N4230Q3277J20281J45974J43400J11481O7474L4296K2220K2292K0094J6169K7315O3305J06123J20158
103969B708425Q5865K0270l8726o8197p7969r1102j10249j12908q4706m7275l9099p0528j12282j31533j26066j15748
103953A588172j11560j04240p9611l7544L200J7866o95k9643l5393q847K5288L5604J1385l7082r0301j25303j24454
103936H96842r0887m8427j8850o458p597k1158m2416o1009p3958q6029q9060o1272k708M8253N5252K6911j224j2877
103918D03328j5299j1167L490J9390K0182O477r722k8219n1332n8560k5078L3587P0098O5540N0175N5486P6038Q9868
103900F94282Q6624O1756J2720m1322o3587m4146j6566j0316j1719M021K6753K8531R526n774q797j3897l0675n4470
103882F22944p9836j00899j03763q0273m3688j0825K0857N4408O5966L1927k2135m0705j1876J7018R588j2314j3389
103865C03005k095q905k9882l1497m908K0855K3408J3961Q518j632k9676n8645n3799j0060L5084M6815L5737L8127
103847B94411O1976P6913O2235M0419M4437O6962O7647K8246k3519n0644m7223l1281j3640P818K8952L3495J2873
103830F60077j7824l3070k4804r437m833q988j0095r647j8124k9260k2405R43P904j9433n0376m5432j2187J2358
103812C65367K1298L5476M6304J5618n1728q7491m6093K8501O2497M7829L1646L3544K8745N801j5169k7960n1405
103795D42780p8467o3721P324P4668O9774L783m8554m1834j274K5494K3506R616J592K514M836L26j0673j8429j5708
103776C87553o907j59L162L361l709j5670j6248L711K5312K2937K670n284P071J4760K955q522j085Q215n694l1614
103756C86815l6251j4507N177M933l280q362k0507m5757o4428n7825m1560m5835o7265o6544k0476M2976P4084N5850
103738G7238J7417j803R795L3733M7343M5852M0595M0662M1019L0696Q765j4154k9757l8646l9999k5430O325L6155
103720B85806M1767K6792J5629J5607L823l5787p8208q0357l1963L4395Q0039Q8715O2494J4152k9749m0149j3866
103703C59140K1092L7695L5211K5599J2008n781j9700k4010k6270l1502k7155k837K5876L5603K9026K6129K7730
103686D97854J6087r094k5452k3613j8674j7324m153K3466L5779J0208l0381m5039k5644M132K7100M1925M3703K6135
103668E27015J857p927p008k1369n6645q3022p3046l4490N395K9579L2974J3932j7341l5031k3209N81L855k2497
103650B33603n8401q1332q2443o0378j9872K1180M2491M6331N5393P7014Q6189N8684Q485k6516l0016j9899j7341
103633B33172k2578k5139k1292j3240k838O305J0301J3943K6314M0900L5474L964k5532k1718J0767M1338N3591N3366
103615C97098M2662J3396k8682n8466o0282m4631k8445j6694j1925k1309l9906m4650k2236J0431L0240L8835N0465
103598B05901O1050N3475K8614P311K07n112k3300n2608p9445q8599o8537k2122K4601L9369J6986j3699k1766n697
103580E6629J1091Q999q166j8451m342K8101N4943O1526N6560N2155M0465O542l9723o4260m6373k064L6159N2991
103562B82782N7817O5376P5043O9980L9216o19j8201r417r307m4051q5982q5066l8587M138R715l50R310L8439O1936
103543D22172O6086N2113K2678j1712k7415j2611J2424K1519J8503K3130L0572J5356k3668n1842m2725j2351M216
103526E06445l919j8282k0451j1955n950r738j8813k3803k0214j2062p227q968j1440n019J1480K6236K9240L0553
103508D26113M9285P7399P3763J5285n8997q5026n1493p937P090P061J2783R034k1733n4159n1484k5294j9671m2139
103490B59880n3449k9420O493K2904J8999R348r7l743J0169L7021M7734K6349L01Q408M7014P2455N6025J5700j1278
103471E40813j1345q82J245n073r566j2521k5980n1653o9051n6760j9296K0095M9191P3316R3400R6880P6766M4647
103453G34226J6738r71p705k383P886P060r835k5028j7926R769L7563M7929L7345J4523l618l420Q389P895j5297
103434H43140m0270m0226j6547P578J9889K7511L6419M1809M0654L7316L2095J8159l631j8201j2872O018J9550J5341
103416A013732l607k4268l2999k2581M444L6580N7316N1759J7572k6420n0021l9411j2743L33p238j5482n990J6170
103398I57146L1987L0281J4692l383j1935l388J9422M2864N3679N1589M7533M8579M8040L4099P216j6496k2952j7502
103380A311471j7211k6018k6791l518L4932O1178N7476L1655O196l132K406J0897J4008J4457J9011K7305L3320L6375
103362A584017M1663M8454M8207L8545K8485K4466K3015K3944L5581N5493O3359N1706M7593P6460J14426J10391
103346B415805N6185J773o975K5220O9697J12851J45476J42246Q7045P432m5511m7467j0549M6423J09922J59983
103330C269556J77510J67783J53592J42178J22786J00440J03968J47509K05828K42551K45619K22395J80174J30032
103316E611921R2930P9162P2002N2641L1405L0456M2779L7518Q539r719J3778O6601J10554J25952J24454J26722
103300F617695J41337J63102J81671J90919J94872K05739K35645K89766L61863M30408M65787M54970M17990L86123
103286A0737887L63670L27164K63159J85143J06206J9997p4544j52686j94696k22694k76159l56459m26952m69194
103272I829842n06657n61162o13530o28245o00656n58137n21924m86307m34477l61710k80931k12076j66121j35704
103258C762205j02989n9045j2723J9412K5504R21m9848j07290j42114j36768r9962n5902k3023m986N400J8317L6071
103241C073180M5883L1589k982l1763l3781j3436J2255L4453N1283N8859N7728N9074O9660P8010P0902N7101N7912
103224C675927P8314J03564J20307J23824J08885P4573L8345K4283L3905M6704N0818N1680M8388K9675M084N447
103208D618723M7353R4061J02130P6004N6270O3801Q3794R9219J09706J15685J12606J09018J25385J62549J91982
103193F168286J92320J78529J77718J89986J93367J78705J57729J39556J21099J04410J03601J23667J45140J43031
103179H317144J16417Q9838Q7418J12041J47111J71011J70247J46583J16152R8801J03362J21173J34916J36336
103165A0068550J36109J53662J94811K42376K73481K83459K85881K91039K95149K92949K88854K88098K86060K76441
103151A3656919K63349K54988K51153K48379K51450K64341K72407K52522K05831J65151J61819J96295K47493K97460
103137A6989557L36587L58020L65071L79251M22094M84811N29492N29146N00047M85560N10029N57780N99545O27914
103123B3674904O54382O78549O83652O70650O73485P17963P79883Q13869Q19313Q43615R12747R91755J033440
103110C3948207J040358J051953J086851J128124J160898J197003J256427J341751J439017J536253J636635J756294
103098D9579771J908971K091805K289015K487485K680240K857210L006492L122810L194430L181923L041428K784017
103086H2225597K485477K216529J984201J761115J545974J364893J232221J144184J101335J108657J162056J258637
103074A00590876J407388J605341J821160K032674K264446K558040K925617L366756L904881M563916N336442O221386
103062A38598923P242704Q334309R226749R574543R246666Q423806P387364O298081N209344M173923L227833K322078
103050B19266323J369456L41679p44058j900666l153664m462514n731566o898682p959510q909889r709579j0285335
103038A61221995j0520670j0274278r489615q290047o906288n510401m171134k943670j902605j062405l43253L44801
103026A00152430J031713J721237K440919L234383M145723N209351O374184P409017P972577P859047P152037O104939
103014A60807557M920860L690925K472876J323344K52990p80447j820186k884851l983264n108149o215122p246243
103002A45430290q178967r028551r808322j0505249j1067596j1379024j1273773j0646784r566446q245835o898004
102991C8831739n643305m534917l605036k860203k273779j814590j465254j203245r94430q21197o89608n93230
102979A2332945m99922l96101l15118k90659l00646k89923k38294j75084j30729j04940q6803p8629q6687j05568
102965I233842j25408j44926j67353j91847k17678k47476k74986k79266k49299k11628k12511k66122l36882l82093
102951E926367l96206m00330m04152l98631l76799l40155k90025k34143j96486j94163k04511j83015j19360m9070
102937B139321k038L1166O8028R8272J01419P9052M7049J2418k1176m0770l8886k7109j5043P604M4605O6448M0817
102920B591177k0010p2196r4655j02226j10724j19675j28407j38639j37962j08670n8675j8778k879O427K6774N2605
102904A563487O9190O8598M5069l201n7291q2281o2174j8202J5660K4329J5608O903J1548K4768K2877p552m2869
102887A594467m7949k7618k2884n0770q1136q6261p8775p7400o6871k6070K4991M4713K8130J1327J9877M3996O6873
102870A268640Q7244J04891J09515R7930Q2639O8813M0671r552n2795n0794j1606R320k4744q4558j11856q9870n3008
102853A380880l2972k5763j8500j8179l3615n0364m9129l6116l0160l0211k2714j3446j9908l3150k1431J9379M9506
102836A014107L4238j3256n1923n5538k3171L0396P6169Q1484M2178m226j5146J2263M3667M5943J2848l6379p0885
102819A122769o9394m0089j3558q838j6265k0141k2610l2565m4813m6138l3471j3906L993R242p296l4699m2515j5637
102801F74069K4022M6838N2198N6782O1440N5941M6597M9436N7942M6363R257k7161m0736l8663l6414k9662l291
102784A004958M0702P9219R1426P7646N2959K6814m455m2033o8405n8925j0916M9315R1148J01599Q3887N1287K5429
102767A591655K0492K2165L593l0031m0719j5846N612q476k9389j0219M0222P1943P0152O8405Q6239J01198R3111
102750B040107P5367O5880N9366M5860L1585K7414L7902O9550J24216J76789J89817J63027J38119J39126J40137
102735C524262J13996Q1949Q3716J19616J54843J68153J66425J58831J43937J20325Q9952N3760J8967L523J6767
102720E019022M2451N6435N3825M4781L5034K8760L8902P1559J07328J22284J24192J44838J97535K64689L27925
102705F679560L86585M40248M73762M70549M28768L59094K78993K11644J72691J49223J06649K8081o4019j37050
102691I984778j89148k45785l20487l97073m55570n01203n54307o16269o61321o67685o44713o16577n85887n31449
102677B997304m44266l48695k78163k40747k18597j92865j58492j20841q8979o9789o1207n4258m6027m3164m6598
102662E84616m2849k0826J1068L5480M5574M2037K0826j7925n4176o1549l8238q408R024J7640K7140L6145L7994
102645F23573L0155J0218k5068o6261q6719o6643k0344J2869R612j2511j7451M563K4729J2411k5604n5087n8691
102628B93751n1773n0677m5745j9649K1497N2539N7246L7358J743l6770n9269n3644k9319n985R241J9503J8966l805
102610A55208m2000o8748o5354l9686j3032J625P426J8442M3949O9306O1693J0945m4646n6219k3133J1217J8948
102593D5941J2579Q153r45j8568k4586k063L3420N2087M4169K0704m977k2039k3867j9883k9995n2316n4879j8768
102575e5833K7474M0079J4608j5013k2303r760Q063J9176J4674m827k4229l0331k8351k8254k4737r463P312J0554
102557a11161P804J6980L2224L0173R950j153J3331L8441N1885M7629L0857R882k501O20N739m284j8231p940K3624
102538A73869L6451Q999k7452k8773P555M5567N2238K1468k6755n7182m6130j1333K169k1781m9408m6834k5240j3343
102520e915r159Q395L5336M4743K7310Q54j7076k1178q881J4728K7493J3026j1200j6758j0005k0704m5745m4682k354
102501d1772M1918M7844K5988J1657J1735O271j2666l2137m1841m4554m6706n3557o6871p3733m9248J0323O6943
102484b40406P7643M8561K6835L6094M6552K1997k5099m8866l2578j0560j9359m4983l9131J4477P1678P8089L3932
102467e124j0044j5153Q700K9833L4198K7468J6799O466J013j43l073n759L418K3575L3338J9901M78m431m103j8871
102447A38486m0345m1511k2043j0109j5705j5468M793K2995J5272n505q307J2817L3971L0905j369m8061p9055o5327
102429i3566q796N1196P6843P0341N9221N4173M2885K0099j409j3235k3906m1057n5831n3904l3132m951J4777J5160
102411G4908k16j2695q250K189m543k9960m9708m8434m0391m3895n1647m4008k1646n186m864p644L500L0149O1055
102392b01286Q3472Q8143P1802M0791Q437j4577k5777k7503k2008j1019K339J1753Q719r626l1348l5842j5811J2716
102374f6625L0122L5566L7880L1924M516l4372m7736j1106N5653J06704J11883P2585R275n1687q6148q5091o1990
102357E1353l8440k3276j2931o887r403j6601j5502Q2K1679L7077M1573L6735K6233J5414P854O35j0546k2702l0928
102338E1419l9841n4927o1999l5553K2372O9670O8033K8792l328n570L736O2j4459k0784j1372K353N550m036j3620
102319a3502p019J7810M2777M6302K5981m46j5355j4974n145M750J877k2115n5293o8362m5247n268J6506R010m869
102300i2582J792K9243N3240N1568K4400q771k8874l3663l4816l9732m0324k3542R315L9405M7788L3337J2834N476
102282F094J7297L8102N2093N1693M0797K5745P637j4099l5336m9785n4894m9845l2221n829J2119O539j0644p942
102264b479K4003N3799M8204J7525J95Q326J5595K043j7456k2501j9911k5523l0941j5007J9984M8577N5261M5034
102246B04728K4438l372k5176k5606j2255p616j2177m607J4365J4076j2895k6599J393L6741K9775r127k8397j6041
102228A41648r283k4202k9786p125J3414P85k7353l4500j7368K391J6176K5814K0350q824l8159l2213O349L6716
102210C4830L3412J3463L942P295J0889J0884R945L245j5622l8104m3580k1649J5125M3472N1237M4432L5079K8016
102192B26311K2027J7078J2236J411j6153k3208J17M3404O6795M6894Q183n734J8207N5996P9709P9620N9668K9740
102174G22301K460j5921l0863m6097n0955l5422j2598q114k6670m4809l9758j3553J3732K5411K2026K0451L6122
102157E17743O0906O8269M9131K7862K6603L0119J1093k2665l8180k7971j5676j1612k52K0734K6234M208k0784k2672
102139F83090o643R117J7426J1347k0518o5471q2688n5974k5505l5268p0596q2946n9126k7500p304P575J8676J6110
102121B23802M354J224O729K987j1268j6745r417q602j9610j9107O322L2348K6591j1055n3427p7069p5209n3142
102103e0294k4113j400J3042K4201K7814J4059j0120k0841n477K4594N1835O4257M9807O887l4673l6063n471L196
102085I1240l2386o3459m0496R022J8507j9720m3828q604O0951J10040J13175Q1290L8640P797j644k026j2643l1730
102067B74126l8982k6962r168O020K4444M1333L4451j461l6265m2481l4763m5722p2151p4287l1030K7586N3629L3251
102049H1568o264l3379m2006m2762l7461j5736K3588O1744P9521P8689P2503O1981L7911N127j3256j995K8211N4905
102031C92889O5746O0641M2842J7286p881k5822l5906m2314m9845n8466n7236l0397J9529O1606O6412M2933K6099
102014D88116K9137L1598J6940n144k1971l5533m2770k5581J8874O0447P1034N7566L8532J1771k4409m0624p867
101997F20116N0852Q1209O7576M4295L7011L3620K2000J6820K9713M3297L6643J5095l853j6248k6941l5734m2863
101980I72608n2807o0541n2154l2259l0246o0736r5892r8663o9733l9044k1328m332K2595M9514N8170M2468J7500
101963E45120J2558M5413R6184J20114R6702N1364J6508q862m1190p3792q5268p5368o2398n0002k5841P629K9630
101946E98501L1757K7453K6419K2577J2440K801o259k4533n0315o5836o1843m7947l2433j3503J374p762m2466p3574
101928B96851p7857o8405o9008p5726o8110m5788k6444j3024R526M3100O6607O5441N1639M2811L4294P695l6255
101911A37347o6852n1795N379O1083O9559K6724k6126m3687j9189J4793K2576j823l4543m8388l7387j7017m389l692
101893a7427j0825k1829k9444k1449L715K6152K6210J2905J0275J7175P378k3997m4155l0594r488j8432m7790n2448
101875b24068j7303K0880K3211l952k2431p590L0159N9802N8077K9122j27p729J596P818K440p828j8885l2678m1527
101856a51013k8101R972M9100O4184N5503M1675L3136K3813O792j1653j7317n172J1648J4731N050P322L8767P7532
101838B25969P9113K9039l5213o4160m8010j8653r149k3903m4121m8949l0282L111L2297M3935M1494L8957M4668
101821B16143N3636N2387K8645j6746o0298o6006j9958M5407P6670N4539J2226p056J708J0266j187k4208m0324m2073
101803B73771l3838k5194k6628l9941n0146m0172j7083p608k0856l4557l0965k5669l8252n0956k8371K7063P1665
101786i7737P5699N2843K8801J0880Q22P785K8491L8467K5137R003Q981Q399j5270m5817n0464l5543l8246o3140
101768e0909o9588l4653Q953K0244P577J1032M2504P0883O3385K1618k5061m9198m5437k8658j5965j0730n241M295
101750h4949J2012J0581j712k0942l8168m3892m0247m2303n4879n6186k3501K9968O6374O9225N2814K7167j2921
101733a51559n5724o6046l2305Q341J7721O528R129K8876M0793L5297K5516J7305L527j3164j9353j3144l612J0249
101715a51625L5057N8974N9532L7791J8189J0902J735j4594k0161m867J3454J3954l173k8876n7764p4713n5003Q22
101697a60366N2914O5650M8040K9697J7018J251q384L363K1225J3393j7012l0746r737J8831K8958L3342N1923O9090
101679B28450N2874M350m0587n5431m6912l5576l2270l6074l9023k8971j435K7150L0451K488l2476m5026k7321P509
101661f7830M0005N1777L2764m124k3799k723L8601N3285K2887j9226k7624L079L7771M5487K9359J2064O324P543
101643B35620N955n559l2131p2062j07285j09891o9695j2879J8048O564k2806l5352k3309l663J3061L4610O4304
101626a16470Q2740O6806K2550j5050j8977J589J5981R852m81P698L3541N4746N5959M3330K7460M498l3437p6079
101608A66256r9801r4998p3726m7802j6242J8734M1222M1055K9502J9505L949k4554m3222j8914M0915Q6830Q6594
101591A15303O0347M2481L2178M844m2151q1380q9089o6670l0115L821K0113J1842j0170k5287k5384k1184k4219
101574a24720l0914k7840p263K3881M7283M9091L7073L3945M4762M3209Q486l4891m2455j2675R301o40j0027J5925
101556B1531N5737O1895L0329K41p250r497j9118k1066p729k801k5494n3627m9590j1146K7933M1358L3131J9970
101538H4807J1233Q647J0496J0778L181j0963k3902k9948k7968j9188q972n885j1233j5220j2623j4680l2189n2926
101520a36555n2811k7587L564K5395L9352M6780L9467J5390j1864k9048l6087l5193k0893Q694M1592O2205O2442
101503e157L8465o927n0528n8910k9254j313p807l0675l2831j6156j1856k2626j8246O896J6143j0914l9211k5753
101485c06660J9515N1030M8523L0110J6132J1132J7023L4111M6849L4108o39k9174l2800j8221L054K8476N0035M9682
101467E2286K4826J090R95J1545K670k8172n0368m0801j3758k113j7037l5828l0659l933J2475l654l4584m2602j6286
101448b13908J8903L6435L5462K5174M972k2600l6842k0764J0616K6694K0571R780L048o980j7929j3701O686K3488
101430a10895K9916M3589O7976P0896K8905k7359m5685k0182O420N138q772j3124j3513k3495l3985k5556pK0787
101412d8946K3324J4511P090N674P359O298l061j9289k9886k1904R68J9257J9352Q545L214P292J1042R495J0753
101393C1088K0664K8123J6321j3815m0717m3436j9997J2906L0599J5608k3658n0364l3067J3782M0448J9712k4395
101376b0198n3822n9106m9232k4627J2057L7283L3116K1376L4885O0542N2528N708k7040o636L9210N6812L2140p249
101358A37747l2580l3284j5380j533j4805m3817m5787n676L1859J8311l1475o0730m3369j375L6007N2816L7214n573
101340b1430l4432j0014M4611O2302J9607l3355m3752j7946O137J2266O372o698j9583j8127n009n548k6013l0542
101322a21154J0136O7830Q9550O6513L4787J8148R703O649K0807M5513M8135J2591l5703o2850o3819n3070l8423
101305E5343k2341j3201j4992j5000m40J8224J8914K045m047K1835O3859Q3781O2660J9635j3913l1356n0071p3932
101287A07003p5060k9040M1952Q4245P1849L0051m718k5827m4533n7814n1613k7622m583O565J1893J8855K6994L4811
101269A13408L9769K9299r484o2920r0947o8935j8650J7803K7076L0279M3897N6536N0339K8091O707n991j4600k1111
101251A50566k0168j0521r51j81n991q294o01J3930K6195K9022K2010R842k421j0746j0793j028J1276J4113N923R19
101231B12101J2058L3025M5163L8339J6241j3460m0944n0607l4694j2534j5294m3168n7949l2971P762K1356L016
101214H7440j5364j6579j6677k7852l2959j3637J6190K5291M153k7199m4047l6131q309K3093L7448K7357Q928L432
101196e422J0188J0502j997j0858j521J8578L4327M4139N1260M2569q41o6637j04946p7286n538M5906L8475n219
101178A5679l8334m2812l0369p784K9201O8509P9581N2100J3750q101k1846m5651o4991n0372r387J7732J8697K6711
101160B313O1512Q7950O2187l013n0828m7253q475L0354M6606L4657N645j5602j4659q408k1677m6661n2420l5010
101142B7218k6155m2827n9750m9990k5557j2860q269J1700M5410O0536L4900j6502n7859o3035l1084J4704M1876
101125a57544L3844L565k1033k3103p137Q893Q670m666l428L4597Q5386R2917M0610j6983k0580J7753M0311K8553
101107A40625J5931J9844J2114k7075o8332p2622m3162j2348J332q53j6016l7528m7689l6863k0997j9202k3723j4378
101089b50942N808J4907Q447N530J6058K5907K3144J9290L0659N0345N3573K7869j2297m1199m5865l2699j5026L43
101071a16148J3116K1668K1641J1812l799j9590l0303l1908k6784k4409k8200k5820n487K0528K4928l49l3978n0922
101053b84004m1621n724M8963R4163R4564N0341N577l217J2756K4159K9481M2839N4095L7906k656l4883m0621l3859
101035D8259l1044l0125k5654k1339j8461j0361K705R504P077R516K7106M6291M0186k491n9580q5844n1508J9928
101017a25835O4416M4241q751l6343k6761j5146k1692k8666k0668p245N575K8104N4030N1286J0506k9816l5845k6663
100999a25273l4483m2805j1176N0487Q2889N7733J3967r13J0086J5369Q235P586J6755J2150k1607o3819p6817m7310
100981a48946L39L2224L8435L3658L0522K4173M416k8334o4164r0628r2828n9066J628N6480P7628O9490N5914M5936
100963a3123K7844m691l7029m8172l0900L961L3791L5778O531k6227k4743J8469P0068R1601P6829M6771J7911j0534
100945B34135m0691o2448o3109m4297k0949l994R080K3270L2086K3656K26j8537j6692Q87J8400K8355L1835K6509
100927A57722R028j1406j7045n055M350q140l5912n4009m7172k2301L143J5249Q213j2955l0949k8365q952J712j2866
100908i5710l4013k6145J9529P3161J01094R8906Q3397O6091M7303K6475L370k5068n4733o7493n1937k7385k6519
100891A10323n2579p4383o8286m3401j6848J1709M2747N4135K3039l5768p7907p7292m8582k0191k212J2624L0086
100874b32786M7235N7956N7400M3345J9457l020j2127p192j788r013k2744k1234M787L5685M5932L7424L3468M1710
100856A14495M3245K3271p456l1402m6331n5535n2275l0950k310J9133L3848M7965N4512M1852J5061p472j5222j0842
100838A33587j064M802l513k1820k7660j0025P410n274m0775o3825n7684l4920o639K7773N8603O5483M7294K4888
100820I6641O353k0812n2391n6583k2279J0706r31m5605p5865p1273m9853k4719J3568O4361R6661P9793K1229l9792
100802g0791o9873o5082m4455k9676k8082k7524q264L3501P3126P6232L5311j7995m5544m3056l5711l7330l4958
100785c40171j9222m458o76J2352N4341J01805J10479P6937M3429L7761M1960L1318J3228Q850J8859K6496J9775j967
100767B31096k9033m1214k5849k645o239l5758n1678l5817j9009k6784l5004j4639J1529K770k9719l6276l291L2635
100749a14925M3146L6686K5711Q036j0177j1078K838O106r088k1532k0825k4162l8743m3041k6646j5322k8973m3323
100731b85312k5849J2459L5816L7620L9041M3852L3987J0040j228J0179J8007K7k4896k0973J5731N3005O2207M4736
100713E8449J8520n355k4500l5233l4727l0276l2428l6702k6675k525R947m950k1018P71N4566Q7895O3819J690n3803
100694a2535q1630q7400p8111n7167l4452j9622q684P193K3786K9461K4494J9836J9423J8223J6084J9592L0288M2835
100676a28386N3184N7121M4942J3760j6415j7630J0746L7721L7468J5766p064k3951l9614n2812n5282m4696k8323
100659a43465j6205j7064l4315n6464n7954k3548K9337O5390O9346N6921M6970L9232K7971K1435L0045M2568L3898
100642A14098j908m1936o1610n8432m4583l0632k4375l1215m3189l8736p177L4959O4692P8906Q4149P3397L8602r6
100624A04914q354J5537L5495K6665K346j8450m0137o7108p7976n2481p940K0175K3522J9261J3047l709k2347j7235
100606e4775J4779M3744M6681L3275J8075q067n6042j04412j14725p8264k6578O807J8746K5161L1675K8473J0860
100589a64587p880j0760J160J0531P369J05k329p985k8217n2476n4349k5397J1059K6219J5641k717j0050J728L0426
100570b62509O3229P9699O7864L9125J7934J2916O798j7057m4601m2408k761L7383L6390j351l3460l5735k6749k9965
100552a35258l7003k7676p563N52o610j1099n156J454N818J7379L3512L5064J7609N358J8401M2311M7374K7311L276
100533B5054l793P682K2703K1773l360l6623m7172k2133J5974L4314K6945J6649K2779L7760L7625J1545k1707l1109
100515A14906j1411M188j6147n5751o5656l0805Q221J3677L089J6551N0814O0840K3361l1599n7788l9634K335L4175
100497B3366L1896L16k4682q290M0760P2904N1048r802o3386q0705o6832l9517q436K2153M2838M2280K1884R2n202
100478D2685K360K292j5125l5080l7420k0994j434P517K490j0909j8099l740K7138M5431L1092J458j2581j0815j9207
100459b2941m3708n8155m5649k4858j9772k4201j5405J1158M0212O0882P3889P8593O9903M9351K7823J4400Q039Q34
100441A80395j2992k8676l0900r946J8992K3789q156m9756o1872l6183M26K0440K2479K3340L3796M5863M0003N358
100423A76400m3461p3574o5161l3155r396n347l435J3740L8483M9758M1147K5950J6557Q883r128l9066o7022p5804
100405e3631n9824k8813Q50J8185K2026J4809m433l5465o5695p3326m9440j1478J5029K4117K7395K8922K0683N411
100387b04678K701K1192M1974M4283L2520K1012Q142j0209j3910K2407Q4101J20366J00774M4231j5075o4511j02857
100370A32463j18202r8854n4901j0737J7371K4781R911k2165n2807o0194l6939O456M8799O5554M2794m750l8785
100353a50205l2599M109M2071O3959P0415O7078N9616N3676M7041K9103n78k3108k3662j3736j2445j4526P21L1234
100335A98164M5644J9730l6406r0970j16242j00188m9645J0129N0455O2060N7869N2448M7687L9357K5715N983j8612
100318B03178l8417m1370l0562k3766k7335k2242J0628N7848Q1892O3649K4108k375p982j4488l8934o8448p5998
100301D9386n3597j8644J0730L3120N2194N9833M2947L772l5814n1276l4461N35K7168K7453Q856k988P836L1454
100283A58504M6775M4324K9074R090r390k1351k7071l3353m3260m8772m1049k3593p904o89k098j0289j9827k2171
100265b3050j6445j2695j5280j2134O553K7564K9540J4688Q098K4479M9993O0065M4335J1490k1784m3526n2323n0754
100247B8814l4905j365L2551L4578j535l6440k8014J5930M9607M5874J7070j4202l6562m1931k5019J094J0679n118
100229A1106l1015n2224o5553o2860k9173L0816Q4036J00139P8645L9105R82k1012k2591k1267m2206p9790r2253
100212a75115n1317J7458O0518N1763Q452l6053n8833n4746l4260j3465J705J8232M0143N9124O5661N8814L9407N856
100194C344l5082o4134o4940l7396O129M6897O2679M2991O692j2999o418P667J7713L3588N5861O0533L4242P10j1275
100175A46802p435j2316l0438m7069n4104n1729l6503j1073N247j700j8958k7562l1892m3026m7231k2862J9577M7649
100157b24623N4553O3600Q3311R0446O7184K8740J386q518j2801k2642l8944n1578m6207k2116n83j611j5953j6979
100139g3335K841K6060L8451M2313M1328L2911J8458K991j6846m6052p1857p1565m3126r274J1718K1478K7136L1794
100121c4576M0509N3894N4215K2417k7263n5889m9618l3986l0254k7687j4633o970k1040l9779l2832K307M1437O4820
100103i4928O6262M2308l024m6286n8955l6741k477J9936K5005K1843K0606K2272J7822Q46j9100k5835k0380j9883
100085i0709k8320k8107j1500Q46q676k2605j2708J5194K8029J3273o682j0320k803K060N290J4483K4839K4265J3374
100066h0777O487R539P041j8043n3222o0400k1886K8344L9251O256k3084j1483K5429N2104O2351O9687O7167L3080
100048A37841k4996o4770n8656k6857q708j6155k8193k1401O306L7916N4338N0156L5889K3694J3015l197k0342k2544
100030F3336n016J5826K3018K0551K2284K5506J2391j9495m3916l4685L26K6716K1702p727m1907o6275o9049m1759
100012i8173N208M2830N4193N1612M8009L0591j0509m4766l2797Q708J8080k6314p4819p8240m9591k6522j0612J5838
99994a77274M1046L9346K0191J4550J9229J493m0057o5464n3869l1226k0801n284L5971Q1789R2175O0141J5866r290
99976A8532m121K3753N0692M9241J6552j7917k8078k2099k0173j7576K364K7784K4742j1697m2543l4164j313J4834
99958B8813k538l2927m7476l5545o719J9803K7201J2559j0397k4669k6150k2057j5444l79K3728M0695K9779j0326
99940e2049n5800p8562o8901l5545R610N7063R0826Q7748L8185l3721q1784p7312l5043M369J5640P157m43k514p763
99921b18839j3825l398K7701N2550M0176k908l6017l3438j4750j5906m1993o3508n3926j5547L0899O7048Q4090Q2848
99903a28743P3620O6512N6481K8824j3469m1282l2164k507J0258o615l0845l9074l1819k1224j3421j1467j8536k6483
99885a81954j6615J3443L6321K5342j0780m0559m8038l9341j9616J0924L9379M5891L3614K9543M5721O1417N7055
99868D1747M4647M5261N2663M3366J3946j5732l2962m1976m1823j9856K1316N0203L9000J182k2240j2285R697J6983
99850A93137J2189J3375J8492O539k6049n2967n1592l1389j5407q777l703k979j4921l1244l4725k6829k2746j9220
99832i8816L477M1311N9383M0492J4210J5907L7005L9955R155l5645o7543p4385o0360m2354l6572l5301j0453M3533
99814a57001Q7616Q1810L5486j2306m6433p4882q6483n5179Q603N2165M1764n04l4319m5972m0104j6946J8840M8909
99796a94936O3454P3728Q2000O2383J527n9777o3753j0050M1799M7085K1147J697k536n631r515k281J5607K6431
99778H8379J8514o25j7236k5228k2848p526J6617L3283K7770N415j3095j5783j0446r712j5044k1789l1483m8167
99760d9004o5176o6096m1216J717M3371O5815O2107L9805J6139N178Q095J6619K2934K3182J5020k618k7840n5398
99742A2634p4960p0571l2435K4679O4314N9983J9851k5214m9331m1390l075M6036P2298N7829K2798J013l55K547N254
99723I1905J8258L6155L4884Q592j7511k3828k2145k9679l8818l1827r849J1199K1346J7853q4k0635j7881J7550
99705D5485N6688O3301L8988J4656L545j0560l8476o6400p9182p9360p0810m3147Q942O2116Q0806N7126K0786O081
99687G0585J7720L2443K7700L600j9553k0429M662L6867M9664L5029J5039J9318M8449P0253N9547L0963J9210L3763
99669E34830M9493M0025L433m5895r2593j20979j16682q0014l1322M212J4014K406j1946n071K8887O0612N0772n48
99651B83634m7395n0676j9821R705K1427K2070J6029m33k3401l8952l8727k8915k4244l5710n7018o2520l3480J0434
99633i7993K7221Q324p765O549K5219J0595k7274m8713m3228l0036j2323K3122O2672O9399L9151J2062J3633K1528
99615E2143R021j3470k4097k6699l3886l5725j5901J5295L2213K9202K0875J4837P380J924R089K7350M0101L4397
99597A44049J2451j3827l0922l0481j7128n419k105J293J1406J9677J6309N715n217k2687n3038q3114r1117p1804
99579b15959l6892M20K5452J9831j5615m3269k2755L6884Q4446Q7729O2195L6119J6448n41j1618j5350j7718j5022
99561b5215P883M6623O6433M3168k096l0916l3587k4399q208J7376L7301L1447R886K944J3422J1404j5266l8023
99543A10177l0856q277J454j550J153R949Q561n384j6235j5255q851j786Q864K0397K2403J3196M474L051l41j5709
99523I9435l5160l9796k4122o152q060k6954l2228r55M7770O8933M4811M448j7531k0193j8255q183J7685L7910K1291
99504A04694k2555m9682m4788l9748n5358o3001l0849K2033N1806M9948M1185L4255J4466j5757k7312p060J8547
99487a9176J8754k071j7111j5371r000q366o971N920K7499M2781M1288K7154J1219j113p495M27K8696O2029P0960
99468B50053M7886J9488Q828J940k5213n9741o3767l1506j253j411j4854j4459q395k3042n5095p0704n1080j4491
99450a06816J2373K5598L7191N2019O5763P8339R2803R9574P6812J8092m6468p1534m3370L513K1977k476m6938q0657
99432A85795q6845o3025j9584J9255L0253J5799K231M705N366k0260o3298q6030o6981k5498M968J5055J9337K6624
99414a02133K7463J3306o350j4711p012J0612L4441O1883P9834P1066L7907P389M485K6749N0520N4605L3791n76
99396C83269k6056k5915j0500j2191m6417q6033q9708n1083m063J8688J6418Q181N427L825n255k0791k8883j6496
99378A2417Q865K2248J2861K112J4791M0659M6437K4425N828J8730N1091O5821M1798o694m2078l2940J6303O3448
99360C66122P0551M8948M3118O6517P9462M4786j8903o2859o9509n9075m4413j4377L1223O0653M6086O324r790J7279
99342F02143N3175N2552J4359k0015j9546L902K1612K9087M3852P0324Q6970P0618K0128m5608j00682j22493j03842
99325F56536o0234j5603K0441N1012P1540P0496N2719M0255M1576M0055K4657J1767J9292L5355L4053J2369r267
99308A097019j7646j8445j8549j4065L49J9791K9715J6263j7972m5366l3408J5518N5458M3393j2184o2978p4236
99291I62657n0610j5182J6120L6485M1899L2498J4871n77m205N454J4205J107l4777o3203n0619L158O3756R2091
99273A065128O9475O256o0233q7153o4080k3970k216L988J6099K8919J7662j3728k8409j0181J0797K221k6004m2312
99255H62259l9445l6747m7335o3750p1850o3459l8473p007J3282J2292j454j0928q058L238J4189J5729M086j1508
99237E25061j5882r879j3594l6480n6513m7178j8410r417l8713p8985q8753n7397j1466J5694J3774L02J168K3260
99219I6592M4023L3219j1742n7501o6632l4389J0722L8544M2527L5847L1801L1067K2609m898m6054p1508n0433Q524
99201E2318M9811K5669m2268p9602m7055R717J7065l5118q4608p4913j5866L8978N4051L9116K7862M1023O5783O6948
99183A08911K4144m0843q2325p6818m0796l942J8747K5127J6705L007k36R004J2465k619k4050l5199m0667n0878
99165a80263n2379k1064L5894P7224P4172M1172J1990J113j589j0518k9526m9292n1470k3405K3412N6655N3349K2702
99147b1823o681j6463r549J620Q210Q800P755R754J2311O620j0131k7143l0989k2212j4632j8017k6573k6154r851
99128a85148J5238L5664M4261M3651L7930K5761N886j4549k4311j9345l731J6966L4590L5681J5272p583o622J5296
99110F4907K6639J1664q065j0862r857k6313m6753l9433n163K1915K3371J4102P289n184k6501l9430l4006k6131
99092a07811k9686l1363j3939J2971K7345K6065K0126J0821o185k0852j5615J0468M1370O3585P1260N9557L0190k237
99074A46070k5287m2551n7592n7061l1868l558j826k1909l2773k3382j0162j13J8543M3116M8765K7228K884o659
99056b8135j8525n1493q6724q6937m3363J6639O1712Q0677Q0082P0176N2489J9803k4820n4292m1856P0K7607J7132
99038i758j2630l4651m3140m0597k4877m416L3j4892k9083l5610n0621o9065n1957R500N6554L5965j9128l4311R50
99019c71734L1862L1104K8813M4156M8706K0431j4353k1233m077J4718K9205L8749K9457l075l1396k5390P741L6232
99001a10084M6331M9499N3784N1044L4243J2076J109Q538K3629K5835N494k3833m0002l6899k4929j0899O956K3900
98983I5792K6467J0362j3125l1561l8107k4130J4208N6674O7597L5206j2724m0594l7167j1172K3142M4480L0922
98966A96270j3035n0555n1808k7963j0397q600p302M350K0978L3381L5121K0169r416l4627l4624j3269K087o929
98948D3831k6908k8097O04L7071M8395K6815j960r199N569K1348K4505J5856m465l7503o9834p9372o3889m5747m1205
98929a84185m2174l4894j7428R662M7940Q3570Q7651N3756J8035J9018M7493N7455K2354l5629o9564n1585O58L5044
98911D7177J3946m1901p5126o3339m2689m4647m2232O257Q1886J18431Q7395L0264P42Q413K9034M0572L3180N793
98893A93156k9115n0447n1756m9540n8250o7394n5311j9498J7779L2943K4216J1501J4976L3427M5738L5908J1616
98876C9949p304j2722j0886n479Q330K9879M3365L0620o740m1617m3610j2260J6162P437k5541l4805j341L3959K1360
98857B8756l1740p1022o4339l3254j3459r830l564J3540L0479L8151M3265N5449O7554N8932K0698l0484p0719r2335
98839f3922r7189p7238k6167L1466N2739K8566k673p725J629J41p381l792M95j7535m7681n0740q880N4068J01163
98820a40656J08776P0895N359m6039n1758k7535j5875k8468l4380p283M1557Q1985R2933O7160J2128m5824p7747
98803E228p9671o9631n8043m0550j7988J055J7950L9027N2725M0552J2692p1M021q015m7622p9007p0037l6565j0728
98784c44678P123L4801O7718Q4125P8882O4013M3939J5508j2857k5370k0933j3081r126l550R592K8557M5034M6080
98766I5777K2820j4078l7016k9854n150J5364K5398K8301K1075J441j8274k2118j0776L098J4394K5367K9793J3941
98748A59503k3414o2237p7156n9494k3616O668J8985J9253J7422J4345R918J2534K3503K1541j2955o2023q6201p6660
98730a80084o0664n1323k8043J9904O5474Q0441P0408N1857K3514j4638m2113m6298m4258m6980l0293K1761P0846
98713a40489O7571K4508n86J4724L9602M6421L7149J2943l2816q0111q5405l8342J8103M1289L3882K1043J2597O357
98695a560L984L887l674j9921l2721l6806l8031l0588J925M9996P2784N0134J4105M005J3048R160r571j5833k573
98676C1750L353j7358m6716n2692k8889j504o25k6674m4325j5933N3374J11787J11245N6051p576m2577m8325m1830
98658g464k9572n090L2982O8312P5464M4204m986l6746l6347k3184k3856l8625m3605k3221R230K5787J3729j2014
98640a5002k5908j8714l820K920J989L679J0905J8807K5709L1752L0208J4300r465k8976m3949n8192n9297l1908P292
98621a47670J8976l122j6168J2171N5269O6202M3009K0921J2852k383l2188m8312k6504J7794M9446N2804L7364J8149
98603A28610N434N696J8178L1798L4242K4314J0682p59j3979l5421n9963o8250m5183k396K7237K4005K415r524k330
98584G4806J4066L0069L9319K9732n664m8990o9479n8676l6005j8235m809L695l49r051J320L0151L8495J333m7917
98565c6189n7497k6474L238J4702L1126N8579N9954R845n7222q4013n7637j2395J9986L4376L4172J9124m656k2625
98547g3606k5583j4563O755L1521M4835L6335J8068J3674K7534L9516L2669J0919j3883l6274n2332n4871m1854k0586
98529g1726L55J4796J6734R277J2378L8825O2620M2240j5435m8814k0062L1535M4375J5438j1572j7986k2895l2540
98511D7543k7144m073J0977R398J4884L3733K9401k2543q3960r5681n2730l096J8919K3235K8456K9038J0664k0941
98493e3920m1774l5201q936J3676J9833K2750M2164O9255O8100K1293m3338q6838j02322j02207p9743j9018N9542
98476b56684J01738Q1154L1893M236Q339J9054J8446J0900N069K478L049O731R260P385P571J9071L8231M9042M0359
98457B07322J5078j7600m9627p1077o8767l7149R493M1976L9607J1260j0360j320K7509M4001L4141J6782J4159K0219
98439B25647J1316j8112m6556n2726l9081k4473k2591l1734l8861l1187j0792R46j6537n4036p4452n3270j0528R181
98421b77846j2438m6398m9130j0131L8103N6889M3345K9789M0194N7028M3694l627m4534m1440k447L5027N0438N1464
98403d2020M6337K8714m023l5068m3266k6369J11K2627L8663M6448L5054o112o5894j07343r7518m4233P489K2381
98385b24022R169m98M471R078M442M641K5815O1490Q5844P6361L2697k1209n5836o3033n8651n2462l0549J4561N1789
98366a25902M1350o442l6240j7753K0604L8520L2679K2324J5679J3793K3729M2387M6190K2159p358j5776j1828k0808
98348G7307m0829m8190l7136k4427j9722j8345j8616k0719j4018Q420K8859K6200J2069J5032L3320L7101J7830O51
98330A4787L091J3699J8187J6048M708k1743n0226n5874l9238k4891j7337K970K9452K0996l3039q1972q0286m8975
98312c29643l3784l4310j9191J0767K3599J1228l24N319J7790K7996M0420N2824N1073L0539L219j7822k4377q840
98294a93517K4321M8192L8896Q260j2755j8372k7720m3693m5731k8500j4880j8678k2319o255K2776M7432O2417O6537
98276a13589N3194K6964J1513K0197L2484K1000q299k5588k0606j2750j7282k4319j9871r997q769j0809N837M5624
98258e5066P8119O7866J8492k7504l7683k5466k6019m6719n9818m2797o988K1155L2951L9337M6970M6342K6229p607
98240D1794l4163l7301k0218K085J9969L2123L5277K3912L081j1745j3894j1560p992O017K5691J9615k8975q1666
98222c7950q1332k8211J6423J1555j3133p548K7377M8323L3540N965m909K784J3108J7523J9751K4204K7985K3447
98204I8902P527j0494j4215K223K4266L0125J2136j8888m6670o0179n4448l0921k36K1751K6088J7525P025M5l907
98185G655k541R851K9835L9704K6269J754r557p688k0120n6526q0970n5512j587J5808k9264q7253r5346n2265p596
98166c75349P497Q908K1174L8947L9016J5333j2418k1190o657J5790K6632J9111M556K305K2190N4388P6161P1230
98148G624M5535K2331J6994J7354l011m7810q3257p2222k1252K0767J6929j7201l9325l5675k7968k6444p371M3148
98130a90854Q6981P1630M968m4689l2533J0896K8930R678j9928m6740p7809j01787q6223k5041M1086O9493O2783
98113b39159N5352O5194P5698O1101J7768l1435n9453n9960m7722l3888j1057K7271O2725O7446M2290J9147J9751
98096C1069L0011K4907M180j0472o456M360J645j8117l5520k9835n910R862M920k630M149Q407j6037n6494o8987
98077a26948l5185J7863N9266Q3739Q9697O2645L246n3301p2233n8201l9108k8012k2534k4443l2887l0045j257L6867
98059a70831N3573M4492L1340K5240J5401n755l0132m9686o3411o5044m4815j0278J3404J4028Q847K0060M4164N6073
98041a13330L8397o57l5735m7312l8128k6830k4171k1866j0837q39p663k6097l3879k3703j3406j7550k3772q370
98023d35748L2615P6783R4948P2604K0280k9571m3395j6464J9101K6142L219j5754m850K3158L8832L7479L9043M9085
98005a2493M5469J5606j5640j7798L00N286r176j7801j0965j1675l4078n5892n1545k9667j6732k0241k6674k1728
97987b85444K515M3748P8129P3762L4574Q643K8464O3549O1036J4844l7800p1910q8756q5847n5520j2514J5292K6311
97969a86924M1396O0109N8382L4036J5043J2524M737j6963k5186k185K5621K7320J4593J8055L6386M1396K2393l773
97951A76960k1832l3022m3099n4666o9943q5316q4625n2855J509M7209N6145K7345j0918k2317N093M3914N2905K0571
97933d6942k4753m8107l8987q991K5795N4892P7656R9494J14024R6459L5549l4514o3826m8022k6795j9995p952J3595
97915A48580R145l6102p4359n5479J228L8029L6979K2413O705j5112k8226r401K4378K8178l307k5811j3699N613K046
97896F1798j3175j8235k1250l9416o0458n5968k2337J6061L8741M6263M9353N3657N3151L3657r684n5079o6515l0667
97878d0103K8637P7090R7942Q9128N1829l231n0305o6686n3956l2573j8922j3253m984J4933M1502N3183K9975k2343
97860A77863p3177r4424q0389m3475k893K3281L0644L4944N0698O3855M7257O158j8967o867J3232L799k9318n0887
97842E1334m5577k7892j3962q465j2096j7723n251L3927P0424O2629J2377l1097l1495p486k189k8366n9249o2566
97824a22723k9211K5475P5916J03054J04931R1632O9451L5845q008m8213o8780o7126n3705l9500k8156j7135k405
97807B1342J5756K8850K5588M880j9484l0508k2050L35K7033M7505N1055L4305Q855o867p806r084k7396n8609q0071
97788C629p4392m5073q021K5670N4481P8295R0593P9058L5473k8782p7530p3649j8950L8569N1971K5505J766K322
97770A60935L642k1446o0435p5803n0527k504L8313N1337L0807j1162m6625n3008l6872k6447l7999n8461o2900m0116
97752b99271L33L6231M4998J9394k1214m1988k3204K1679O1651P7874P3619N8693L2999q984n9039q9155p4785k5649
97734b15818J6854K0781l907k2249j6978j784M832K824L240R394J3378O643r855k2698j4138J9266N5989O7115M7076
97715d0035J8692N828J1134K3344L4017L9758L7984K9402J7798J064k8358o5637q6098o8846k3536J7223K9157J1594
97697c5515k1552n1916o0299l6463Q091M4939N2226L2178O454l025Q031K2747K1093M899l490N971J2553n626l5030
97678c3734m3370k8104j9037k7778k6099P067M2486L3135k1780p3524q2282n4351j8665J0021L3403N1538N8582N2474
97660a40018L8978K5643J5137M535p477j1155R772N4520R1272Q3316L1906k2532m8192n4009o2358o8063m9161j1075
97642a18961J0026l929k4942j7251J2187K4540M595j9762j9427l935l063k0931l0092j1063K1829M2359M5441M4011
97624f8368M1352K5730m616k7795k1613O641K6568K0460J969m808M251J3184J2814J5049L3766N9056O3144L3455
97606B30239j0784m1753n5292o9481r3770j11883r9820n3792M686M7265N9153M5777K4203P659j904n320L457K7958
97588i3402N2165M9317J4987k2842l8705m2124n7546q0058p4897k4699M1557P6047N8150P941l5312m2807j5744J6635
97570b11337K5331J1746J091N399R783J749o191Q81J1771N891j0897j1628J2736M1693N3577M6090K7540Q523M783
97551B8531K4940M8293L9634j129k8470r750K7420L2847K753k1634j7198l892j535K847K5356M7957L7282r364n8707
97532A66181p8979o6441l7340j0036L443K428O6J1794L6498N5342N2675L2331J0430j398j620N443J2202R611n746
97513A96884k6008l8539l8641l1840k4012j5121n018O53l404j2145j2882M31J9830L1790K9126J2892j1379l3432
97495C9185l8764j9656J2721L5537L7617K8737K1353J2253p356k9915l5458j9187r79o79j4952k7247l0469k7148
97477f4407j4932J0239L6739M0776J4611k0715l9346l8515l3772l4294l3914k2898J329L3040N9274O4648M5139J6680
97459A9682P98J372M028k183j3513k2917k9287k9711j5561J2759L6012L4680J4409Q05Q593K6309L3679K4668Q541
97440A13163l983p615k11J5286K4540Q631l2334o7177o0214j3733K9894L7308K1394J4445J8607J0616r578j1454
97422H7585J3645K7750L04l8790l5997Q870M1167K6416q977k0626M26L0432M3751K5568k3294p4890q6345m5918N851
97403b3072K2245O514r36J7520L7139L0561J169k9993m9908n6655n2736m6033m5857m8570l6805k554L7377N8947
97385a81647N8214N2147N6792P3033Q9922R3069P2313L0565j4543m5022n8828o5622o7394n3450j8805K0926M1453
97368H3123L4097J1574r049k1977l0025l3850l0447k0711j2456j3224k2374l2851m0102m5304m7488l6740l973M0403
97350b31374O7739O0691L5314K0744K0714J3647p566j9643n244J6829J9866J0835J4128K3639Q213l2362n5107l4135
97332g3072j269q63k6858l5192o088L6574O3257O7956N7860L8769J8374N976r9j2775l6522n6169n2326k4199O499
97313c0167J4572k087j4764O621N1707P3370M5982K836o483J7566L0638J1116j4142j6550o422j0915l2899m8817
97295G1162l5691Q638O0151Q0312N1017J592k0873j2165j3791m6521p6415o8636m1714l5072m8447n2905m4217m0847
97277b64422l7308o938M4694P3206N6411K5426J6713K4923K5977J9345J8182J6086m078l5491n0359l8555k1302k1135
97259a58625l3572l4615q123L6695O9934O6419L4064J0711K0634M0942L0322j0990l5732j3834K2559K0747k1056
97242C6480n3385m3778j4580k693p873k317K3794N1064N9690M6809J5610l0068p3986r0458p1979m1136k2472j2450
97224b33728Q796M3000O7879O6611N0032M2585N1226N5553L1798j5460n3079n5855l5482k1334j8796o993K0604L8160
97206C5517K3683o671k0799j4266q619j2919j2030L950J9503J2604j7712n1236o8552o7436n9436n2865m1856j6901
97188c56041J5004L1466K0152p135l0695m0384l0703L752N4062R3483J04690R7553Q4655N7932J1852k9605m0698
97171C9340l4523m0421n1493l6459K78J7781M207m469J2142K2608j519l3520l0465K456K4145J8008N863R857K8111
97152d8073M4018M0873J5200j0231j520M1579P4573O2142K2447p177k5331n2280p9158p5385m1207j0668j12P371
97134d2939J9563J5166j8515n7737p0616n3725k7224j0098r869k1015k6379j5142j710o931j9093m60N8447J17070
97116a71207J31443J01196N6683K0925N26n504p515k1343m5797n7006l9142n625K3862M7819O5709N7637J0187m9499
97098A13349p5663n6498k0283P058K4141L3986K9426Q265j5596k6736k3664j5487j2903k3051m1101m6913k4704J1836
97080a54538K9342J4619q987j1876O770K2526J6093p639k6506k2623l61J6473R718j3141l0914l6063l7999m1507
97062b76613l7758j9532Q206L5683N2655M4857O188l9067m8170q534M3112O6204O3264O0281N7632L3567q121k9634
97044D220r320K6128L6435J7253k896l916P006J5297K1630L8501O8867R2802Q0728K6303l7285o6693n5987m0506
97026B18567m8325o6113o5835m7075l0047j7870N125L7768N3125L5061K203j7649k0735k1171k5121k6633k0472n438
97008f0635J7618L8625L8197R980k3735l5155k4602j3725r790J582K6749M9101N1567L7001J7654j32j1022o247J1739
96989A14770K1648O240k3713m2448m1093l2496k7300k0622n040J4456K3640J2346j6306m5695n5686l8260l419L2191
96971a26787N8023O8631N9949L6374J3507M16j5060m6875q0273q1992m4856j187J8416K0717K8614M0385L3644M351
96953a4003k1865k1484O17K2088K6605J0726j8565m3472m3871j8953O556R810k499p378r29j168j4294k0276m279
96934a56634J4737P057k3319l9013j6931K1606L6990J6942j3822k4066p147J7470K7060J7434L341m8Q015J8385K4849
96915f7094K5883J8575Q61k1016l5945l7997k5508M517M6871P6463O6560K3123j7502l1171k6523j6036O688M1501
96897C2250N7172K2667m6361r8617j00158n6922M781N4347O3145K8131j0984r085K6665M5614K2259j7121m2317n5431
96879g9965o4198n7074l0162p513n130q31K7953N9345N6424K4600J388L02M017O388J9193L5782K9542q15j9688l414
96859c856K7225L8327K3063l373k7129l9172l3845j7809n574J779J4951K7743J6587j8390l9359j8559K2805M5674
96841A1088M1546K4740j374l6190n4081k4419M0675R0636R3144O1472K3016j2247m3903o5159o8025n2110k2581R175
96823A5403K3856J1014j1682j6158k909R24j3645k3218j4364r671k8546m7599l2850L668J6443p335k9568j6448J9159
96804a63526M4991N2857N2473M0832P532l4357n1802l3580o900j06n791J184K0281K4021N65k5359k5307n767J714
96785a06045j7624m4666n0682k7507Q427L4147L8731K7966J4152L273m815o064P059K9786M1373K8316M041p411k943
96766c0486j836j6835l7003m1682k2163J1674L8738M1777K3112L363k885m534j7093l6763m7307m5623l9942k7012
96748b52500L806M2430O0352M8083K6571J3475L031j0049j4510p629r927l0921m2497j5744L0675M9761K6051j1491
96730i1033l1556k8675j1046J3723L6020M5577L9261J8099j5881m6349m1689O726N6649N8524K2303M220K5659M6413
96712A06945L0936M52o167Q348J1448q557l5363n6380p2203p9751p1114m8055j9249J3580M9694P5658P8598O9782
96694D8602P1759Q0379O3564P313n6345q2367o3111l1564j8919k2215j6322J0433L9780M3111J3225k7824n1009m4112
96676c5622j4198K1430M0277K3528k4228o8811p7013n4384l7106m3083m9280k8394Q750K8116K2337K0205M0723O0807
96658a65946M7049P030j4881O981M9484P3559O9263N3812L7468J2198k6462o3105p4668n2322r195K8695M0574K7198
96640D6732Q816K250M095K435m138j1480k3793m1893m3410l161O1591R4899O7362J6413J108L0905O0934N0083L190
96621C22938m2704n8136m5861l4185m3992n9008l9648K5003R2794J11170P3641J6554k9647o2114q2827q1711n2311
96604I956q675K3934L0195J5778L169J2188L5426L9926P060l6815m9101k5903m476r521k3168j8303J455J2713R036
96585B4874P336K0836L8407L3454p649o3749r1013o8142k5555j2122l3014m2488m919N8902R8729Q8955M1098j9281
96567D4659o7230q2172o0332k1472J1125L2798M8475N2187L4583N333j2139r105M38J007q124j8368k2195j8168j4663
96548a03363k4704m6572n6176l3869O569L3826M0233M5716O0615O8546N3463K3082m738k1786k5808j4579L816J0776
96530A5047K069j101J7158L7628K7242j5801n6934o2862k9359K3949O8480P8399M8275M844j4163L07K1299K1773L814
96511A90064j4242k4045k7153j9834L158L0140L3903J29n1212q0508o5968k4323P348Q836q049k1438k6987l3649
96493a23830l7879k0333K4815P1146Q4291N9846K5046M814j694r087k1630k8655j9487L761K8594M3252M3352K9445
96475A55767L871k5436m2578l6170j6704j0126k5961m0825k6212J2414L9306L1893O246o595J189Q928m365l4574
96457i932n6014m7933j6732J0768J7358J1894R389M892j5564m1967m2377o211L5069M5176K5397K890r471j8630k4636
96438a26634j5428Q359K6242K5040J6667J7407K1529R290k3688n6307o1864l3516R729M0817M9098M5630M3263L9867
96420C5501L0593K7429M6079P3345P1535K6489k8272n1941m6094m3399n6992o6177n1494k0249R264K9477L9101L2494
96402E6689Q597j7168k5050j5002q387k2166m6035m9931j6094L7496P0970O3552L4656J6788J5319J1274j00Q62K0593
96383A36863K9355j678n5408q7063p9817n4773k9166J752L4019M1548J5734p924O566M0946M4576M801l8316m9873
96365d7858l9284k9761j9233M611L0008L1127P574j0132K316L6302O4217O7451M6330J3630j4077k4835j9445j1729
96347H7212j7316m0086o7638p9166o1300k0796J8600L5475K8780J6643J8165L6000N4402N3936L0293j819k5780m0449
96329B5156n3804o3101n4174k2377J8630N3487P7371Q6195P1379L7073P400j754p573l6113p9457j00250p9739m1010
96311a62661j9503k5514m0199l6501k610M3218O2895L9496N581R130N0161P7359N5907J1303j1466q310j0492l3947
96293C847o2137p4368o6319m1292j865M2946P5854Q4538P1276M7024K0688m575k8015m5381m7895l1762p085J1567
96275e2954K2656L3430L9469K8575R201Q903L0758L8075N687l7807m9909l5404k8348k8023l204M0334N0509M312
96257G6260n2911o8911m7213j9754O052L3762M1079N682m5422o0154l2372n843n609q834N836K2033J9665J1235J7741
96238a07678L2460L5351K5438J3598j469k3557l7441k5494L10R926l290j6909j4552k754Q157J6190J7374O818m318
96219g1840M140L0324M9065M9716M9628N7393N0237R294m5425q0593r1916r3529q1352m0834J5697N3044N5428L7451
96201d4072J3895j1374k4478m559L8822O0667L2672j9469m8875m1245j8623m121k376o190n428O186K1619K4148R671
96182b3130l982j073Q148J455k3304m3083l4581L303M8004O9358N4164J9755m353r973j2476j7916r494K2384N7272
96163A00478O8424N2531J9773k5436p1115q5027m8277P554K9434P420j8457j5927M071J4651Q618l991j3837j6413
96145A4474j1776p495j1040j6535j1235M299J5846J4277M76k4606n6082p4197n9820k1805J2954L6620O2402Q7424
96127d5819Q4094L9909j9596o1423p7769p6925o4031m5003k9618j6741N106L1400L8257J9102J049P467K6924L7624
96109a45993L8580L5096J9401o217j1028K4931P0932Q0795N4155K5902P982j4327l4948k6492N251J4026k0030n4881
96091F3135m3845J008L0933K4986L675q671p548Q42R306R295l566k1229l0035k6607k0911k4136l6879m7116l9133
96072a66496j0426J9853K8277J5047L920J0519K2957K0568J34k5531m4114m8254l4231j0787j689k1298m8079l9795
96054c29425J7557Q6039J10005P1630P641k7853j3355K6767N3654N1801L4175J8188P470k738j3561k1850k4768j9194
96036C2183k625J7788K2459k509m2628o0630l3165K0730N5731M6379J0551j7034k5649l0045l6226k8389L21K4864
96018d7894J8123p955j7830n727l258k6872m7972l4363J704K3131K1014J8247K5992K9391K2666K6853N2678O7770
96000A15698L0711m7533j04941r8807n2815j9381j3076o377J6133L2506K3506R833K3399N5676O5361L6142j871j5522
95982D8642q255l078p378j4099k2510l4245l5685q304M1894Q3459R1917O9330K9752j7246o0495q1095o9240m1124
95964c7760k2639j6207L77L5887O2426M8020N397j5855Q289M5615N5338M3814M3292N0322K8035k7624o8502o0059
95946A78166k8161j1777l821K0283M2197K2395k7238m8750k3261J004j4218l7591j7709L9846Q1486P3896L1866j0217
95928B68396k6963j0755K2543M0960K8466L219j1181j8259l1689m2865l6232k5256l5957n7670m9843n261L0699K0092
95910F2444j8678m1888l5491j6165K909K1078L5494M1160M2268M6492N0571M4994L0346J7420J2587J1044L009j6518
95892B93076l8887m3125j8831J0988R513k4200m7713l1919j930J564j8357k5130o152J4864K0303J9577K2034J8398
95874A54073R74j9062k5871j4827J1813M6968O9726N4703L146m9229o6276m2928J707M5278O7528N3647R279l7060
95856B63589n9042n3922l3967j0357N780K535j7134k9467j5258J4654L0829J6833j8384n0749n5195k0865L5630P9819
95838H5329R1409P8305N4006J9139k2239m8473m4859k9179k9047m2700m5262k6801n16K0807L1768K3574m623k5369
95820H5269o542L8265N4681J6622l6910n2749k8493l186Q5n941m698m81m083j1318q656N133J4187N930r990j2570Q15
95799C5370Q897j031r101J0429M6258N8037K9326j0201k3996j0988L481L463o466j6642k3479k7577l0166l0385k2516
95780a7287j185K7257M5542M2283K2200k547k3075l3654l1539k1442j1211j93J7197L4350L4666J7753P488K2709
95762A29312N1980O8790O0922L4278o2k8937l8047k5711r986r367k1316k9263k3007k697K6813N3230N8927L9813
95744C35672J3147n916k3150m5797o0140n1245l2365k7237l1162j9757P276K4037K2694K6357M7417O2812M6984O690
95726B96317l2132n2291m7286j8373J3462J5423j5404l8094k0585J1899J1847k0183l6855j3052K3338L7139K9137
95709A44307J7780N382j3111k4522q354K9699N6837N0402K2949L974M527P758o199l2520m5656l1120l306J6703L0764
95690B26294N3092P4684O5704K3055j0578K089L9785M8874J4927k2385k7285j1288p895k7199n1357n9567m2610l835
95672B84505M0796P1460Q2519Q3658P9276O3216M1193L5586N1014N6916K8673j1883k6250j5545j3166k9914m4176
95655G77878m4701m3304l9830j5331K6125M6999K8186j356r639m884o749m846J8429M6250M8290L0439K5761M2698
95637I20415N7597N5229M3234K7726Q194k079J5032M6804N5851L3381J6487L6941P7505R6845P8858M0373N283j3082
95619A600594j4896j1688j2719q476J7578N5859P0540M5139Q647j058J5860K9712K3817P249o994j4979j4391j704
95601A788090K0549M4182O3787P7859Q4319Q2299P6148P2778P8828J01405J40778J78180J86008J60391J29170J14098
95585C398869J00434O3443J2899j4161p51L4038O6248R0802J09969J20762J23711J27138J31820J25583J04641Q7827
95569D683272R5185J20013J36903J34877J29721J42657J76885K18209K50228K62648K49913K12498J63659J27985
95555G104653J23651J45445J72162J91165K06508K20950K24287K10889J97815K07885K38105K62680K68903K72800
95541A0047898K93599L29745L71457M22433M90251N60547O00806N95478N64145N35516N11031M66425L88710K99354
95527A6477395K33408K02728J90640J79972J70997J66111J52346J15449O5653L1793K8207M2134N8376Q2528J30351
95512A8328088K03590K87133L66135M38201N11215N92857O75979P30097P18406O35064N18856M17119L41227K71616
95498B5035583J99561J39948R8926N3489k0945j17318k07162k73250l15932l36761l36209l23557l08085k79492
95484B3008796k16154j15317M539J35540K90232M65223O15220O86329O67885N93739M98791L92549K71965J40233P555
95469B7447125j15728k23503l16981m00871m72064n23007n66727o41263p63474q87294r40825r07581q39180p79588
95455A9069039p12010o00464m50812k97192j50025J138J39768K19101K16956J64144J04262M7690j8655r5722j69957
95440A7467261k38014l10162l86341m47246m79998n02960n50415o31502p15040p61325p61751p37409p03146o48328
95426I593624n57954m40038l21102k20155j37342o6251q772K3794K1411j1589n3086p8825q5890r5588j28705j83438
95410G250094k41524k87547l15644l27189l32968l49935l82937m14954m28207m28735m33366m35962m07837l36580
95396B126709k46306j70237j17496p8554n1340m4534n7812p4759q1108q1097q7833j01407j06163r1481o5647m1856
95380F29079j9482O101K0592Q55m6029p7241o4156l0087j7786l3663m9522m9256m2640l4390j2195K5296N5106N7802
95362C18384L9579J6390m521j7145j2655K439M597j2351k0463K278L2162K7764j2056m6976m8320k6149l726P072Q8
95343B46391k7466n9711o6932m1189j0255j443p687o504L335P524Q273K2487M8472O1471N0120L4674L6527M7898
95325C45985M7305L0288O620k1156n4177p8437p3251l9678o57K9041N2738O8786O1906K8431j0448l4606m6889n5724
95307B56077n5126m0251k4753k0186j3428J0067L3889L0480L647j9331k9956l8460l7822j0467K6252K7880q845l0324
95289E9343l561L2141K6165o053j2966Q100Q596l2722p6750p9077m2402j270J7703P240k5213n7175o1968l4402L324
95270b70947K8414L8603M0956L5362K1484J0945J7114L5561M6037L4917R091j4158k7054l6789n0302n9374n0264
95253a90404k7693j5163k3869l4556k3408N347K9944M4616N9370O9881N5390J4034k3474k9803j3784j623J312J0265
95235i3618K8654L7115K0905n202j1505R393L0668K3603l845j4362R788M0941M1835J4993l973K424J2610p3l3589
95216A06762o6528q3537p9303n2238j0968K0749K1989k795k8314l3852j7878Q343L2879M9859O0687O9065P2811O3614
95198A31345L7362J070l2469n2428n1889l0679p51J8846J8515M779j2552l1295m9382n6369m3771j9802l577n041
95180a78088j6448k1603r094J9307M7275N5049L9020J7359R952J6547K1775J6973O629m470j7540k9530k7638l408
95162e7933L0850M8173L2189o464m0655n1951m3651l1635k7838l2501l4719j7286K8986Q6192J12998Q3175J9018
95145I6948k8945l6452k4149j9442j9890o440K2227M6172M9453L5401J8956J3213K1551L5899M3825L9933K6345L223
95127C17828k9447n9188o7585n7441n4633o8938p2315l8778R073K3787j598k3472q125K5670L7563J7797r090k0011
95109g8903j5145q355r654j8485k7083k7498j6287N956L4535N6789N5964K9616Q51j437K5199N3936N8823L8963J3462
95090A71247K472J2555K9454K5983r759n3575o7074m2795j2728q169k6668m4363m4708k6742l53J6392R749q633p897
95071h5612K1489M8984M3419J6853M876J1667M026l6223p9610q1946l5549K4623N7734N0299J9039q899j8348j4098
95053e7276r594j0451j2189j0789p386j683J1317L3677N8517P5490P8512O4428K8759k8941r3430j33606j22863o4395
95035b01903N822M6716M4913J8867o783k2952l0887k7306q102J5812K2217N760o746J6518O9199J04417Q4718K5825
95017A56105k3361l9956m5766o2038p0514m1645J2764M5905L5401Q868J808J4335K4614K5243K5234K7480K5635J9173
94999A39285J3465N867j3062m2927o9541p9777p2791n5880l5491j2787J4889M6057O8535O8906N0731L1903J9981N636
94981H2999j2359j6515r20Q862q517l0237j6888K7709N7612M5071P774k6780n0361n8762m1298l242K7152L2555K6309
94962E0164K2977J3807q539k5174j7500O77O641Q670K9387N8951O1248K7350j0519k5599k8095l7954n0433m7077
94944B8982k6392n779J227k406n322j954J08j3725m6556p8750q3843n7169k0476L117R830R798J1917J9011K9862
94925b28520M0322M6798N0319N1741M4092J9630j3412l1632j9711J3189M2537M7212J9813k8783o9996p5227m2929
94908a34557j399K2171K7488K9112L0237K2856Q307J36L620N926n692k3814k8630j3859M132O721m094j1092p244l278
94888g2953n977l233J6183L8076L7562J4932m918j0877j9162l8630m7233k3698J4531L0615J7042m46l913j860m553
94869f8512p123p064j5773l7235n2046m0805j2362Q929J6045K1033K9258L2307K6684J9673J2269m415k6978l3106
94851a39221j3680L410j4687n4877o5795k3446L2694M5041O524l4356l2437P440M4070M5815J6344j6447k8108j5242
94833b36958R184L3404N4425O8068O2697L4389J909r223K238J3583J1887R610J8695K7203J7629m028j6460j3517p886
94814G6849p878j0399j7254l7340o5207p4922m7573M878N2127P2759O1878K4683k3259n7320o2160m8208l8219l8603
94796b35168l5883k0602j24J6493L3227N7413Q2641R0921P0829K9559j1253l0631k4450q739j703k278L517J3377L011
94777C0157l7520p6087o9410j7520L5093N4597N1655N2676N9525N4641L1987L787j6917k5036k0110q538m597j5313
94759H3070k8159k7162j6231j1607j6910k4589l7525o4707r3469r1939m9370O597M3806N7455N6516M0562J0486j3285
94741a76461p647K3269N2430N9882M6103K3799J0202J7729L6584L7221P937k2103k0499p34l335l3511n3408m1610
94723d4152k4973l5308o2196o9951m3211K798M2699N6192L8268J0703Q667L8358O1791M2843m890l7781l7095j8817
94705g6055J169J9877K7276Q167k6549m0053j7694Q320K692k2599k7390l379J3921l381l6258m4663j8310J6062L3653
94686a85194L8519M4084M1825R285m9833r2681p8733j7295M0472N5304L3114N691n314J616J9165L8055M7695M2440
94668a1785K7338J0985m250j6855j5707J0705N1953P5791O0092J8103j6548k6038k1577k3228l6189m9190m9954l8218
94650e4572k5130k1291k5277k6234j8961j0937r476q765q6R543L894j6432l0417k4501q946J754Q510J4478Q630j5529
94630b49745l4272j3483M4080R3681R7945O4890L0691K0151L2517N1994O0626M9174K4616K603j0293j8857k3946
94613B22372j9371q151n402j6546k7356k5839j9915k2031l0567l9059m9068n8657n3631k9474p726p346j1666Q814
94595b00619M8559P2620O8357N9448O2779O2197L8031k786m2267p6215j05046j15645r2713m0951J8214O5388Q9031
94578i1618Q3676N6496K8128J2732J145k5169o7001j03387j11475q4202l4153J3790M0698N1421O6694R2384J08079
94561C8238R4640N9738K4081m560k8147m1600l9151k9247k3442j7252k939O021j0593m2713n5245l4048r37K2505
94543h4651L7972M7427L7430O125j8800j4082M773P576p352k0640k8594m0353m5793k2783K0642M5564L4135J2779
94525b8625R581J6721J5033J0638J9355L2049K6694O503n518q329k6805o6146r1628p2294k5696K761l698j7361n032
94506b11797L3239O8636P7056O2355M8438N0492N5861L8503o048m8553n7339l6718k2458l7861o5187o7147l0397
94489a48925K0757N2435N4115M0217K5872J1261q795k9023l5710k2296L154K5099L0678J6532o401j7112m396J6816
94471B4278K0056P57j7660j6030k890N272J2636L3287N8619N9141K4055j9385l7401k8975j9899k3503k4411o450
94453D1497J6660J3849k1079n5900n7979l4085j6315j5540j2131M675J4888Q68j8074q146L1626O7970P5817O0591
94435H9192L7930J2523j6550m4463o1794n8262k5501L0631P9931Q7710N2035Q538r019j816O306J859p683r011k58
94416A72298M311j4296n6566r3018q7843l7745K3210N9505O2179L9513K03m2053o3678n0420j6525Q735J0730l438
94398h4898k1130l4993m0315l4206k0117o472J704P283J6642L1115M1822L6163J3901p932j5819k0940m4088p9052
94380b61332r0087n4554O390N0891O0214M9551M2826M6983M8373L0385l040k4726j3825J7312M0420M8645N3631N0256
94362I8313J8019l5474o7984n6818k9133j7942j8097j0990l383q665j3272K341K6899L7016L5051L1957J1773m0750
94344d1139q9323p5161J657P6396J00821Q7004O3611L5421L142j7579j9763j7399j6985p067Q434K52m1835q4606
94326c4119r3120o9822l3968N417L3077K0945k6940n3199j3154N8220Q8626O4150L7557M6532O9780P1447M9031K0949
94308B41409m072k5881m0349m5018m5931m6566l9119j7200R976K5739K5045J7679J2778N928j3915m5785p2468q0639
94290a38389p7420p4504o2734k4530K7513N2139L3217Q422K2419O7317R4068P3921K4911j8065l6297l0066q979J3703
94272e3354K8670L6918M3163M4980L5946J6623m701j9549k3320j7969j3773j8885k4309j3776P210J2758l705j5658
94254A7269o341Q10j8904m4744l7874q45K8402L4198L4300L4221J3448l0673o2323n1277j2430J8660L0472L5819
94236a7812M0865L4592O986l3090n9305m8003k937M2873N9673N1075M0341L5096K5289R751j427j1061l3072o0149
94218G9685o1028k3636K1288L5251J4306j6405l4144l1122j0598J3901K5122J9659J0866P603K285j2397k9063l7734
94200b6161l9885m1341m3749n0198o3234o8211l8655K5050P8360P5295K0957l5215n2112k8268J1550M2878N5769
94183a77170N6295N6709N9937N7357M3760K4364K627k4626n1087n5934l0114M481J9052J1909J765k828n607j057
94165a0167K1570M8458M1978j2060p3003q2216k9540L3303N0765K2670n283j880J7503K2063Q369l412k935J507K179
94146D9869q29j0479l1005n3447o1045n1255l5335j6040J3367M6196O1887N3920L6456J9467K256m541J7062N5292
94128I1796O8839M2279R877K763M831j0572l0552k6060k831R548L955o025k0192m4664o0452m1495k581J0386j7751
94109a8901n3591o4173n0626k5241J2305O0022R7740J02129O7455Q486m4090n5412j5922M0149O6644N6057L7476
94092B20507K7944J4767j0766l2160l1473j2327R917K2227J2815k2429o5309q6407p7304n4689l1679p662J2624J8171
94074i3233J6303K9262N5609O2858L3213q028k5964j6899m59Q630N172j1494l0889l4908k0628m739K628Q295J2096
94055a3175j030k9661m2330j6504K8429N6644N5710L3120n207m9730p8282p6335n3741k4379J1886M7835N5099K2200
94037g9451j3308o122L5615O4904O1553M5520K9867K891l4909n3687l3263M854K3565J3734l936j1276j2841k5429
94019H281n4497q3003q5494n4870j1083J8955K4325J2754J841R767L8350N9791M0678j0508m2531k4026J6661L5248
94001i9361K9836K5683K4416Q594j5322k0799n756N251M694J0908K8682L7284K7184J5162J0914L33k2372l4986j9318
93982A1027R600K5061K0925N910j6084m1672n7955n4634l7906k0522o809L960R905J0365P967K176q146j4627p071
93963a58530P777J3909J2770J8311K3467L022l9452o0365l1640J9954N1141N4283M6395L1647P482r768p89K4446
93945A4060M0792M6082N4591N9784L8828m461l3199k2276J3626M2609M5224J8171k8410o8875p6271m8510r267J8614
93927A01112K6549J1064k3852n1976m0642M850L4593R837m9775r1137q7129n4344k2604p107p291j4767j8114r424
93909b90157R877L1597M7086N0101M0320K7525K4604L1738L6031L1405K7714L2265L4652K2407K071r897j0082o587
93891A32670k41J5575L8584N7332O6546O7481N5042K3474j3950l1948k6387k1345l4692n5023o3608o0446n4102m3533
93873E1429k8501k2906l5749m9993m3170k0430l582M919K0085M1402N1785M9797N2091N9189N0909K5559J0963K0224
93855B34021K7204Q120j9887k8375k2231k4022l2280k9545j9391k0071k7311j8514O159K0048J1796J308O275J8842
93837I2146K5036K4461K0205R510l852n123J1106K8569K7411N675k2831m3030m7521l9873l0333k1966p126J2727
93819C5191J6849n914l0709k5239N516L3201N3070P6933Q6516M5635l3534q7666q2866n0566k4494L739L5487K8487
93801G9636l9625j13610j24057p9686m0684k5048l074L0933M7379L9986L5415L8802K4735p825k4039j0576M205M380
93783a62753J3044M2185O0805M3421J4796J3809L8552N6345M7819J7582j9091l9997k8219o34j501m6634r6626j06826
93765a53923p9699m4520j2639J6351K9617K0732J6947M6209Q7179R2527N7412K4192J7031J2349j4204m6703n4537
93748A4321l4631p317J4316L1347M3578M3841K7875K303j8413k3182j6063j5034l2540n8339o8782n3048k4236m109
93730a78113m72Q36K0364N5259O9028K9070m2095p7448m2243K2635N5751N0927M6172N5314N4747L4950J9777K3606
93712A98065K7518J5090l42l716n211j7164k9009k9832l3795n4929p4361o3918l1299j0177j0705j0820L598J9945
93694a11062K6220L0826M3747N7486N9048M7310K8743P253j3371k7558l6422m7948o1222o1564m1451j6981j0567
93677a27513k2294l0849k0971J944K5617M7177O7860P7788N8588O964m9828p2486m7221Q46L5174M1907L1620J7219
93659D1542L184p943j3850j7988k4095k5285j3040L213M865l024R083M9686Q1190O2342K299n1283o9535o2715m8070
93640g9424k6192M908L5741N5640O1204M7766J0568l6286o0246m4755j1616M744m117k0326k7953k5292j3848Q264
93622a21220L8921O6744P6538N9916K5451j462l72J7741J9144q586l6529l3277r446j614k0485m0549m0864l1420
93604d1369l2033m4051n2614m4745j8362J6402M1234M6056M3589N4314P5413Q1936O4006M3108L9873M3603L0669N19
93586C47548k5520l3844k8305j4373P052K7678K9781M273l6252o7643p3829n5359k4155O537K8468L7843L2719J5397
93568A78016m550j7259k3217k8520k9573j6411M379P868j5166l8350l3888j4797j6631m1449n0845k2293J6308K6252
93550a20126J0429J849J2169J9285N136j8712l0504k4979j0436P165K4222L2103K3518L400j7462l6957n7983p1246
93532b49129n7122j2300L6147N4712L8030J0621l689m383m758r154p324J0548M0093O6986Q1252Q1873O8468L8379
93514A79250j552k9125k7018p116Q37j2173k3423j3681L330J864j7024k6718j0845J9078M0918M2430K4189m334k8622
93495A10265l8271l4426k3714r764K355K491j1056k2614j8937r770j0968j6663j0935J459M524N519K5430N4152N4091
93476E3168J8550j1556o378J3336J7722J3890K0553K7288J6067N84M056J3573j862l5636m7481k4137J029l328k7437
93457D2001l9223k0959J9012N3816N5682K3161j0760j4841J567O112r319k6402l8096n4185o9800o5648m6795m4931
93439b39608o7971p9755m8608J0069N8024P7289P0906M4171Q194j4745j1481O766K3396L6339M5877M1375J8669n093
93421b6186j3455j4126k2055l2628l1434j8328j443K0788M9126O5122M8401Q576k1708k3662n080J8293L4396L2330
93403F6927J0197j4703k2336j6292j5888k4151k5326j5419j1682k3914l6579l1316j1877O117J8501L0702L8377K5334
93385e3328j4746o0722p5058l7463L1404Q5035R4053O9560M0551J8864j464j8808j8430L907K7896K6638p047n4065
93367E6777q1980o6354j2321M1484N2659J6243l0856n0352l7673j2228J2210L2579M1536K9223K961j3008p887j949
93349b8936j9465n1639o4372m2183n459K1173L7989N4748O4000N1856K6075R130N516q34j5026k0603o658J5528L1151
93330F1991L8182L7221K5248Q826K596M010p485l3324m4548k6394n434n424m128K7963O7496O4165J8978j1597N492
93311B23834L9592M6731K3306p043k8936l7712k9787r585R874K4809M1596N2850L7446l455l6825m1969l9667n5462
93293B09597p6496p2406m2942j5222l114K285O485L607m055j806J6269L7867M8509M4933L1009J2693k16K030J9087
93274B18114L9039M6990L2810l173m5205o9178o3547l9302j4440J988M546j3341m3431n5945l0471J4595M4342N0807
93256G5198M9868M3027J5704k4565m3630k7182k190M032j961o411j9510m8928o5889l9094Q365K0759r649k7750M828
93237i4978N5932P4101N9103M4794L5563N958m2421o9128m9914q282K2836M1361N9542P3067P0433N4907L4732Q118
93219C75724j8854j7864K6503P9256Q8163N0315J0773l848j0879k4481k6252l913J6577P162j9557l4159l7057m8292
93201D09317o3901n7289k0798K3548N4906O9939O7760M4648J0578r637k087K0468L3027K0155j4780n0772o2675m6305
93183D26102k5580k1298k1970n805J7637J7233r332k6782j1230K0299L9657L9942K5446l042l4483m4358k7737j4003
93165C40696k3790l1555k015N1212P9455O5975M2967L8495M0283K4392p618l7424n6069o2979n3552k8738j0014k2760
93147C46961o0548q1262n0002J8558P1011P1281L8299J9625L3228N1011M2604J6351K885J1475K1959J3354j7948
93130E48842o3158j02939j07411o0368J0956N3946M8377K5317J8233K0248R757m511L896L1125M2058K1268m335p057
93112D84244l91j8403o3223r5301p9245k4941K5417M3791L9325L6930M5526N4182N0202K9020q813n4966q7297q3294
93094B92763m6304n819J4712J7614J2930q32k4272m2096m0528k9199k5362k4828j0846J3860K8434K6130K1336K2675
93076B00368K2471J7404J6940K3628K5042J3395m518k2405l9896m8579l7239j8658k2982n0945o3400l7773n670o136
93058c8953k7101k8824o777R250Q803J1467K4532K9670J9179J1238J7699K5711K4001K1129K3018J6083r173l5518
93040I5434l8342j7068N953R441j1226m0999n2180k8997Q575K1671J44k5213k6793j4764j2685j9139j5278K762K0978
93021a37726K9129K6784J3922p507k7097l4831l1527k0342J871L1072M6167L1572J834j5137j2606m112L259J0704
93003i4571P972j9101n6909o6507k9793K4885N5349N0274L1316K3357L4149N3921O2914M4638K213l9850n6957m7423
92985b0123l1298k7336l2765k6196P023N1588P1739N0086R040j6960k2035k4462k7783j3135K1842M2533J8330k8637
92967A451m1858J215O0143P9485N0386R757j2100k0607l0478l4361j8472L043j216l2343n2108l4793m382J234j4982
92948i0986j8634L34J2598m853l1802k5891K8348R5864J13200M4520p0796j39512j07971k5670J4469p384k2703J9169
92930b17700P9491R1898N4525J8050P499M569j666M555K6975L9070K1726q371k5795l0452l5366l6811j9884J2076
92912a5611L4216K9383Q401l441N423K0806J6653j7988o2699p8639m4411J8689O1682N2767O909l1984l7369k4003
92894f1216k4332m7624o9539o0431j6449L7780P0157O3331K5175j6216l2727j8725O581K1134K1400J9449K3950L0516
92876b7786K9969K0581R370K400l567j6077l2730l8255k2831P97R429r52q808N551L5417N5940M9930K0144j7504
92857G1018m6821o1005o3522n7950m0187q664K1571K9998J6741R03j0021k7744n1782n5553k3361J9274L7991L7168
92839b11946M5008O1311N6628K4283l520l294P844O443J924J5319L6431L2566n053m9131p1128o7066m5728j2564
92821a81673K4421M8596M9464L6439K5774J8934O676q807j3000m380l368k2740m1187k6680J6659M6714L4463k070
92803D235k6527l0181l0585l4921k8971m126K5048L9663M1124M6155O1268O9568M5188j7039q4806j08414o7667L284
92785i7704M7785M2255J0533j3274j9004j4554n411O094J2290P414K62N781K2065K5734l804n7738r8827r1251l3518
92766b54872L6375P1690N6871J7314r447q426O767J4757P008q923j9002j3977M617K5897L6962L0770R772j5570l1471
92747d2888k6363M392N4442J03980J25603J02957M8292m840l2577m0551m8502o2299p0311o2931m4363k5425j3492
92730c4876r602q470l014M642K344j1326j3613J5388N4838N8232J5180k6480j9453J9607L1704o026n1325n2709j2673
92711d7632K0338J2173k2692m6950m4591k8866j4349J594K3938M0435L2474K876k1731k0536j233J1904O506n810k546
92692a04698K6212O4520Q1834O1782J7594k4494m9081n0392k0790L6787Q9533R6638N8750K2047K0476L4443K2555
92675C83716k3556p4806j00772r0570m9150M986M3462M8407K8502M124j5842l0884l5825l0120l0000m9040p2880
92658i0248p5000n1346j6192K8017Q4757J29456J20307N6520o261k0182j700m58k8952n0934l4887M728K4674J48
92640G2447m9257p7888n9892j6699P861j512j8538j4940N274K0365K2425J9126J6568J7642K7967M4794M6416J3855
92622G6014l7123o5517n1431j7118M574P538P150R844N903q865k1144j7782m843L303Q432K5447N2731O3824M0585
92603H1522J022k2390k2654j7445j5945j0868k293k827j2865j5197m534j44j6242m0172n4053n7913n5310l7303j999
92584c07610K8690L5973L2324L8014M5541L6865K1734K3038L1782J6407k1958m3283k7455l829n326k2431k3531M94
92566a44561L2654N6217O7295P0569P3029P2968N3138K705n1979o5432l1920J828j416k3777l0993k6837l4915m7734
92548b9161l5339L014L3870L6297K1455M066j4427k9348k8859j5147m700J72J4217L4660L2410m995m5713n0773k1199
92529i9500J3868M0630O5663Q5767Q1402M4233q075n0075o8881o4615m5187k5500j9142k2900j8136M505K8079K5610
92511c2254q830n1865p2793n8975k0692K2414N6318P7436Q7398Q5553O8465L7911O386j1561j4712j5264j9625j6705
92493A18605O038M0634O5283P0909O6821N9581M3578J8337l254j5635l2555o1701q2148o9460l4035r738r116j5708
92475A56436j9051k6743l5544k3108J2990L4099N345n2766q4732o6026k3962N940J9115K9756M0417M1278L1895K6255
92457G1594L2617L9603L1979J5238J0319K0688K1034p703m4900n3956l3810j9802k9890l9109k1088J0747K5214J7783
92439D6558P457R52j3225l8485o0815o6038m9707j2990L3185O3047N6000K3322k550n965J845R125J7536K5515J9852
92420E4619n045l4429m8827m1684j8199Q974K0351M645k0412k1007J0494M4208N2059L8093J9039j238k0411k4225
92402A7005q844J818j1080k6165j0650K6965M8466M4307M0871M7134L6880r27l3688l3377k1804l3962n8279n3020
92384b8350j2998J9927J6235n751j4613p600m39K610O200M121j3770l7158l8415o437L4615M8396K3664j6217l8621
92365f4601l2544j3815k530n97M547J8422L1414L3364K6120J7074R930Q906K1701M6652O4967O0377M2151L2940L6152
92346C40630L3041J3475r479k1831k7904l7022m6011m7621m4163l8728k3513O301L3900L4815R123j5789j6956J453
92328A43721J9712K6064K3191J6996N081k0734n7681q1615o6468j9088J9684K0376j050r182L071J3939J1924R182
92310E7123J5080K1007J8931J5618J9132K5504K6476J8818J972k0964l8197m1060m2144o1536r1212r6979o5236k3434
92292b61101l22R788K3861L4830K6289N683o795j1949k4152l6855k8268k905M504k2814n6530n8527k5264J7484M9622
92273c63421O9520Q0321Q1204P3385O3286N4715M2661K0280p650k3370j4121J0119K5104J9430L392j1342k6356m2120
92255E5037m3910j9131J8434L8032K3575j4127m9830n7069k0219M6700R8206R4664M1794k0215o0199p1965n9170
92238F07l3267k1240m0625o3156l8584L3912R2221Q6825L8558j711j9751l1817l6846j8024J5768L0200J1607j7234
92220a2557l3000l6760l4995k0981R881M2608N6331M7877L1472K0596J7311J5774J1292O991J0043J7773J3564j3234
92202A49986m7884o4449n7188m1470k3372J0327O3033J07936J12949P6569K5532j4878l4391l0067n085K3476L2444
92185B83468J5757r113k3337k6905k9969l2351k4459q037k567k2064n1753o0328l7114n973M495m574q941L869K3141
92166a6755L8888N6861P7995P9844M1489j7397m7925l1433p453k4214p3432r9758p5335l7622l6903o5856o9175j8823
92148c27004M9613Q4653P8199N9328M7804M0010L2449K9810K6780Q091k3410m0785k9324j0569j2152k8158l1392
92131d6057j5901k608m165q122n18J3546K2210K4204K2359J1126j5495m7582o2041m3422P21M4033O1083M7836K3320
92112B4527P178j046j2398k4681k5299j6935j8079l0238k7566M592M0094M3485J8357m56M804K0460L2356M3438N5838
92093A38431N9855M9778L1951R735k0287m9068n3598k8468k41O621K301J0961L0908L8112K1778o348l4060n7039
92075A51322o5286m5011j124M0394O1002O6035O6097N8970M1109K1142N288j8547o0909j00460r7989m5803J6631
92058I2861M6375M0715K5026J2719k011j9297k6212j7459l950N410J3190J7628O230k2329m6593m8418l6606k7816
92040I463j9040r77J4777R643q565j5278p679k699K88J8131M2101L9045P914o007K1741N0098K9141k5937n6930m2158
92020E7072j4316n754j2238j3109Q88K5312M8804N9454N5968M7802L5239M296m3309p4866o5028l1482n475J2826
92002H2084L5066M2039Q217m1767n5034l0123k0795m9804p3074n1872j1355N184K56L242J8056K8244L2453L7827
91984d1156L4000R200j8294j8424O193K3698J8602P425Q057J7071K2105J8799Q953o665k6550m2694l9957p116M3318
91965A6565P2146M8688r568n1836n1710k8802j0446j262l25j5156l9203m5572k7084j4171k6117l3711m375M2233
91947a79706O4108O0953O2989P1373N9777K9108J0142R897L729j2362j0979J0075Q649l7123q4073p8301k8416R119
91929c1041R50l7482p5544r5150q6707m5014J9981P9712J03934Q3674M0618J2664K1185M8683N5961K4940k1581m4748
91911E5035k7901J0478L5227K6111k745j7241k413K0711K6218J7814J3506P627k2906p5721j15349j15184q3703m2943
91893b93379n395J9131J9710K854n095J0165L2733M3061M4400M7309M6199L2269J6738J8591L5292M4836L4052R528
91875A52999j6591l6834m5047l6259j3923Q950J8571J0242p366j8410j6957j6658l2107n0703m0009R575O5391Q8018
91857B2882P4128N0269L3889J8189o147k9907l3053r454K0441K5826j598l4726l9564j4458R931Q754j1842k8018
91839E5542k2429O457M3617O2287M5353P085k0775k7674l1313m3118n0143m1788l1054l1684l1632r047L5784P9417
91821e115R6987P5305J9387m0882o6079m5869j0708Q098J4669K9009M8752N3491L6734J1119j2263l1124m3862m9561
91803H8088m9730l8853o066L9811O4263M7075J3032p90O789J2725J4169K5516L8974K7356j0906m4041n1011m2992
91785A33409l3732j9654j174N440n374j3698m196Q054K49k4509m3671m3359k4455P771M2891O2522N5733L4457K0679
91766A57383K1155K5543K5368K1512J3641l860k9707m8172m2601j5304J2095K0039R265m611j0359r178o595m904l847
91747A26863o04J0798L0262M2394L0479J927j6398j3174n171p973j5072j7091j8420j8357j041L1357M0036j231n5118
91728A44466n9151q368L9802M3215J9050L455K930N58j5422m3500p1273p8547n5926k2841o487l536J0708L5050L8048
91709b7769Q953k0563k0513K26J6631K0857J6372M316o093L243L1022M8354L6177J0597m510p661o842j864J468j4128
91689H8273m5909n9600l4850K024J7840J9757L0525M1100K8269K880k353J4861K6152J9845R766j849l0919p5135
91671E0677j05112j01042p1791l2823P461L4721L1935O253j1231k517K0062L8827N0829N7079N4680M7605M4575L9913
91653A60101J8435j4312l1198k2400j0976j7063k9038k5368n814J4574K5991K5061J2022l01Q095L6652N8922N7278
91635B60661M2773K6586k279m6852p3802n0088M214L5185K3890L618P236K8699M4188M3432K7927J606k1997k3079
91617C31918l252O548j4545m2761l8724n415J0093k0973o8196p9627m6398q713m44r286j230L0150N5868N0559K4120
91598A69692P531J4769K8889K7053J2008R920L4860O4014N9333J2946m1515o6574n6605k8256Q134M8339P5540O8562
91580D48640L2087l174j7845k1846k5458j4817K2578O2717O4349K4171j1831l138L4840N0569K0410k3483l3654m517
91562F00598K2650R998l4459p0972p4349n2972k6107L2K7556N1321N9844M8211K3350j267j2985o924J0088K6061
91544E99674L6945M8768O5892Q4658J00427J10342J04581O8130K695o1815r1533q1856n7804m5747n3476p1606q2452
91527F75823p1944m5757l0363m4531p2870q3507p0228n7386n9993o1157m0818q408J0800J0656O438P967R795Q765
91509H3282J3780L1035N0293N4210L7263J1361m955k454R565J1539k343j1007J0787N5254Q2181O5637K7641J1767
91491E34836L1686O1896P4135O3434L7882M039k8758m6685m6297l8800k8576k010M5718Q5559Q0781L6059j608N027
91473H68318M6768Q5838R3425O5003J5796k9402n2921n7316n3750m0034q826K3177K3696n795j8980J4623O3259P6997
91455A109876N7469M5772N2961M7367J3686j8207j8755P94J4017J9701L3791N8713Q2240R5967R9028R4038R0854
91438A879312J00035J10638R2831L9471j3205k8008j4994j3951m2285q6263j31842j72358j90937j68982j16646o8933
91422A173883m7849n0371p0998j05732j32195j21648q2075n6595o3315o8020l7074J1921L8597L4648K0988R161l331
91405D49995j2514j2429j0531j2124j329L3086O4558N6518J7455p995j479J2629J5189J6946K5565K7246J8766K3209
91387G02761N0563P1433N5609J4442j9462l3942l4185j9256Q773K8394K2866J0268J8948M0943M1703J3305j3246
91370I59917j1667J0137K8601K9515J1053j6092k7690o264L3701O0641O6795P0015P3670N6742J5239j7623j3271
91353A323419J3458K9413K8096K6481L2864M3480O0568Q8173J14716J21989J08915Q8515O6933M5479L7216N5889
91337B285604Q8009J00542Q1066M8920K1981l584l1343m7555m4269m1246o3105j04597j38413j50626j49067j41625
91321A710692j28689j18569j27208j51441j59668j27078p3411m7262o9246j04200r9664m5932J4413L7030K2241K178
91305E34186o595j7057l7720m8299k6606J2818L0355J1826j2572p590K3566M6795L8860Q351k0977l4056k9696j2756
91287D52833J1054L4541M8223M3646K0917o209j7935o954J2504K0501J5417J4194K6806M0151L5722J7401Q814K1499
91269G93125L8541L8615K6448K3668L2594L0073N501j5476n279K0273J9186j5481m2251l0018k108N94k0148k6716
91251H71141l739K2417K4872J0167J418P706K2589L9571N7334P6816R9201J19415J20492Q7928L4544k724J277L6778
91233A627203P4728R1340P4186K5319k9447n2801l4673o654m313k8817n9503q5885j06361j12235j00470r1291j04096
91216A076230j23257j18214r2599p9376q7014q7401o5217m1927l4053k2278J2065M7060M8048J7474j4721l8645o8501
91199C27674j01790j08031o8591o140L8055M4741K7597J4211K2980N0202P2504O6056K8479j9240n2343o0522m8635
91182B27207k6385o9K8310N5074O8504N3702R550m1616o8540n7430k1934J1805K7304K7347K6000L1520L6694K8572
91164D15615P160j2540j9951k2086l0574m2154m2057k4815l079N765j997j1210n88L4773P2549Q2856O1580L3496
91146E02743J7665N733j3259k4021m702L4013N7730N5675N0706N5944N0816J6907k5838m2135k6822m617O890J1611
91128G25039J6892K3470L3855N0313O0657M4460N67m6103p2542p9666p9464p4127n9146l6672j3546O955K0856J8491
91110E40289l844l2531m9292n1326m7210l8405k0774k180J64j5937l1616l1821k3087j9062k0309j7990q431N305
91092A31943J8949K5723J6837p200l0685l6509k3003k758R970P889m486j0954L32J7246J5757k033l700K4464M6808
91073A94590K3080l1805o4069m9133j1348K0283M0829N0725M4455L0189K9926M4622M6471K2395k870q282j3292m3243
91055C23523p9596q1848m9562k5186l3091m8028l4972K788L0288K3612o115k7818k3950q068n726j8030j7320J2338
91037f6761M6370N0570K9215J6218K2325K1317m842l5921m4520l4707k7613k3552n223K6049M3604L0809K756j7781
91019B8313k9558m1816m5342j8207L7496Q5131R1361O2658L2307K0061J8158J0841p500l1277m7658m4449k6706j9616
91001G4197l7185n4158l4223J4802M4774L4027J7502L1534N8590N6755K3745l671n417J012l400j1822r520J188N552
90982B04282m339k2419l5591l5878k9087k8841l9024m9164n0783m5784l1879K437N2988Q6661P5494L4263K534k500
90964H3370N693J1762R664p604l9780o1915m4562M387M3607M9523L9567L8248M4596M4066L2224J3418r838l5199
90946B21227n7234p0946p0981m9955j0369K6156L8150K8618J3009p537l5840n1388k9436J2737K6491l374l9280m6191
90928a06143l1141j4618J135J6648K1964K0183L2290N6460N6808K0341r535P330M3982M5012Q095j9284j4130l976
90910A31421j8114m9698p2051o6486l1735J2832L5445K3241m95q910q008j5971k3975j4227m349k7728p0477p5788
90892b85073k2723M1816O8208O3490O1358O5728N6841L2787J1032k527j6820k9974k5729o97K2907K1411k780k6933
90874C2322l7188m1123m8055m8369k7323M731J8219P220K692K6011N1708M3337R857p451M989K3292L3056M4101N2574
90855A44600L3350j0223l0145R65L9496K3992m1197r5390j03304q4680o2842k8617K6608P5463Q2174N0863J9527
90838D0640J0138Q117n659k3275k2527M80K6485L7414L3275K5290K3320L0910M1456L7657P927l2611n1972l8925
90820A48140j5546l586K206J1638J0912j5798m9497n3285k3215Q049J9567K3478L1994L4290K0380J745r939k3611
90802A17922m8774p1815p3253n6389l8846k5404r600M625M758p127j1667K605K3499L0585K0095R741J9377M7745
90784f1923P1160O9893N2473M3041M5242L4746m953n3541p3941n4358j8934m07j0574l5088n0973n0219m6418n3375
90766a98149o1012m6057o653L1807N0729N8412O5893O3846M2051J5424O987J4096J4521J412j0304j1447j1354j9799
90748D03l3276m3702m6633l7359j2926J6337K9666J8627L01J290L0404O7768P8395M1733k3663o8540n8062q571L0999
90729a6809L2865J1767p023k0415l6663m7499l2051J2270N8417P5055N5877J9785j0926k5945k5888j7438j2076j9856
90711f553l6980m5579l4784j6970j1308j4274k847L0296O1475O4300L9017L266l1748n9400o3777l1415K2500N8922
90693g5859N2742J6017j8872k9046j3060J3944L1514L0192K2448K8948M9005N5135K6522k0312m7487l9468j6765m286
90675F1312j058Q699K5242L0646J5071r834k8249l7985m3655m3766l5124k1067m470J8163M2696M8529K3195j1621
90657C6724k2310r614p413l1870n7103n0922j3370L1288O2364P1597O1879M8187M4860M5787L5775K3288L1727N0761
90639C51635L6117k1567o9300o6661m8711o6793r9139q2654j8005K4945J0072j9758j6658R252K6463L3536M0983
90622B3757L9447K1342O000R736J4207l656l1779m5657n0738o4965p4603n0443l617J7498o178l6637l1990Q92K6184
90603b41200L0464K9751L4623L3286J4218j0931j9727q870J933r09m689R595L5923M9118L9559K3092J3625O114m794
90584C0181q550M118K1581K4428R151j3353l2098l6075j3255L1969O9041O8768L6771L263j5130k5495l5625m2725
90566G6965m6181n1673n7521n2508l2411n507K1622M9779P4614Q2996O8208L6742m440n2055r0786r2314m7277J2901
90548a08846M4970L9473K0317M245j5248m0447n2744m0672k5252l1972m7669l5558P121L9280L4401J6255J4594J5942
90530a61810n880l2642k2793J8039L9649K6453K0869M7810O9141N0451K6862M8146Q8775P6588J315o8101q0006n6146
90512H6720l4642j1174L0354O9260P1485L9197J300l0239o1950q8371r4006q1889o9420n5631k3030K1674L9286Q972
90494a82104l3005l0063K5513Q2119R0247N6411K5383K1440K6515J6145m248j3070r491j4525l5195m8295l0094J0101
90476d6216L8562L4672J0651m756L691K3695K9177Q622k1684l6116k7922j2063l952p198k0458m0124n2419l9429k501
90457a65768L2889M5353L9912L2843K6372J1905j0297k9178l6547l2261k0797j1198j2853k1324j7291Q248L6340
90440a23652M1466K2826L57j1087p125J4759M4844M9826K751p2824j16909j00035n2431j7864m814J540M316l108
90422c27164j4238j2967M919K9623N0372N7963M4942J9096N703J7434L2318K4537Q325K1599O6687R9145Q4676L9139
90404B52109k531l1093n4507o5930n1748k4520j7051l9069o3674o5562n2113m2544l3597q197K8308M5154K5867o963
90386b07661j9125o246O804K330j0572j2919L316L5642P6850J10457J13168P7163K4259j5700l6737n3621p0792p2719
90368e6103m8715j1497J6862K6215J8657r31k4430l9499m1242m0072m6113m8235k2068L6699R6484J16657Q9511M8192
90350G0372K8849L0651K4083j681j7673M899M6430N4822R682n1547p8292n8754j8343J4624K6600J6571n490k3483
90332G2320l0320l2756l5652l4420l1354m1025o4122p3807m8651l539L4910O6724J02487J23115R4837K2557m7081
90315G4223p8715p3447m3257K99K8431J1726l0505m1072o629J5842j4192n0881k5970M7769R2746P2467K6878L023
90297H736J457K858M205P118O56k0457l8000k9760K575L6534N2348M6820L1222J9584J4356N907q294j3653n59J4078
90277A37731O505k0465m4670n7087o2165n3806k3618Q104N598l0397n6234m2249o942J7546K4260K0973J0902L397
90259a62617J6639M6853N8170K7200k1613m7009l7962r323K5955N3574M9059N784m1317n0173j9572K1675N6531Q0507
90241E2361P9412M6232R444L016J4185L712k5429k8371O598L3395J6920j7211k6851j0950N342J2660J3812L045j8582
90222A72740k5822P6L5517L9548O462l3173n5459n9332m6572j7056J4270K3538Q791o034m907P26n809k0558k5421
90203A525r759K2637N9063Q2609P9001M7875N293k9175m5842m4940l0058p387J1847J6209N429n915k754J0333J0682
90184A76673j3578m2971m7594k4829Q52J5383K9480M6979M3678o1o0045q7363o3535j7146J2544J1392p963k2109
90166e0213j3583J2922K9723J4760j9896m2058l9430k8667k5777k7557k5565j9514j0880L70P870M166k169O397K7448
90147b01653L9095L7458M7941Q3161J13830J05090O4168K5937M324j3332l1725l9053l4429l5363m9345n9575m9723
90130F806k6688p868J992J0390K2103L4562M3779M7740M5468L5843J6768j2072m1552n3108l5802j663K5012L2001
90112A43711K3442M471k2989m8861n6475m1860j9238k521O037M529j4390m7363p2062o8997m3614j6005K080Q589J194
90093b60322j6406k4887n996L1247N8100O1564N5754N3982M7643K4619m278j4147J363J9886J6648o356k2495r826
90075F093K4932N2319M8517J6119k2277m6017m8360l2347n254K0935L2964K7129J2225l612k3337m9863o9947o4142
90057a23923l5116j0881j0238j7598o801J9656L6012L4431L4907M7256M9506K2221j6041l2327k5355k0235k4555
90040g9081k0724k039J5546K5257M2355P1090Q6824P0986M0305J7991k743l7420o9241o5071k7872R55l574k0388
90022D3156j6454J1502M0751N2523M6557L3884K2574Q848j4945m0760m6533k9845k2241m5261o7545m2599J6977M7782
90004a629K4845m072O249L2556K6388j0156l3918k6094o501O989J3721R041j4372m1217m2745j8108J682j025p695
89985h6061L304K4151L2491K2157N542l284J911J7496L0782L1557K5571K6019L1263K5477L231k2443l9201m5189
89967H4774l6580o384L5296N9075M7036J2059k1941m3022m6940l1790j1629j4581m6618p2841n7043q261L3368M6164
89949g9858L9642K8512K1001K7345N0827O9546N4134Q635k9932l8724l2486l2061l4164k7112j6397j5582k4080l0749
89931f1503l0340k1839m48L1829N4784M8234K0326J140O459K1720K4910J2272m518j5758j9339j4822j465J7519L3005
89912A02166L3661J3011k2961n4294n9578l6195n678O986j269j2020r349N211K3090M2284O1217O7264M6447L987
89894B03980l8251o6700q4167q9121o6154j3138L5320L5576j3281o3762p1397l8151J138K1949K8111L3830M1588
89877a42630M2242L2413K4332L1058M2297K8694j8139o0951n4185m806K8897Q285l8066n4426k7551P489K1044J9795
89859a14208K1582K5250J9440N774l788o777j2047k1701k3876r014J5040L2245L8038L9548L7533K2510l972j7803
89841D3774J352L7332N0103K3605j6069l6597l7636m1572n8116p2910o7278l8888m440J3983J1088Q353K8876N8176
89823i6864N1117o606o4449o1703n181L9089K9927n003j6065P184L7555N0562M2442K0385m981k1053k0834r222L528
89804c0172J0715R214p85j1276j0500L049J8924L0244L9348M3421K9652m994m1330n7207n0179l1823j1113N447J0419
89785d8946P296J4630M1031O5176N9372K5862r560l3229n0303n9435m6705r889L1602N7402O1484M4865J2238k0488
89767A42403l5944l9206n1206p0651o7365k8420J3568K2060Q201J1664M0077N9976M8585K4355J5788K3425K8735
89750A46045K5513K3930K8717K9015J2266j9181m8615o0808n6569m9450m5811l3997l053L1247L6401M992l0292l7394
89732d7044k7065l3426n9963p2910n2584k2458r628N9L7868R4154J19354Q8536L5833R735J6383K7825L0639L9201
89714A74509O3742Q9357R3647P0520L0074j3927m9528o8006o8536n9361n0358m5544m3370m1248l8397l5758l3435
89697b5619k8962k1036j3552q879J433K5419M7392L5930j1490n1234m3238l615J9798J3797Q233K2328M0639M7628
89679E4972M7337L5804o797p3762j16876j04445o5304m0776k0333K9974R2888J08004N7001o126k4152k48K4274K6433
89661A7868J5068P465J1833K2481K1507l700l8082m8063k0232K2420M8458M7612K8787P059q19J2133K6604J1427
89643A89826l4287p2631p2698m4501j2927J8262N3816P8657P1583L7179k159l7763p2397r3688p9890l3619J5133
89626i2104M2743M8311L7438J5213j810N848L0145L7518J3696j4844j8833n543j585j2442k0699j4669J917K1851
89608G2151L5829K7220j0661n0176m6071J1584P6556R2849N3990L102k0442j8538j7221k8522m1826m6003m4296T
89590E229m5472m3938m0521l4559j7512J3516M0264L8495J0859j1424o466J2505J8257M230j3691k0279j1713R652
89572i2568L5343M8202L5497O760j3548j3186j329J0136K0712L1440L4252K2477N496J399J4811K8569K0315j2993
89554A81785m7625n3737k6934N701J7423J1503N548m097l3962o7025n2063K5515J00433R4935J8383m2436l3891N536
89536A04992R732l1790q1294j10834j16052r2523m0487J1848K8082J0366n363m593r821l0427l4825J866N1263O6582
89518b73278M6999L1265L5086L3023P793j7091j0820K1730N0229N7420M7953K8046k619l8441o3286o4130m2956j3467
89500a66544R384J8178J7866K1209L3248M2216L4482J6902J1742K5593L6774K4120j658j0666O089K6215K7445J2857
89482A85452k811j6332l0632l6755k0824J1540L4937L3198J6595M558J301m318k1939m9099p2870p8212n9905k8788
89464a34904j125J7636K9595K8117L662k9617l6156m365K8149J7150l1917p4300q4176p4356o0526l8526o785J6647
89446d35797J7951J1520K2934N7965J00064J27564J23276Q0929J6901l4518n2300m7942m2751l7411j9732P519K6346
89429g7482K6952J4214n667k7707m0260l3019j3243K425J1297K1210K4698J691m3663p2316n4085p894K0203J2167
89411b40479n550J160L4964O8852P9508P1870O7706P2659O6519L4958j479j0970J999J14l1233o1681o3199n0261
89393C5457m8534m9021k7916M182J3352k031p372J2199L1162L0632K7681L6869L7546J0541j9458j6112J0336J7482
89375I6995l426j7488m748J1921J0729N315J1741J1788j7785n7967o5829l3558M846K6002M2285O5664P9314O5498
89357B31297L6670J2624j4870o2015j06972j02763m3238J7582L0290R192L666K9376N6844N9017L9399J2299j6387
89340A92011l9744m4167k7014n484L489J88q984k3349l6226k7929R930N2520O3771L6292n837l8006n2165m9914l9500
89321d0118l6378m4582l9066P240P5148J07279P7921K8966J5387L5249M0721O923l9649o0861n0108k9052j8489k1466
89303A5065k6330k0514n708J116j1466l0365l0865q527J3509J2110j0554l2654l5130j4987J5421L7174L8368K3273
89285g1064N328q415j9725k7611k4950r774R280K3081K9360K6549J0931j2530k5886j5593J0430L1869L7873L1247
89267D00J6542l278j9411k0415p702J723n131k0309k3708n816K3306M5811N2069M5164L3075J8944Q30j7522k0136
89248I4436O941N1039P3355M7012q642m6077m2743k0100m804O917K7229L7483O148n3858q2416m5762J3524K7704r873
89229G7513m1479k4695J6261K8946j257m1528n7113m8472m1477m9678n3734k3835L7177Q4542P7555K9235n610P539
89211c0110M6870O2966L1364k6771o5900n5668r054K8717K8855J1407J3479L3685L6324J0315j1807o227N187o648
89193I6984l1518m1262l4814k8087j5787J8865O4634Q9651Q6008P2567N3912J4733l7641o2918l8473O698K7414J1549
89175B52515k1026m7739n3947l2558O305L5746L7951K1745N314n056r173l296Q413Q435j0305k8235k5105j0137o406
89156A23441j5870k2239k0566j9205j5800K944L4081N2619M0626P673k2891l5742k9314j3611o356j8095l5794l2496
89138b6595P30M1373N8768M3349J0107j7509k2449j764L2254O0046O6802M7478N754m5172q5358j01647r7093p9712
89120a10638m8194j971L9914M9392K1662j8240m3417m4394k0627K3989O8374P9847N0053J0565m386J839K887q709
89102D7946j8091j9414k2997k8477j6780J8957N3201N5681K9111K576q253j5991l2728m3346k3998J7159L7621R947
89084D2124l7678m7782K05O6147R5525P4156K8573j1889l5836m1750l1250j3718k840k538m767m164n738j3757k0852
89065C2171j4584P869L4355M5742L1697L593j1307K620K8652L4349R336k4371m0793l5369j7593N878K9276M0902
89047A62423L3930J9002J2155J2626M872j8201m4790n6390m2155m977L5303M9674K7486m518q806J5395L1080J4750
89029B38859j4628k9220k9787k9120k0922M302K6974J8852q492j2995J5432L8093K4568q301l1603m3499m7385k5177
89011F5951K8176O7272M1429l0595p6728o3360k7507j0950q380q5N791m219j3659M47K5973L1198J2531l395J57J5427
88991E5474L2956N1872O5572O1410M0365J8319L297j1061k5465k7633j3255J906K002p597r548J813J4531J3064o509
88972B61513l2121m4566l4508j1355P703J4216R788j925j4662j7996r994n825j7103k7520j1066K5515M3900K5151
88954A59145m773j3842n787l107n807N515L1275M4709K8916L919L729L2804N7479M4266N2l5242l6000j8156j2094
88935B77001k3557l8123n1553o9167q0851o8168l8661k0085j3320J1752N7120P3901L0255l1133m5177j1887J3835
88918b7818O648n011J472Q287m274k3900k9766k0934m269J9644M0429L2355j2026n8783o4824k4264L1629O9317P3495
88899G407M5146j789m4705o5662o0510l4248J449K3706J0777k7783m8487j9303M0232P9458P1385L3779J406q046j744
88880B468K668l375j0960p318L123L014q438n794L0295Q1744J08104Q7201L0685l2614p6370q7031o9445m2045j9316
88861a3404k424J0081J4476J2989J8455L4328M2604K8379N245l462l32q111l1457m7117l5085k311K8707M2173L8214
88842A31948L0621L5142N1025N8459M3688J7700l226k2636m8896o7392n6675k6363o280J688K4660O4493Q0714M7255
88824C55925n438l1474k9571l2589n1837o2643m2160J704M0496N0240K8170m043j7740p143M981l66j2838j2846m012
88805A66816n439j9246k7446j9213k279J2672K1409J9088J257k3863l8133l3000j5908L328J9430K4502J0900j2697
88787H2178k3252j1017N562K250k2434n0354o7170p1010o3248m3729j5422J5861M7427P7229R4481Q3590M4755L664
88769H9361j0452L884K0323J7598J952r369j5363k7569m4475m8620l3238j4970j0054j0744O74K2161L2236J9145l056
88750b0576j0751L879K5378K9262N799k6057l3143l801L5206M6727K4851k097p505Q285K9344M5177N3119N1543M1136
88731B95776K6473P779k2438o3543r2096p8751k4881K9474M5118K6127J0891K1435L6305K2454j7131m3963l0873O703
88713A54859L0928K2153o629k7050k0564O441K6545J6656j5445l7577l0993j1154k824p130p917j866k850j6445k6437
88694D2701j2952K2734N4379N0743N412m9081o7035l7958K220J9224K3018M1948P0271P3838M3170O002j6988l4767
88676B36879n3734n7284l7595j9332k5944m3411m4107k9415j9988j6966m488J5923K5093J9966J8637K8059L3495
88659B5788K7073K1917K7154L0489J9393J962q043j2492j9564k4828j9046q092q031k1622l2562k3781O234M2997
88641B4946O4651N5568K1634j0333j8272q186k543q994j3882o119Q716K2192L4302M1292K8315p860l8097k5865K5035
88622A86500O7565O4652K9632J439p123j6431l9697n8128m5429l127M1707O7541P4177O9053N1485J7084k9088p1517
88604D00295r4750r0728n9264r280L9736O5491N7878K4783j7810n5752p4688n9514r698M7188P2354N2438J1234j9108
88586B80805k9708l2291l5106l3123j9273L228K0053J5272j2460m0044l6855o94L3030L1338M224j2286o873k718
88568A26519j5497k8464k1674l787M879O066J6851L6014M1927K6158P651M857J0759Q240k430q728j1754k6268n2467
88549A18852o7945n9597m7983o0874r0110r6911o0947l348M4121P1665Q3301P7803N6422L4245K3348J5829L811L500
88531D5182L2230O9443P2088K9882k3146n5049o4684n8997l5237p29J8958J2229p06j234o98j3315k3607j0133J4898
88512G375K2118J1643J0901K8496M0829K8480P28k2457l2573l0343j8782n941j908p742j6649k6542m0429n5087o1361
88493a69244n4730l4228M494N8968J06029J17832R3713N9371L3517J3420n386j7345k1618k7887l6833l2921r926
88476G7226J1651Q439j4549l1300k6865r056P293J5309J6499J5955J8555K5003L1284L3892L3680L2850L0185K0579
88458B96630j054l2792o1111o9600n7760m3285l6868k4402J0269N2126O6164M2346Q901l810O075K3165L6094L5947
88440B47035J2062l1944o7385o4328k5929J2038J7489o757k7159j3141L0636O5520N6926J0428l4859m5554j9898
88423A15180J9244M4598M1425J8372M82M23K629j0354k6690k3309o456m169k1129l4107l3776l4815l8601k5920L37
88404a6636P047j4636k9167j8436j9282n8822r2095n9019K0970O9834N5843K1319P330O686K343K476J5592K7425
88386g1228K5313J9597K2682K9171L2081L8399N3952O9473P3383O3851M1635Q155k3746l7059l5074l7784m6947l8701
88368A87153k536L5062M2333K0271o415k1677k6536k7245k9190l4902l9454l5238k3909j1551P364M1205P4391P5336
88350B24462M0566N442k722K607j946j1696j0403l461o583j5357j3656l154J222j311Q19O021o34k2021m2242m6280
88330I9673l2486q330J2729J5525J72j0278M289L2239M4728L4957K3733K6902L5955L3828J5483r923k7215k6964
88312B65017j8277k4039n0969p2291n6434o693M4780P4909Q1178O3695K3833j9261l7845k7140p275P354J7571J9109
88294B77222L953j2235J773M2520O2655L3798j1250k7674k3795l9797p8055r7772p6609l7826r006J0774K8049L0413
88276G7138R046j4192r691J7893L4323K0280r837l4851n1025o1352o0453m6301l3189l2068k5673J0837O3720Q4071
88258f1324N0166P94j4896K45Q300m48l87J6496K4137J1519Q949L9487P4130O8928K8055n942j4865k0188l5293m0352
88238A37511j9677M375j482l4587n9353n3382l1661k1099k5360k6112j3531l71P22J370K2184N6970P3449N5864K6950
88219I2780J5213J8788J9219J3785J0351L428j5279k9851j5866J8189L8187L6038L8478N4907N5095K0073j9597k7258
88201C26680j5381k1243m5685n5845m0586k3051j6069k101L0619O0248N6554J7905k8988n5173m9054k1665K259P406
88183A26830K816M781J1674J3184J7256M0567P2150P7303M6295R967o380j5704l6585n4913m5437j3724J0567J0843
88165B71490q684l9116o5981o4839k7083J6246K4665l97k0002j0644J3667L0531L2373J9405k132j1205R067L7597
88147B04958L1981r756l6520j2420L2163M4415K0603J895J3301M0558O2416P2762O6257L0973k9246q1030q6891m2865
88129C23554J5278M2863K3641j9220m7684m5000k6111j4073j4697j7624j1875Q272M3586Q2537R7707O5665l281o3086
88111D40452o8687j8215M2143N9943K7170j4371k3543p465n256l1815o1773p0512o2416m6183j1239M6355R5259R7519
88093C87366N6989J1277j8853m3987p2693r3458r4830p8351m5289N140N5695P4153N2050K2067K0001M2491N8569
88076C38337N2318L5997K5717K0855J0402r090k5976k3863j393K0953K1973O785J157J6686L4919L1932N856k7718
88058E35847n5154o9248o6524n4087n0488o4082p5314n6238o618M3024O4924N8037L7449J4544m961j4115q393N498
88040B34101J3149O514r976k7685m1686m6583l1857O364M8236N9096K5601k5758n8550o7880p5707q9022q6374n3027
88022b21044p718K2125L7001N6290Q0496Q6947O5946L9774L3901M3238M3157K7884J9292L2941N0727M1448L266k9865
88004D25806k6913P324M3088N6973M3601R023l1439n5908n4548m3488m3913n0276l9466j1786K712j1894l0966k3579
87986A64351M915K5344K7393K6810L5079M3524L8608J6928j6070m7568n6319k6887K7624O8461O6804L2325P10l309
87968D28723J4699L3079L8732L2710J6379j4983n7410q7382q2685n2909l0888k9330k4890M115M2456N7874M3372
87951C31662J9872M573k734n793n350p567k1242m2757n6926n5365m3362k9101j7439j1763q816M113L0307M6963K9798
87932A59073p736k6946j8771j4564l0708l7084n946L6395M3786J9789J1131L3752M7029J4736m1261o9879n1184m592
87914E7020M6830R1353J13201R3010L4905k5123n2622m8315l7627l4683l1375j9713p904o522r620j119K3164M9415
87896B34275O1484N4872L3957L088l3857o7867q4728p3771l7909N484L6345M7196M6466M6039M8395M7989M1252L0221
87878D38931J8528R235N119N109J119j4787l8730n5876n4673l6016q682J7589L2752K7896K360l2535n9332o3034
87860A94973l7518O901M0969L5546n373l8368k2373L3666P7896P2389K9794j1786l5104n0086o3669o5858m9812k7615
87842H4572j4125o288Q365K9018M0953L4945J5591p301k3379k0322O341L9897N4082M2487K3079J0710K444m255r8
87823C16716J5912K3981R465j3795k5342k8286l4689l5270j3766J7059K7581J7160J2420J6922J938l9509o8625n5709
87805A44163k6703k2724l7689l4371p369J1975J0425J1366K9353M1423K2920j1985k7962j3547J0894K3195K0453
87788A43817J2293P023P211J1562J7677K3356K4332J3623q831k6194j7818J1347K8684J5196l048J2983N5424O9179
87770C97816K1401n1705q6387o4458k2019N036J5127J9658J7834P425p06J361R88j6979m2230m8196k6174N599K4270
87751A57661J9432p008l9387m9307k0299K4568L9778R412l4971n5427m7771l0322j2395P473K4835L1631L0760L2840
87733H1503M1345N2140O1382O1303L7000j3193n8268n8706j4632L0176M0993L0156K8037L3272J7638k3104n2028
87716B95014l7815Q32J9036M575j3256j4195j6606m0623o6719o0623k7258n120o342J811M1483Q1114P4005K2087
87698B51400k8172m6564m7358n4227o2604n1698k0707M959M842j0127j0828J2545L7032L7770K2928K2469M4605O2350
87680A68615M9371J2377k2308m0315m3857l5451j3802J5994L9028L9444J3295k0955k8163R763O2869P7496M0993j156
87662C23238p391O893K419k2299l7487l4531l1264l0149j3296J5547K4013J332j7308J982M3641O3805M3775L021
87644C35941k9332l7826k3533O8J6450K0370K0025K1808K1563J5354Q297O204P241O792J592j3311l8872o0190n6475
87625B22166k9814q144j0604k5193l0913k5064j4771K201K8896N2210N4320L5852J2477n323j4606j0794M967J4821
87607B52684J472k3986l1148r516J9413L3256L2989K7243J0762k3609o0426o9968m4452j1478k683j7204k7798j9395
87589C6156o283n948j0741L48K9616N7334O8221O3977M8729K0944j3808l9446m8588n0475m9756l3492N589M6607
87571A18984O0256M3032J4601j0992l1254l8020j9333J6537L9190K8571k333k5273k7809j8638q993J952K3263N7535
87553B21276R1704J05461R1054O0503K9742K821k0957l3858k8554j5329j2344j8171j3380N101J1252j4662n3314
87536D08345o7775m9990k6204j8210j9263j2684L904K3038M1399N5279N2726K7874k422j5463j4776k4302m7804n8586
87518B55086m0719j6181j0957j4802k463J9990K4432J0530Q456K6875L4433P761l2161n0527m0980j7920R838L3884
87500B04575L4965N817k6299k6569M303L5530M6407L8860J8695r375l1427l4307k6982l0911m7956n6560m0109k041
87482E6616M5141Q6715J03674Q5340M6258J2866o329k0075k8849k4072j1697r577j7396j5002L085J6913J3383M276
87464C41270Q14n835k4220m3594n0487m6566l6182j4365J7412M0702M2058L1315K2754J2803p102k9202l8743l4489
87446A78343k4919j4053l768J929P360K4899N0221N5434K5657j4069l0029k2665j4448j0759l057J65j8866m9728
87428A37647n7184k7903J2761L6909M2435L8040K4202J480j9473k7877k1968m335J8014K7977J1908j7176l0841k5178
87410A19438k5455m0399l9067N028O6757R4337P2145L2615R096K567r36l384J162Q187L978j6267m0179m9509l6004
87391A64110o021K6345M7573M8973L0333L741j1104l804J3640J6447p490m3815o3261m6043R47M6491N8941L5384M559
87372C15946m851P191K3718L9970O1499P8303O8137L2417L525J337L685j8842n5130o7203m3890j2823J574N312J2071
87353D51946J7020R826j129K827K3058M0894M2389L2109J8801k97l0969o3520p5711n8465l1009k1605l4683m5985
87335B75497l3414m521J4756J4358J1768K6483N1907O1124L8580j591l0862l4661k1394p011K198R816J8301K2861
87317D14195J5082r262m3302o8168o5244l5754l332J1832J7576L6012O6380P9062N4200J0994j5496j6854j3510j9455
87299D14956k4516j5401K361J3321J3093J0052J0950J3735J3358Q792M465P005J8167K9597L0088K1370J9011K9891
87281F20295L5659J2055l6473p5784q0227n9530m0075l1155k3385j3562j2745k6397m0542l6656j4431P158R420q182
87263A85443k7285k7312o084J8246L1102M0689N9408P1201M3545j9347o2561m2808J3635M3774K6986j434j0633r606
87245C26959j5089k0880j7643j3903j5097o497J7838L2033J4869r325k852K4037K5642p031l0156j3983J3700J2060
87227C14682j5977l8036m0624l3763k1758J90K5220L6865L2885K6837K4480J6731m89j5649j7182q413j201k298r515
87208B72985j5066j0837M235K1749L3429L9665M1797L2242N480k4184l2141j3218J2516K7282L4010M0914M3721L5873
87190E50452K5336K5848L5953L9580K5905j300l2090n7730o9918o3805m6381l4253l5737l6839j2678M1843R5061
87173D49247J02330N4159n657k2533R705M5800M6146J8076q415k5570m6534o9922p3478m7736j5206m232j4400j8564
87155C73216M907M8442Q1569P8022L9182p821l6316m1937l6239k6861j4963p048j2335k5048k4096J405L6013N5280
87137D85372N1643L6139K1436J1531L461q282k6126m2627m3278k2230P132K2837J4600q951l0554l8820l4226k2536
87119C76521l644K6486N7755O1486K2553k8027l7895K271M2807L7076k536l0340k8959j7414j0340k483P119N987r230
87100D69193k3987k7681k4977j8151K259L8701P4340Q9888Q0088M7438l303n5152q1923p5616n6447m1579j9711K4510
87082C97890P3553Q8511N4400m032m9708o1294l8554J301L1265L4152J8330M781L84m898j8269l6060n2937o3811
87064C75004n8954l4691p677J613M79J6172N1792P5916O7359M4655L2491K2607m891l7747m2120j2589J8578K5339
87046E33336J5731R967J3959K4626M1213N6956N3838K1317k7242o7669q7179q5457o4987l4221j2530j5335l4559
87029C41764m5568l3773o100K1651L8827M2886L9202L9126M9386O2184O2831M7431K6327J1627Q388J4367J8528N132
87011G44216k5776m5758k6728J5983L3257M057l6209m5221k8868k2048l1936l3711j7251l161n974j1205l016Q482
86993D69133N756o498r930j453N114K767L33O495J6456J8874J0527N35K57R316J5384J2390J2676K7809M0923K0436
86973F57300l1363o6689m7773K592K9618J5127r072j2431o01O995Q127J1088J4524J1176K913k236l146m598n931L79
86953E75999J8873M3231N6989M3848N714k9430l0641p58K2370J0068k3422m2788l5469j7174j534J4796L6117N4956
86935G01745O1260N1864K6846j0948m7233o0735m6554k5774k0348k5202j8202N952K7526L0566K5890L4432N4299
86918G65384N7783K3898l4699q2447r3561o8852k6210J4323L6174L0703N339j8888k6772k3040k0566j9888j0637R669
86900E17713L1299M7567O1628P4073P6812O7051N5787N0801M0108P496l9252p1975p5397o1685m6852k8109K564L2739
86882G42368L6841J0969j4865r005K4395M9884M0283L223l1654m3161l2850j6758j0137j6684k5616k0182M910L4837
86864G26798M8689M1975K9161K3851K3477J5859n223l3491n3573m9097j5383L1046O1638N9895L2393n291m3724p5205
86846H13795q6307o8255l0429P021L0532L5848K2479j081j4449n825Q391L938j3077j1119K0562N5008O5608N7038
86828H89678M4353K5223m753k7748k3104j834N701p188j8993j7761j5561j9406j4513Q960L2526L1897J2176K782
86810I02435K0100M7993N6244L1979p315k9516j8659R236K4361J5181m180j4941j0532M955J8122M840m9816j18695
86792H81792j40945q4680J0629P6072Q9145Q3126Q5506P9751M1089j5137m5785l2600j103J3787M349j3384k5367
86775A006245k8824k2101k382K1526K7628M961k5996l1778n806K2837K4721K800j6557j5315K446K1273K9105K4653
86757A039436J6843J4004J1400j977k0516k0579N866K9322J3884l5258p4711p1585l1570K0697O7449R7863J02246
86740A162814Q0656M8351K2317P042j997q784j5351k1317j9804l265K0354K7545N526k7953m2182k8839j0326j1039
86722A183748k6634k7719L898M7342O1530L5136L626L297K1504J6081k1500n2767m7300k1182n211o39J0582L0055
86704A213847M3624M7722N0801N3992N1811M8321N1783N4630L7988k500n0563q8273j06709j00624p0663l2277o747
86687A196163k30k232k376L735J9514M1095N0674L5787J1267M66o06j2824k9809j9134K4389O1640O1824M1402K9777
86668A510522K5204J1990l061l918J754l610j2048j883K1502L0670K0874J6347K7031L0638R959j7802k5393j1580
86650A627196L169N463l08l526O44Q394J2813J4074J9759K8193K0558j3914n1851n8580l6515k3625l7545n0524l5620
86631A428255j0430q259k3333j6835K5670P0494P6549M2901P145M951L7382P4705Q7952P3515M5159J0734k7438n2317
86613A846800l8607P870M0181K2235k3745m6212k9893m145Q116J6114L0051L6311K1178j822q663K604J3075J0287N92
86594A902327k524O886K1283K3612L812k3850k9482r70M1003O9185P8649P7303O1877K5675j5685l2431j9372m533
86576B182765q878j6358J39L6452O0764N4209K9380R676P738K5898N8393Q5275Q2317N1186K5652L0065M3049K5442
86558B783164k1891n6512n3182l4507l0448l4966k5213k943J1403J2998J1376L321j9937m0148k3260K7484O3054
86541B569793N0538J5278m27M879M420n270j859J9129L2415K0370l886j9411k3089k2810k1896k0485j9029j1055
86523B567605J5268N8234R5912J08744R9802Q2572N8818K3418j4793l4700k7982j0241k145p365j3447q151R861L0931
86505C032341L8994K1063j7811m8680l9052J2529O7968Q5897O3969L4371K0103J4238P449J2576M1296P1892O9689
86488C488832L6575J0851J2201J5460o715m0078n0191l0772n544Q656J5465J9604J9162J9465L2137N2932N8225L3506
86470C689771o743l5586m0320k6704p246P261J2497J3572J7753K2338J9113J2293J8278M1346O2864O3325M3944J8464
86452C926220l347j3679k965K6038N1288N5631M9862N5346P1829Q0496P1585M9521J8835j1522j7394J6088N9594
86435D483426O3482K4430n689P166L1152J8761k3597n0640m4488k7599j6947l241K0555M2641N4640O5104P8656Q2288
86417D800100O6520M4421L5538M2044N2251N6978N1282L1605N905k348K1942O0660P8750O6903N2313O0981Q3800
86400E609645R2017P7003N8225N3252N6536N3496M1324K5725R604m74J2679N6217J04787J22928J09859R5420Q8119
86383F666362O1349O419l6358k9688M875K0719J5785K4260M9986N9243M3154L6950O0268Q2065P1058M5718M2267
86366G224432N8655O4210M8604K9136J8893J6568K3107M2535O6894Q1265Q5029R2243J10223J30702J42486J43187
86350H378169J38602J35808J33922J21279R1815O3171N8841O8672N4548Q248k6809j4949J9564L2986K9989M7399
86334I341255Q4514R9727P7882N4126N8322P4510P3625N5802M0281L6700M4882O4664R0070J08847J19322J31802
86318A0556331J45155J42800J22967J09833J18454J30650J25967J16354J23853J38599J30028R5462O8188P2819R7139
86303A2294599J18140J36069J64648J97082K04193J72856J31397J20047J39804J49993J22976Q2181P0526R6765
86289A4201276J34702J63479J79889J76132J40217Q6827N8591Q1289J36977J91237K25620K33396K10642J71740
86275A6392014J51948J69975K01726K12703K03203J97871K01756J94958J69134J43974J41622J61951J90117K16724
86261A8949676K41941K63829K70309K49624K12249J92773K14035K52220K59217K24058J88919J93731K27712K51760
86247B2192053K48340K29244K11240K06600K24878K61803K95281L09842L13528L15106L04057K76942K63110K89646
86233B5941670L32747L41749L07959K73509K71035K90002L07975L19612L22552L06987K78073K65153K89357L37413
86219C0185793L80770M05185M11252M04558L99011M12065M39922M52163M28470L89008L70363L80961M00180M15393
86205C5875094M36369M68895M94162M88971M59035M37227M45509M68994M77267M65498M59060M74859M95439M93469
86191D2439848M69897M52053M60298M91235N28821N57132N65622N56114N43038N36254N30715N25114N37567N80308
86177D9774016O28123O41130O17470N93985N90983N87099N60491N26948N17371N35406N57350N64603N60648N60671
86163E7816294N73862N93145N99844N83829N57066N38144N28442N17659N06259N01956M97834M78565M48187M26817
86149F5167903M19824M17740M26243M61523N10608N34660N24089N11909N15650N07814M69001M27888M11955L95963
86135G1702770L45360K82363K56856K68848K72487K49105K23967K10150J86722J44130J08234J01995J15797J30280
86121G4599064J39569J38572J15606P3135L1598j199m0216q9247j23533j26505j21698j43830j92369k35739k52283
86106G3770925k49052k48954k75130l37733m18002m73198m76545m48537m31916m39815m47571m35545m18755m25007
86092F8245165m58591m99427n32167n62065n99452o38795o62623o64106o55060o47391o36672o14415n89396n81108
86078E9903897n93412o12274o33082o70073p25704p67801p59638p07918o60178o52418o75793o98649p03633o93313
86064E0350011o74247o52295o36593o30927o22248n93842n53332n32810n52469n94118o20558o15109n93203n79908
86050D1898352n85247n98830o01172n81863n50852n27319n14968m99301m75680m63727m78394n01545n05328m93472
86036C4520654m91676n02614n02392m82604m62169m50126m31252m02653l90719m09745m32813m29788m10063m00728
86022B8321312m04835m10643m20187m33964m25581l72346l01615k66750k80452l08967l28877l48193l67879l65954
86008B3285069l34855k99952k84036k81784k83680k95053l12719l10962k75151k28583k02925j99753k04002k17802
85994A9553812k51953k92338l04037k72325k21315j87014j82232j90489j88150j71112j59944j74729k07041k27867
85980A6523266k23293k06716j92620j78282j61450j55872j71067j90985j93642j83505j83639j99030k07761j91190
85966A3884214j57808j31890j27339j36860j41723j30027j08286r5066j02124j24185j47289j61269j62012j49376
85952A2008960j29061j12959j12750j32379j63325j83366j68130j17660o8314o1302r7453j37772j49330j33222
85938A0241937j06658q1014o4884o5561p5306p5880o7687p2072r2187r8787p5675n2567o3173r1648r6449p4453o3190
85921H924746q2571j09808j16165r9418p4093n4299n2086p1031r5228j02043q8026o6536m5462l0271m1278r2498
85905G703933j50942j55609r1228j1711K4762J3234k0602o2354r9257j03107o6082l4334n9804j24693j56978j23293
85889F481935o5372l3537k3511l266K6329L1489l528n4012q5910r0820q3642p7427p0941n8910m5322l9333m0342
85872E763880l7863l0713l3951n4010o7235m4403N163L6971K4640j1654l9499n4341o8003p7249p0129n3585m7355
85855E140664n2614n0933l4681j4837L558K6909M5916L0913k6388q6152r9083o2924k1291j2648l7591p0993q7641
85838D590184p6272m5043j7843j6237m2343q1775j16488j28667j04698n1519j612J6818J1491J0703J9979J5882j4351
85821C968209m8828n6717l3599j392J7320J7153R071P175J3206J5682R253N852J3069J0967k6068q6156j23833j11607
85803C598757o5609j6821J6490K0676j5951p6633j11773q7278k3828L2108O1265P4109P6423O1565L1740R90k4310
85786C551920m9177p3180q5034p5571m6967j2250P811j988k9160l7141p932K9041K9723j1254n9177q2305p4374m2921
85768B930064l712J4610j0195o2193r6570q8984n8398l5202k5628j6890j390J6435K8617L0770K5734K1791K0621
85751B689480J0048j9402n3600o5926m9612k4026p875j680J938P048J5899K5651K2016n332l8061m1193q104K5937
85733B483206K6130k340k8658l4911k6807j8044j7770k6123l2944k7986j6934j5245k1778j6758M481J6690J866j6444
85715B229631k006L9443O2442M0671m18j8983p617M828o643l6254o1614p3731q3469r9114j08412r1963m9998m263
85697A732530K6554M0985M2294K7380j635k6563k9883j9165j9554l8722n1779l1479J1694L3998R718l2414l9679L3
85679A634313M3676M9365K5407O467J058q559k4642k6863r266P096Q041N814J2280J7128Q786m424j2087k1159l6920
85660A675511m1952j9566J2692K0246p70j7457m932K2695L3435J5998j2455l1183l8737m6922n5337m4097k381M5242
85642A510030O1484M3914K6222K8107L0891J4841p275j4464j1644j4070j7141j0565p064k4242m7429m4652j5233Q910
85624A510620J0397L066j472j1817l2409m9682n4311n3239m8632k9175M284K8241K8655K3042L1471M3562L6287J1168
85606A450056r746j7559k3848l6468m6732m2538k2258M565K1426J3252j8849n3317o7225n5899k6843J5256O2052
85589A145325Q8324O8811J2442l8455n1202l2523r594L320Q085O001l615j2060o441R537J2926j1746n0023p1275
85571A067837o3371m5268m2139n4216n8253m0039j5502r955k0468j4609K5859P2738P9024L4808k1379m8807m4828
85554H01432l2237k4380j8530j2358p072K944K6076N7082P7481P4552N0900J7221j2380k0829r54K9822M3263L2199
85536A084232J3566k089k3213n1829o7869n4621k3222M963K5702M3091M7678K7427o955l1489m0209m4481m3934k4831
85518H31917P838K2908J238l6979n8356n6486m9956m9707m7175l3722j5444k529O963K4649N5134Q6907J00970Q6953
85500H75123N1241J2298j1104j1834m15K389j4869m1982n9169n9643n2253m3497k9536r212Q435J7351K4418L7178
85482F94919N0830N6699N4907M8678L5217J4405j562j243Q622J2026N410k531p918j3652j7195j1613J392J2731J9151
85463I59273K1607J2114k0207o5704r2903q0963m5170k1102k6300m3596m2889j6941R003P594j6024l2985l1816k8629
85445D44362k9448j0642L9758Q3601P0605P352m5368m5036p698K7209M2404M3589M0599M1787N0164N4742L9926R299
85427H57205j5391k1629j4239L898L2933N3236L3867k0054n6956l9215O931K6035J787l3730m6750l2685o940J2657
85409G40960J5755P051J184J269o488k5288l1659o803K9989M4208L3365K4992L2975M3924M5938M1949K9741k891
85391A020171n1385q5814q3922n5980k4528K600K3287K3246q125n1227o9674n1214j6584J3486L8236N6146M7639P31
85373G27089n6863p7180m6303L03K2351J6012J562r872j7679j3825J0145M0420M9315L0718P780k98j94m863j0445
85354F68173o957Q35j322j7621l9280n4467n1300j9983L2941P6041P4072K2436m5315q6189q1945m8346j6022k212M70
85335D04009P003J5982J1213j3099m0115m7702k9251O016M2578O3472N8512L7370K5055L4103M8717M6097K5564N064
85317G00588m676q678j2498j1807j057J4569K0848Q503j4636k8245k1303p218q796k8389m3622l5405r633J3001J9340
85298E40886J2046M886J2870L7316N8489N4184K7130O92j3091k3329l5653m0181l2446k4120k0261p939J5693K5425
85280E92597J550l4165m2389j8737J659r623m2272o2427m7840q124K3277K1459k685j7258j1362k610J282J8694N4989
85261D16015P6464N2320L088k3561j2488J1753K5436K3822Q152j5441k9083k1726r415j3525k8144l4723l6930m9095
85243C42919o0493m7887j8031O29O342K3674N2539O0533L7126J5855K4205M3258L7674K041l9965o3373n6270k4985
85225C35791M550P283j2794l0760l5244l2125j8640J2899M4910M5808J8334j236l33l937j8242r322L6120P5112O9598
85206D87772M3790L8442M2086J7671k6260m5205k9123j2697j6763k5517k7714l8700o7238r1912q6925n0420L322
85189A14609N9206R7726R6300N2225m458l5626l1497j5612j4850k9846l7406k0345J0983L1050K6719L923k5363m6613
85171B31125l9409M189N4754O5333K7048j7695k9637j6962r484j2837j1636j176R004J3791J5120J2939P052j425
85153C00094j8919n2992q7596q7821m4499R333M2564N8635O5119M7719P846r482K6635P2103N9180m454m4179k2946
85135C16340J8205L0435J5415k018j3294j6158k231K2266L1554J5565m656j1927j6020k4710k0134J1784M8818N4436
85117D53670K1661k2186m5430l5258j909L0219M3965M4582M2361K6500j7722o6786o9994j5537M6939O8481N5833
85100E59389M1906L0991O127k8687m9697m9331m1997l8156l6907m0148n0630n7937m7811k4597n380O199J9716L2501
85082B25551K8374P869k899J2732L4034K8261l159k3007n899K7354L3341l202n4233q1206o9403k9080J9245N1188
85064A95861M7463J4049j7123k4862k5178m1024n8851m5838m631K5044K3538J4793K1633L2397L1564L2461N0895
85047B72191O7586M8744m560n3205o3740l8732p410J581j6956m0874m6535l9994m5551o1148n3931j3242K4073K5991
85029d5712J3757K4535M9555N1499K9273J9440L5586N0111M2828K8536K3812K0257P395n291o972m570p175j0292
85011C16572j0016j4611k7146l4285k7840j9546j6602j704L7140P0845N6014l366n1307m5617m078K8905M0138M8211
84993C41707N7910M6371L158m0966m7124j9645j437j9015n3067o8876n6761l1404o868J2116K3516K8004L1079L4444
84975B33142L1056J7898M565j690p731j6575j1480J8754M7856L5021j9148o6842o9824l8032k963K2610M2832N6847
84957B76296N9763N5188M9200L7965J5304j3150l6420n3623o9448p7983o5872l3341j91J4365J1633Q966J8312L2605
84939B29569L4105J5570r602k2161k0477k2758m3766p4598q9156o8545j8909L0830M9808L1025r73j3057M359L1732
84921D2996M4356L3691P165k0258l2196k2390n954o346k4245l3127j5395J2277K4494K3180K6265L1020J7743j0838
84903I2438k5638j7275j6986m9963q9015q3961k7840L5547O8488P5018P4886P1453O0753M8629L7338J2617l1520
84886B34969o8197o6150l5434j3753r160Q424N0948Q3899P4480L8521J1929j905k2807m6145m2793p081K7968L2291
84868B50004J2413o069j0994p952n468o160o468j923K084r807l9225n6812l0788K6765O5970N8250K7218J1092J6802
84849B88932K6384K8334K1259Q68l2139n7195m9678j2471K5229M2102M2382L6283J8908j9101o6581r2173p6305l7453
84831H7585j5272k4116l4337j0945L7277O5042M5441j617l9344n2113m4041j9348J7167M9809O0448M6708K2866N727
84813A96937M125J3957J7159l951m2647o8446o1311l4414j2666j699P850J7761K1685J8423Q526j3596m5409o2683
84795d0399m2971R23L2946L7874L2043L0829K9013J7517j768k3627m3059m6704k2006J7973M0666L5692K9627M5503
84777A30072O7546O5231L6912P380q864j9977l5932n4268o7094o8074n2491k3173L580J0472l11q977k016J4472K6332
84758B0820K6881J8326O138l242l556Q487L1849O0193P9066O9775K6605k9817o7147p3273o5325o2197n7439k9867
84740d3723K2660P1582Q2819M8050j0571o0188p8129o0929k3605R360K1580J8800K1017L6846N1908M9530L6498L5259
84722B28764N0821O0124M1644M869k0843k0877o796M768J1480J9187K6100K2095K610k1898l2556j9469N457J4894
84704C70374q834n2631q1141p1118l6228j4007k7183n8842o6895k5542M4971R2110Q0571K8365j3353j6786k207p43
84686A40881q656K189L5781N9789M8370J6003m563l131M423K185j2570l3820m7722l6729k428K1419K215m5157p0002
84667F8477m8586j0450P317O038P947J5715J6228J1847J8546L5038L9146J9770o308j6474p712N839J0155M84j8264
84648A54753l4339l6648k2900O56K5140M1594M3726L5459L0357L4532L5894K1691Q93n972L407R890L36j6858k5939
84629B95672j9628O44K4667L0754J340n0335q4319p4876l5482M790L4326N5622O3655M8598J6470j0692j8119j1443
84611B71644m773l880l765K135J3326K2059K1315J0538r569m2521q5726j17341j10876o9221k7955j3082r206J3863
84593a43035N3217P3517N4007J3600j7349l3012m6840o0607n6592k3647K1598N0335N4781N3494O0674O3920M4859
84576A62920J2753j615J4771M1918N4612M7881K8621J300k4761l0420p849K2331L1967J7625k475j6543k7440l7639
84558B87957m4160m7767n1692n1325l9840k3878j8334k3864k4053q001J7036L7538M5239L5253Q413j9753k7202r834
84540D1733J3719K6499K8450K2277L103k4576l6629j6250J8147L2661K0782N313j119j2464l7698n5298l8303O454
84522c199M3958N2110L9276K1588L198j3511j7231l745Q635r02k4606l4546k1721o347m360n123N616K0013K4229
84503H3332K5999M1401N9856M9292J512m9473o5826m7879k5243j6811j4549k650K1790M9105O6936O4450L5046j4722
84485B61566n9666p0495m1810j629J5334L476j1661o185J7161L8325M2611K8128J311k5057l6025k7176j0339O29O042
84466A24540J5827L2908M8253M9785L1879N84k7320l7793l5600l6775m1458l0266K347K8602J9393j5899m0696l4078
84448E4233m855K7832M7757M3941K2273R097K0659L5277K1514j1277k1872J910K3519Q610l1587o0991o1699m3502
84430H0839k6488k3782k9412k1301Q711L2532J7527k3566m6133l6677k3933k2543j1496J5301K5292K951j4161P639
84412h8700M2754N0629M1431M6832N3324K5043k1847l2049J343K3390L406k1312j0051K0671L1048J6135k440j6578
84394A63029l1656m3970m6423m4815m5404l7789j2566J4123J8014L733O74K0399L8867K8764m639l0824l0366j2341
84376e3190M472J5603K5889K7473K895m3035p3421n9370j8780N886J916m921N986K4161L1678K8754K3611J5280J285
84357c7828r944q039N724K3455M1047N4334N2888K9091q270l5781l1972M649M8746O4639M0994N488q024j018N14p086
84337B23607Q66L0500M8115K4236k4407n8581o4266n4274l7518j3209J1629K3387J9336O447j2895l6414m9427l8784
84319a652j7498j2984k8570l8654k7772j2566j2798j8648m804L1968O6998P7532O4521M2832K1333o19k2783l8820
84301F7016m2878l6965k8469k1359j2599K146K0562L2572K8338R095j1098j8352j3980j1240j6691k3100k3171j8043
84283a18216n634K3780O5605Q9377P2109L3762J2530J0436l664l6391n4872m2795l2042n1225p4324n6752k138M4775
84265a25679N9163N1917L2639o43l2276l1499J308K4287Q720k3210l5281k6938k0230j5821O487M9291Q7158R6334
84247A05727P5314L5058j1835m8854o1626n5317n2292o3358p2838o2157l6952j6931o023J1001M3419Q0439J03668
84230c3557J01541P0824J9566k5881l3850j078L6785M2838K0352J986L304N792j1504m0015n0891k9846M795J9621
84212A00782J626k5926k9942r000O072k350j3534l524J6677K3775K3916L5739M4197J7395k9885l9413P447N4792
84194A78844M6711q04l5200m3256n1742p1890q3901o9720k9862K6060P7937R2349N1574j6152n9569n6182k3078J4434
84176e3447M1366M8750L7689K4355J9640J1730r032k1940l494K8168L3217Q741j0837q879q20P305K8158N1732M2179
84157B74581l907l8443k7023L810J3737Q233J4400K5283J2377k0286l6683k0939N001J7460J6200R222k912j8335
84139B31776k5977j6369O703K9150L7067K5409J54l0621o7464j10993j41794j28760o9968p776J6397J0363J2770
84122b29933L5417N0799L7706J2743M035J0352M111k8067o1531n8050j1981L6830M3904R511k4424k5500k711J7362
84104a79427K7400L8357N4543O7377O8594N5655K8401o427l1131l1138j2340N776J1757O752p450k9728m9100m8766
84086c0895k6780k348N433j351n046O133K7743M5987M8286K9264n059l5700m1168j8585P979J0540j0496k7995k4488
84067d8546j2417j0440j5371j2596j769O553J1562K0963L5880N3951P6789R4326P6958J3436n5703p9741o4237n2240
84049C7358m5880n345O4907R5379M9433j5714l2532j9933l8651q4492r3284l8575L7663R0336J12692J08441P4257
84032B96060K4479p678j0779p310j4390k1575j7929j2352j4726k1749l1437m6472n2987k3518M1766R7573R5596L2822
84014C05394n1638j13329j27266r3307l3231K2491N3934N8755M6014L1583L1345M3401M3126J3212k8169m8625m2880
83997A10810k9749j6800K520K1794K4484J2998K458j2742m8141q3278p1733j0360M3984M7615K2674J3108K3038K7288
83979G9968J4253j1062m2447o3656m8237L110M6988M8327K6286J9751K8826K5772O512p886j1152j5288j8674o655
83961G4736J5521K2572O582j2229j7189j4987j8331k7616l5254l4958k4443q326M755J5318L2926N3391N3798K7140
83943A13406J713J579Q073o715k6090j0906L3001N6587L9550J5334J3449J9402J1068k482l296L758P595J4948L0729
83924C20703L4394N326m0848o9474p3348p5891r0113r8259p7525l0502J6397L7652L0312J5987J9737M2469N7797
83907B4814M0964l287m5461n8478l6817L340L6709M7813M2924L8577L7029K3941n528l2811l9111l0999k8586l5822
83889b0789l8309k7125r146O630J8650K5456K1580Q254K5J1128L6872N5107M8051K0180o987j6349q918L487J3649
83870A41446K2045K7787K5559J4053P91n876n287j566K697M726j732j9582l8651m1256k2346M26L806j3169k5172
83851F8699j0021K1536L4396Q721l7504o9555p1211n1946k7111l594J6547K9904L2851K3860M687j6720k8306k6142
83833a00909k1028k4260l0939k8667j8243r744O69K9736P6639J12393J12324Q5624N8393L8276J3223k0334m7092
83816B26061n3302m4070l4724l2980l4757l2693k3786j0347K845J1289J2395P681M586J1317K4621K7508Q956j7226
83798E3374k7359k1991k5700m5070m9072j2239L8399M9793J3469k1619j4883J6193L0772K5262K9723N4342P2475
83781A65869O1462L3285J2340L223l100o876m481o859k9710o5040q2622o5192k7381N028K0048J8738O540m359J195
83762C2108K1933L6332L1560K3687L2134M6420M2241K3299J7832L0993L0768n073n1925o9228n3873m0083n1919p7040
83744B0166q8389p3796l8396P299M9754P0490N6922J9447j0290o530K4717N0992M5537J1579k4348l7681k3626K908
83726E6755K0399J8734Q567Q584K1563L1182K6072J5009R523M117j1914l2946m4714m5966m2861k8316P250M4012
83708F5050M0017j6514q1439r7069n1596J2513M1628J8517k2643k6407K6840R3728J13267P6800K9797N028j1103
83691B16414l4486m5318k3773O058O664j5254k1108j837J2451L975r466j0091n622o558o401k69J50j1901k0717j0236
83671B2675J1673K8730M1220N4188N3109J9826k8313m3719n351M7839N7216J0402m8577p2359n7050l1155j3120M174
83653E1408L0167N4845N8046L3670k284k5809k5077j0208l429j4698k8639k4276n388M440k55N675L9507P7257P9979
83634B94931M4180L276j8481l1046n3224q1069r2422p4797m0873j7616j9895l3313k8812J439L2959M2007L6120L5874
83616g62L9682L1171J3680P308J1049n00l3301n5618m0294k698K2786K6229K1219J4638J706j4716k2119j6507p182
83597d229j832J519O639J2515J5588J1759k854k6076m5000m3637j7332K1654N1941N7166L8096J2439k071m227l051
83578G9007P67J3014K6671K5179J2374J7448N3827R0771Q8396M9618J1951o714k5321n8433q5674p9298m5770j8983
83560A48830j7007k4852k3938k1421l4658n3832m3380R655O7158Q0442M8956J3498l929k0333m5910n5705k9935O590
83542B29J6838L693m024l726j8742n0130o7002n0557j6382J4080L4813L9692J6066l0791p0673q1097o7735m2568o764
83523c84780L0203M1934J9169p714m709K2712M4635M8013L7876J3634k4523n5389n5163l2492j5846r431O578L2405
83505b92888M1307K4262Q427J5703L1129L1102J8866J1438J2402K0462M6310R3289J33190J30132Q4757L0777r219
83488D31446m0022o6652p7973o6175m2521k2383p836O059J9002K7268K8158J7304p290l2852l7103j5792O245L000
83470A21883k2939m9689o4675o8064n5527j9662K9004O1212N9165L7254K3718K8493L8204L8724L1912K7207K3772
83453B39992J0026j6237l4777k2507J1240K2901j8047q6151j20721r1068k6620K2060L6905L6145L7012L4008J5547
83436D9708j2250k8546k2110n459m88j1912k2074j6292n337j0784l1422m1328k5841k322O679O698J9470M5048N6589
83417e1973L5325m950l3767l3959j1854J2760K2094J3544K090L656J3518Q930k2051o0588p2147m0158J7094O1019
83399a41417O5176L7527R611J056Q52r576k5533k8373j8640j4579j6013O28L7657N4739J8763m2095o5435l0597K0362
83380a45887L8603K0090n187j3809o373L181M519J538Q386K9288M6414M0392J9352R216J4402J0133j8237m9029n1597
83361d4605k5190M477J6482Q757q902k0746j1966J4547L2877J9805j6461m4417m3019j7377J3876L4510L7237K6426
83343b3689J3703M413n588j3365l127K7489M8956L2264o895k3919m826J8897J9936Q896N240L683p509j6711o335
83324G1513J2147J0288j3243k7574j2504J5665K8929K0648L467j2095k3752k9124k4138r634P675K1006K5871J8650
83306H3795k96k0707k6444j1264J1974K3939K0168J3755J6502K5362K9779K2746n70m2652r0461j13624r3889n0864
83288b02751j9648o937P790K8978L3265J1347o911R879N1055P9876P9003N8412K9574m453l9146o9486r6337j14268
83270a70758j01558m5409K7985P3575P7307O3027N0631L4057O343j9298k5974j3590O534K3091K5486R873r908j4653
83252c239p452q821k0033j7902K899J1532j4447n0842n9390l9663j9458p661J0473L6905N2280M6614L2642K3778
83234c1785K0272K0988K7455L0674J5298j4263l0760j8278O457J9088J9888K6107M1428M8913L1935q155n3180q0273
83216G1809p7601n5852l9677l9638l7646j0887L3768O3558N9052L4306J1533q296l3892n4366m6927j5545M421n506
83198a47386j5865J0074N9039Q1905O0741K8339J5365J1824k791k1497k7733k9176m3449o3384o5962m7317k0325
83181b17598J5432O8502J21090J33703R3726L3451r515k6767k6666j4210J900M787r614k2656j9311r574r093j3560
83163I4027r018M547J5877J8140Q651j4080l8261l8966r811J8344J3063j4696k5940q613Q915P05k3305l3003j1772
83144d5196K9631O0743N2985P280l9884n1215k8562n516m491j7779k6947k0679M635L9291N4821K9185j8474m3319
83126b3491l0834j0464n621k461J4310K6917J3869j0308j7049q351o279j0630l458J0373M974k1918m0463l1832q768
83107a61484J5121M4071P3932P8916M7646Q578n744j888p699k6928m0545m3211m6927n0726l7784q644R528r44k2410
83088a77142k5551n150K0211L3369L1458K1660J5451K1344L3215L0808K421l5724n3530m0882j8495j1793k0752k2318
83070b01400j361K8210L8966K3251J113o808j699O019J6811L1631L2847L707l4410l5907P841N0530N0416J9612q026
83051B1343k7976m9092n1528r765N0622P0365L6041m875j9142k7562m7175m5846K610N6754N5087M592l1512k3830o93
83032d1582J5748L8971O9262O9004J7688m5678o8020m4427p116K1941L6085K5634o479k4946J550M9661O4827L4060
83014B06183k604j5666j8925k6180j8429J6944M7173L3205r408k8215p943J0198j0167n0767o5682l8014P173L3758
82996F2634K2817k0361o8894q5855n0921J6867P1211Q0197N2799K1557O254K150j715p075j2649k2343l6040m0439
82978i806k4093Q67Q708n135j5912m723J3372J0848j3562l5240l7201k4514o808J3784L2614L8437K8939J7634J5511
82959C720J6389J0176l0o996j6396l7402n8683n2393r430M0600N5479K4842j7860l0058m406K5320K3777o773l4891
82940g5015m2236m0070l9817k8735O348M4680M7625Q994l3621m3831k3742J670J7967K4493J9867N180m319R115M0707
82921a04740O4670O3582M3619J7157j4374m9168o8564n2073j0503J4174m929m3030n0459j3982K8308L9532K9728
82904a11052L0324L9512K4759k0836n7272m7438m973K7410L1152K0670R266p312l1939n1751n1175k9589k084J2068
82886b20260M538j0391n131K7909N8135M8952N629k8191k3247N370K5183K3464R684o60N663L0650N2928M1485m302
82867D7408m4041m2802j4131L057j668l975J3454L7835M7144L5141J2329m190j868J3106J6105n860k9686k2903Q792
82848F3247K6847J3980o687j4332j9935l5332m2302k1047J0181J6234l282j3822M913L6370N5563N6210M4463K5404
82830A96673L213j9508m6219p5669q5861m9885K3523Q3289Q3672K9193l5319o7304n2402n719L7238M3249J2942j6954
82812E8152j7165l017j0473m3312o8515o4534m9135m9908o6754p7776o9210m4448j1496K3672N4146P3962Q2205P9257
82794b04349O4282M3857L4495M2781M9004K8594j0692l2711j9882J899l372l7293o9259p3065m7613r277K1255L0163
82776a91183K3188K3002M0178N3417L6913J873j3552L383K3724J9703k109k2747l9918n4843n2955k5761K552J251
82758a73884k0512k4032K513K8379K7657J3854J1852J7360O494k3577m3856k5250K8985Q5021J08975R4574O2282
82741A76835L4734J8933J1658R319M990j0722l2615l7424j5280P508m5k9473m7748m6961m4353l8269r020L0481L4869
82722A7417j975k2759J2278O1540O2926K5640Q042K4308L1543N085k9354m6277n3292n8013m6058j5369K445j7204
82704c9077n3452o7258m9894k2693k808R755K0269L1912M4826N2022M3690K3011O798K910k56j3563l0160l8454l8257
82685a20679l3329k0907l76J9165L0223L4059K8738O269k7119m5006l0049N228L9211O3697P0466M0914k2440p3153
82667c5088o5981j6970J6124J0533L91J9135N5263P6779P0047L9619n112m5985o0456m8420l6874m0114l4197N386
82649i5920N5929O7792K8865j9393l4715j9244k608p1m487q722j5553k3560j8877Q022M2315N4114L2683L078k061
82630D7587J5549K0610q244m6842n5573l1743j1615k0723m3478n0667l8273k2907j2201j544N593j574j7400j9859
82612b93304l336R690M429J747K7033O3922O9650L6784R700K6993O9201Q3026M6112j1381m5980m4305k4455p584J614
82593A9556R328J7108J8373R339l014p331J629K1875M7428O7052O6442M1200M227k7761n0257o5286o8344n5235l5723
82574A0606k3914j9258j3873j2236k1036k4038L753N3814Q4894P3940L9261N123k5792n1720n7126m0225k6330k9693
82556g3850k8816n497J9693K2280J6924K7755L9776K4984q75J621K7464L2159N388j3134j704R493p828l5501m3841
82537A6491l6931l5506m0499l9566l0401j6149M660K5946L1121J9739J6692L5422N2213M0155J1399n41J0548J8410
82519H3203L269k5732m7056n0629m3546l9593m3048m2464k6877m607Q345J4775K8704M2513L2374L058q029J2001
82501a03339K5399L94l7740m5281k4195r648j1930j1414q80P441J3281K8760M5937L8933N297k3658k2361J523K4240
82482i9241K9863J4252j3411k9373j5446J6019L4284K7286R007n788j1810l079J9174K9582J884m5839o1417k4848
82464a28901K5006M2793K7195L598j4454k3822j6151Q285K5763J4131j5553l3499l0131k1148j9117j8701r132J2193
82446a71645L7845N3868M9548L0795J6505J4265R653j0960l7788m9940m0945j9585N360K7139L5812K6533Q567n847
82428b0820j5115j9226q032K2865N1412M5825K106n1706q7302r4772p2695k4603K7898N1536L6549J2456J4211M1008
82410h8405O1616N4046K6224j43j2976j4804j3916j5932k0400k1711j4200J546J6963K1227J1225k462k051K0130
82392E977N0147O2694M5672J2545j1592j4452n934n397k1638m4171n3277l9712j4463L374P769R879J9894L1814L2063
82373G1192J8134K30j3039k0907k2667j4965q35Q398O489l58n060q774j0769j807J7808K4904J33l6381m1615n871
82353c5760L2071L5734J4132j337k533m200j0863j0519M38P703j108k0436l3724k8052k415L0168N0371M9645L6989
82334A06304K4322J2781K17r034j2332j5068j6919o176J6372K4491M01l2984m1319k7664j9086j4927R787M9908O3813
82315A12887L2787j2471l9277m9453n1267l5174m459O129k2181n3230m1570L225L4818L5799K6382J9573R191q04N147
82296b3948K1717K1910l668l3502m6899m3895k8605L71L3732M9961M3246L4678M3320O0142O0814L2890j6277o6286
82278A39701r2392q0184l9179O089L9758N9204N9695L4822l671k6903k0715k583K955o221j3829q220P326J9560J5042
82259I0255o771k7062k4022J643K7418L4721K1192q860m4631n9345k9688K4404M8048J9204j6228l602M4567O4427
82241A55670K4908l5946o1194l5839R311L4877K5217k983j6766L72K9836M0760K9401K0866L0301M0316K5833j2333
82223C02607n0865p1826p4266o2963m0074j0949J1644J7027Q908K744Q304J8025J7551O015l224m937j2968l7031
82205B3722n7287m2020P894N2063N7786L7608K4589K4398J5894n696j5248K901K5580J9992j0908l3086k5310J495
82187A04367K5835L5811K6377j146k8725l0206k661K5564K9802J7241P543L084k457k196J0769J8894l70l3676m2225
82168A61625j7442M515n373l0437l7758k2838n745r67j0924l4099n8496n9385k5938J7820L9517L9074M1436N3476
82150D8061N2746K2282k3286n3443n0984k1726J3254L1090K2065n272l7031o6487q6196p9431l9142R019K6380Q567
82132b29534o824J1927N1407P1701N1888P659k6818k7408K4K2053J0037k5088m2508k1160J5903L5726L6256L6756
82114b8003M1715L7124J8084j044o819k249J617l81m841m888J565M443j0684l8499m7169j2910M2698O9927M7759N139
82094A12584j9689k2123k2529l0357l3389j6315K2405O8507R8604R4986O3176K9465J2037R47k2500n3475o6823n1827
82076A63684k8082k1634l5807n1124m6790j8175J9826M2368L4167N521j4608o201K2680M6213M7060K9769J0598k181
82058A97284j5151l4946m9841l7464L056L9028L9728J6590P032J9898K2825p654m8755o2709m6742k8311k2065j7544
82040b5741n954O068J2464J6709J9243J3476J150l776N523J8143K1221J4222R51j9179m2603n6564n3725m2220l1198
82021a51790j7505P76R627l224k2387j8088J3562M2509M2671K2424Q962J4825L0344L9715L2396M677l5535o5910
82003e1951o4980l5527m419O124J22m810k934k156n675p427p074j3542k6582k9538j2516R603J8937K4784M9261Q4275
81983g6025Q8551L8554l4950p6305o2643k0540R034J1381M816J4087M0063N8856N3864L9622L9711M7593L3754n347
81965B04076l4019k7674j0461j8328m3823m8649k1279J0545K4118K7982L7159M7944M9129L9655K3111j698l3981
81948B23807o4496q2954q3561o1520j7963K7629M6338K9718j849k7173m5293o0286o3436m6405j9313J480J4652K6936
81930b03689L3349K2834r15k2176l4804m4188m8028l3242K895M2311O3511O0807M2849K1417O017J703P020J7439
81912f4890L0259M0896L9221K1441K602O64P506l733l5569n3288l1425O756K1024J2173J6627M6090O7299N2487J9765
81893A95905L230N773P248L380N760J0213j695k6130l2551p804K0322J9681o559l4945n7102p5824p9797n1842Q96
81874a01841N0303P9627Q8226O6637M78r0455j48242j33768o8200Q32N3081R1380J04796P5581K0083j4895p077J7367
81856H3913K6897K5369L1383L9707L1348J1278O467K4817M0379K7860n392l2110l7594k9133k2269k8192m7606o6210
81838H0912o1854k8231J1665K7487J4884n138j7812k8476m1320m2411j6702K8192O7064Q0176O3433K4647j9328m9224
81820H7964n9199o0796o2334n5065l3305j5080k0143l5552l0630m372J1790L010q062j069J1272J1562J1144K9152
81802b19713N6006O5581N3393L7348K7301J7260L817q171j5385j5322l023J4702J3561j7633n2274n8221m2962l4600
81784a78335k9088R22M6542O0394K5939j4879k1741l732J4197L0508M3075K6661k4129o0800l7107K1617N1792L7833
81766a0331J6341O706o851k4621j9750R052K1963l547l7721m3536k2913K441K2904L0708J0847k8991m7331j9336
81748a43966K4052L8809K8825K9137M4694M5882J9236j4049l1374k9880j2732J6033L7352K5493j7445n4247n1506
81731d5686j4947K0391K6415O071j1290P49L5640N9890N4603L5949K3227R201j4674k7134q151J5486J873l5381m0336
81712I1896l227J9791n330l5812j8807L0703N9977N2785K8758n012n1370q7253q2231n0516l8358n5180n9422k3571
81694b32179K4320M1192K2332m029j3717j344K4567M5195M2453J8892k813o805K026J5528L4783N4592N4607K4217
81676A43817j5521l3546k5822j3650j0045p432j23R67j2777k7172k0816J934J2174k606j6058J500L6644M7846K4889
81657H4203K187L578P299j1336l2824k4978l86K128j6402j7029P071J5313q551k0033J6617O2826N6088L078k8085
81638A00764l467L4459K9299j9797o7602p7898n0820r912J9272K2092J235k5064l5190j9268J3275L9533M0905J9586
81620A1402m391j4003r056P84P473N495p692k4046k7211j3033m09r269l1935l8689j1813L4077O5849O2204L3192
81601B8929J1256J6266K9572J6560k2331m5533k8693n068k0127o1591p1540k7364K4821K9426j2133n0162m4227L048
81583b28891N6930Q1070O4891L1138J1708J2799J4086L735m101L683J3317L742j9379l0596k1958j3332k1965l6979
81565h0102l2241K086M6630O9389N4508J6740j3736k2312k1099k6116l2369k2596L610K3811J8649o538l0090l5950
81547h7726k3176j431J6774K3987K2955K0784J6600K647j8351k7312j0678J8229L2364K2599L583j0470k0399k9499
81529d8520l1839k1951n221J0502K4297L4361L0786Q502j9502l4175l0512j5110Q684L8672O2968O9020O1899N7024
81511A99885N4937M0419Q825k3297l8863l8411l3763l4573m2300m6289k8789J1149M4016M1416J7280J0033K4685
81494A66360K7480M906j1761Q09J9289J6618J0140K8977N7820N6186K0505j4047k7448l2644m1773n0338n6625o4667
81476A09787o4914m1884m512J9205K0577J5083P682j3947m5223n7411l7771q885N633R264J3455J5978J3427J1315
81458c3141N930j9974o4819r3748p8609l5419j129J2139J8654K8272L7506M4622N3142O1812O4370N7169L9481J3138
81440A09396j1269j8691r162k084j0703k2982j9228j64J3330K972k9388n8956n2098J194O5155Q6838N3946O608j4198
81421I0516p823M611J2744J3783M16k6077m6792m7218l2638q522L1321P9047J02010Q3912N3944M5241M5081K0151
81403D13707k5501n5177n2299l2940j2179P762J9343J2265n755j7164k0504k4519k6271k2697l0188n7403p2301m0633
81385d2454J0364J7175k9833p2601o9473m0766j5727J1294M4234N4214K3618j4820k1855o632q73l187J1152M1750
81367a04420O2389N9054L8151P791j9997k1050J4357N4700N8054K4537j0274k6819l4619l8641k9161j0104m609k0281
81349i42l3577k1497R592L6604M4733L1947N398j7202j7898r11P008j1580m2401n7237m4795j5831J2979K9822K8655
81330e7133J1203j1075k2938j5913N619K6561L1312J7039l701j7648k4939l2024l5397k4895k924J3214J2463J957
81312a29219p423j5174k1989j7749O196L6609M5706K2745j1588k7455j5616J0863L7977O2821Q3728Q9699O9598K9907
81294B49636n538j7486r790l795j6271m3855o6786o6969m4625j7253J16J1032K7734M7179M9457K5810k878p656J3351
81275A21413L3877L2567J4908p84q169j5717k9683m2001l5997l183M3212P1359N4677j114n8272q1189o9018m8243
81257b1357l5940k2400O829M4193O5381N4255J3712l9496p7793p0745j3699N1107O6998K5675k3242l6317k5890k6472
81239f5201l5810k3306J3410L8741L1590J6370K6518N6879O9616L9657j6131n3067m1970k876J1868k0731o1035n5419
81221g0897p622K8696K4902P603P027J3908P546n692r044p447j4820k4794j9746J775K7120M7703N7583M8963K8312
81202A41076K0405L4600M4243K3785j2034l4723m8795p5297j02670r7381n9867k7074j5455k111K8264N6082O1226
81185f5726N0727L4282K773m6579q7467r0138n4728l826M0656O0150M2214J311k1923n397K3643K3649p297l4490
81167a38166l4032j4365M818J4084J5097J6158K7179M7428O0751N3627L3612J8539J2407M363j2393l3161n0381n9242
81149c3677n7823n0576m5993m1848k2252J7234N1426N1094K0941p832j8694k0778k0063p719J4090K0961j182l0404
81131a83095l6250k0519q412o696L255K8996M8462L9533J1080j0449j4273q865J84J6329L5875M3534L0534N313j8587
81112d4051l3211l1403q974J8393J9270j4617m7970m2387n986K2707L0891L8492N1575M9045K7812K2486N4170Q8694
81094A94936P8787K9039j5996l7274n7031q9137j09554q9688l6745J2669K6705L22m2047o0783l4180J5193M1186
81077a73598K7219K994J011J6957K8897L6942N7727Q7001R5517O6860J8757k1067m3396n2081m6127k4054J626J1995
81059I3180L538j0808k2469l5520n1517o0278n2964l3250p664K4027N8928Q3175Q7867Q3128P9443O4160J9482l9509
81041B82949p1280n7250k1232P820K7365M2238L9863R368k9328m1759j9638J3352L0967K2543j0321n3619q0788p4489
81023A6761m9635l6532m0338l5955n499L7616O6579O6947M0681J950k4452j7515J6550M6261M7677K5761O0j5811
81005A41106j4706N910L3644M2689K0333j6390m1705m8685m3872k6701O103M0466M9756K3908j8693n2082o6053o5987
80987c0959n9637n1400m5148m4044m4278l2695J488M8712P9772P3915M2913J6140M698m571k0219l1694l0066k3128
80969a50201j8527j0436K729O530m509q809R843K7872J3362j7128j3253L3828P0484N1503K65k5572n874L0117M8683
80950D0907M2547K4634J3878K3799M6363N0332J4012m1795p1822n7993k5407m508K791J0238J8241J4978j085j7040
80932H3070k4802l1315m3564n2012l9091l462L2730M5139L1373R745j757J058J2262K3141K5178J4902j033j1511
80914G0051j2360n304J1702L9373O1667N4030J5649k3483l9781m3826n4590o3091m7231j3430N870l228j9171j6582
80896h3735P137M0544P0038P6301M3936j1839m9231m6771k8590k6161l2943k0190J4657M2310M1033J8256q362l0366
80878A6024m3608m1769k5699r943r837k3752l2346j6276K2830N7454N6167J6612k7643l9495j3238K8252O2336Q0423
80860E6492P8766N3290R161l4099n4309m3320j3518J0737J3870O121J2987M0713O1022M2576q022n1167n8745m0390
80842H2165k4698k6652l7498l8690k2003J476J3494J0898Q172J3785J6814P337m006l543R99m677j2130k579J6181
80823e155J5475r540l0822l0998k7486l9474n5032m9040j7172K3322N3327O0871M5304K3498J6722K1755J3483j2931
80805c893k5893k199L3147L7642P868k1351k6485j8113j6421k5965l6172l1473k213M0463O4062M4639l557m0395
80787b6309l8894k284M8649Q8569R5075O4438K0716o952j6145k5357l8162l3426J493M2721M8024J457o5353r9650
80769E8610p9019l4516j3669k2979k5711K1K8854L1737K5165M4447Q3030R6705O6387K1130p695k3286m0949n4442
80751A53820m5026j1849K2691L4195J6864j1850k4951j0544J6811L4061L3457K0729l14k6693m8410n9069o6467p3491
80733d6036n8988n027O1961Q8943N8534N922l0363m5843n1002m5511k8095j0247k491j41O277J7453K7144K5477J542
80714c0491m0405p2008p1334n6735n9678o8994m2884K1379P6046R1421Q7265P9794N2158O696q710K9655P2947P1630
80696A37752N1536N7822O3719J2922p0508j01087n9317j7043k1713l4815j4857J1796Q603k732J1747K7432j066n6834
80678C357p7295m4854n031P635J0447K5110L2786M916m5015p0394m6582K873L6651L9670L0191K8080K7318Q586k5412
80659e6963m3294k0943K7411O4721O9151M4856M463l9578o7892o0353j9267K6597N1654N7753N8732N1398K0424k9136
80641A39734o3883n6145j4753K7998N0938N4198M4136K6169J0539O159M323j4902n2643q2525q1783n7701l1770j1355
80623a03266P378K0434K0818J6789K3279L4388K4841j4075n5117o2058k9233J2851K8957J3739m097N348L5359M7163
80605B3498J8982k1841l0781j303L1099L5180J3005j5362l1852k1698J8787O3625O9135K2799l5081n6291l8734j6986
80587B6181j1152j0806o718r968k8012m1036k1824K4892N8733M5028o394n0271n2601k2429M943R779M322R211K5249
80568e2873L5468K8656J1002m956j3950j6806j2203K202K0937L1091K6364J5859J2562J6402J7337J3787J6498L0247
80550A77624M1954L4430N722l1177o1272p3766o3161l4398l537J5310K1873K3137J9987Q677p680j8288j5770l380
80532C6285Q041Q509j466q110J896K2838L4095K5278N855j3259l1743m6330m3426j8528J1419K8049K9802J9356o520
80513F2041l7717m4387j4746J9893K5447J2005R493J6071J0395J46J0974L3181K9424j634j8610l348J4684J4526
80495A37838J6044L3218L9488J0558l2821n5041m9776k8248M930L5835L3848n472l8649l1580j1427k0794m5805l9539
80477d7393j880J7354o085l9866m6551k6316J765K6837M1404L7160J9846Q059P187K801j2086k2079j1950J1058K7909
80458a2826L0491K5398K1826K0818J2988j2202m9879p6930p4424n0033l0629l5064n8254p5701o1240j2291L8559
80441c99393N3653L7662L2693N5849P0785M2828o132l0254k5363k3538l5360l7792j5890J8500M8883O4681N2994
80424i5194J1269l3834n0336m0734k8565j4032J8808N6271O2516L7133K0493L1444M2662L2380J8174J8950K1720
80407A09125J0478m938j3258k5154m7606o2234n3656l4397j9459k597J8979K5068N651j3330q629J01j6717m6189
80389a78762n1096k6499j150Q647J2005J5825J6474J6515K1675K3600J0729q186j6207j6907k3549k7004p451K4098
80371b07243L1312N053k2057k3698j3164j3605j9472p700K6486O1797P2723N1169J4261m942J4082N3671P1107M4191
80353A33971m614l5064l1589j2824o066j9390l6215l3596p055K2944L2063J7713p49n581N94q13k3097n5667o8550
80334a33585m3643j32K5047K3535K2428L7894M7720K9606L541N629L3288M9819L7369J1358j6527n2774r1053j01885
80316a12365p2546l2327j6516k2263k0391K010L1243N1393N9281N6522M2436J8484q149k8268l5447k8206r548J6522
80298a08135M7222P6154Q8470O8575J5618n1480j04334j20783r8850o1325l7018k7925o413M0524P8445O2801K285
80281a36169m6318m8925k7986j5860p207K0121O0943Q7486Q6010O4191K9738j4908n8419q1770p7427n5976l2716
80264b55192j6015o560O56J1077K0571J6279m819k6034k9926j8884m424J3938M0157N8572M4959N476j8030M655N3009
80245a10535P8356N8616J8063m228N771K9361L8816K4985L982j761J0781K0238L852l6146p2319p7798m9418o541
80227f5925K6917L6444J9830j3599m4754n3860l5016j459K5995L4361K2869r50k3946l1263j7033P354K0846J0883
80209h2306j6302m0822m3180j9001J4829L3324K8336J5526J0906R402j728j6164j3431R971L1946L1720J1330j4302
80191d9946l4374m2514l4326j5667l589p603j6189j2301J978O344j2556m3070n6610l2964J9742O9423Q7138O9661
80173a07423L4044k389k8189l3981k0533o883j0001j6908m98L4669N1541L5820K0643L5214N7709N1057K4451J9175
80155A37518M1255M9747J8340k5841l9586j5603J8078L3288K1862o106k9783l1126j1972O856R332O90m494k552k620
80136A67283j4460l9775o9962q7823p7377l8165J1889M9730O1560M8142K4803J4671K9374N3011N6858L4984J3150
80119B37893J4186K7241K5928Q393j288O902Q726k0029o0951o6449j8670M3211O6307M2624Q456o613p707j1433j9744
80100B76983k8442m1917o2467p8379p9104p0672n9703l6224N495M0956L8751N182k3171l0507l4882m6024m3067r220
80082b76412L7255O5764O9582O3410O0014O3116O8994O3383L3483n225j4911J5353M7980M6390K5319K2705L7822
80065D24022L3542n151n0095p0515o4630m4157j4308J8955M1619M3992K9397P202j0009n659K2089M0932J2715n0137
80047C59804q5618n5630P706M9329N9000O3404P1787O7290M4198J5973j4823n8014r8388r2691k5861N5010Q9483
80030D51959P1493M3137L2775K9700J8565P671J1691K7771M3014N0924M7738K7103n531k5860j8543l586j1581l6660
80012G61780m1303j1068K4156L4807K9831L1094L4785K7061K0017L5982O3526O7922M8476M5811P7218J00877P2456
79995A423428J2109j9443L96L5575M7733M0713L9403M8502M8822K3060k7321q4305j23709j29537j07079p9788o7389
79978A081170o8149o5642n0664l3648l6003o8101j12372j31388j02364m5616q383j4277l8196m0673j7955j713j2145
79961B33881l2298l6806k7384k2097k0984p520J5942K1014o054l8000m1454k3362j6300k5121k0627Q960L2818K1680
79943A6288p693j7378j919J1013O170k021P16P225N634k282r563j6044k2583k5991k8289l8029n2510n1451k1480
79924b50187K2998N6901P3309P9262P1050L6712j4773m8469l9971m702K1821K5241J9939J8860J3268r483l9555n0997
79906a8776l3960p835L403j47N35J4883L0493K9457Q088k1266m0876l8054j1883K6198O0706Q0834P9248N0200N65
79887B11813m1824m9375k8405j4566k6408m0571k7141N295K0687L954k4288m1107m7086n0850m5960j9339K3343N5094
79869a36734N3650K4528m771j1394L880K2201K5868R953j7832l9133l0746J5243P1390Q9542M8377k0524o3640n5576
79851a5718j0028M5693Q7855R4883N4631j7802q3616j11804j02341p6350n2139l4674k0238m859J0146J9963K5354
79834a91044L5515N4953P0720O2215K4264k5291n8898n6066j5252M0123P4840P4611O0107N4905M9580J9652k8132
79817B46802n7707n4139m1562m1257m1435k4858M40K0104M0120O6854P7378M2790k3477o9950o3338k0197J9444L1237
79799A07249J6449q736k5832k7163k2206k4065l0235k7641j6487j4178k9489m4530l2736R436N6230P7596O6422M0296
79781G0380J9046N940n274j1692l683J2557J2512j4465m3074l9553n713K2517K1022N733R054L8781O8817O7496L0692
79762B61093j2985k9328j0323K2599M3755M3607K5627k596k8250l5919k2449j805J2584K0727K4176J5908m736k1027
79744C00658k0211j4472k1430l4470l5139k6266k5650l0564j8335J3786L6968K9222L943j1337p453O139J8900K4853
79726A89142J9927K972k4733o0959r5045j03423o9752j0521L6170M9628L9028J8703o570k7912k8325l854K8089N0161
79708B726N9931N9423M9245L7783L4219K6729o639n6354p9339n3907j0785P935m452l0730n8207p1456m6412J4655
79690a25635O4372O1772K6049N015P420N580q907j7445j7292k6339m1335l3655K818L5921L9899K5620J5138J4581
79672C3577K2260L5249L8431J6196j5433k0446K367J1978j1553l5556l1228k2026l8961o0371m2947O858M0480L7235
79654c3890K0983R869m490k1574k0251J045R562j3443l8401k7640J0784L6532L1042J1691p52k901K729J6404L1092
79635A8391L0293O461k6901m9530n4591m7834l3123r945J5349K7858K0922Q179R067K3631L1523J8059p894k5900
79617d5985k4373l127L2771O8995Q0458N2755O073j8329j184L5106N2265L1028k0019p3894r7891p4783k4356R154
79599a5336M676j2125o631J7715L1072K4231J5875J6593J6381J2291J7194K8347J7250k6593o5301n5183n801L3561
79581D8216L9295L4312M3670O0072O2551M5138J4209k3897n9312p7424p3862n8786l6809J010N0830P8794N4315o339
79563A95983n3776o2972n5337n9094o9571o2800l4485o267M221L893R900K4550L3258K5041P072l745Q10J3711K1295
79544f8313J4611m748k4899l2243k5858k0896k9843m2798l7342q679K2418L5833L4275L2200L3380L0107J8539N440
79526f8816K788K0052N4494Q3472P7217L0738k4097m9954m1269j8724M163K9311N1581N1348J9756k2718m4932l6014
79508A18396r751J5036K8295K6645J0387j2105k4514j6594J993R695k061j9465k6660k5596k4612j6995R252M2794
79490H4140N4012L5553J6786K5967N5045P4914O9441M0351m776n0852p5689p1957n8013m9565l5286k274L0496L3904
79472A72197J3443o8J536o33j1123j2145k641p583l4098n1265l3573J338J8949J0733q921k9227m4626m4840k5413K52
79452h7708J6229K3143K8690L0134K1449Q254K14m080j0684j5340p948J2450L6087N0369M4384J6402j6154k7386
79434A18505j3243J081o647k9610m7601n2412m4572k1445J3474M1659M7393L5837K0805P145k002K607J9246K6553
79416A16773J2329m396j869J0163J0166K166J873l30k3594n0198l8324J2577M9029L1871j4164l8497k7630q024k538
79397C7383o496j902J8876M2647M4633J3382l2183n8352m9552j8509J1289K0866O77l9074o4531m6904O37L3717K7941
79378f5455M78k2206l4870m3244m5566l9029l0199k5878k3042j5565j967J6794L6077M4862M0205M1504O6585R2643
79360g873P1574m886q3388j08022p7230k6837J6595M3401M6551K9403J4537J9872L5329M1229L5518K3733K64l5360
79342C4410n9915n3135l0662k1377k3219j3300P450J5443O216p92Q51j633p707k766M241j5550n4988o1311r525N0898
79322b36371N8797K4356P901L1480N6970N1068K9245K1841K9290L2243K5100J6084M453j9690n3408p5728o9300l8013
79304a03682MK8509L9039L0595J1610l957j1637k2300m2332n3916l2918J2853M3960L6727J2594P607K9026N7643
79286C9425P5888P1796L1352m1218j01858j00050l8693K7542N7825N9004M7994J9641k5482n3886l4434J5384M8787
79269I9017M5306K1659j564j5372j2321P682K2334O394l1439n7496o1744o8204q8355r3976n5614J1978O3385P0477
79251a37853M1725M302j8434j9306r960o014l655J7088N7602Q6471P6764M4003K5431L0158L4046K0563l33j8974
79233B23624m5460q6185j17374j03638m0793L4303P9809Q6663P7036P1438O5781M3561M389k9356l6460k0057k117l44
79215B04820j5329l4653m3016l2921j2032L462P263Q106J1589P736j2405l7543m8031m0098k3806m994J2817J7117
79197c1918J520j1608P875N1128P3133N0820J0620j4751k8633m9136p0306p1994n3355l0088q240J4835L1516L0428
79179i8154J7751J0597J3077J8780L0840N5888Q1317Q3568N9834K9072J604k7433n3099n8531m6921m7633p3715r5204
79161i8362p5473k0163L0135M7692M0267L0026K6013K0413L838k0499l9086m4399m1813l4155j0717L2180O9723P3774
79143a0606N6596N7767Q2111Q6028M2153j6365m3023m1028m4682n8984n9162m0198k3711j5243L563L0807L1890q192
79125B9721n0885m9362q056K9600L8674K9305J3441j1896m0633m4419m455N3740P7510M1342k7041p7012q1173m7034
79107a28633L485M9960P3246O0405J9648k1506m3514n1976n8322n5211k9106Q295K3406J028l5601n3809m7644l3945
79089c19794k2509n906K2446N3112O8558O0478L5931J0030m074o25J7217L7718M4421K6188j1101m3878m8128k1485
79071a01401J3629L2674L3800L5154M6302N0154K2952l0021p2155p4841m7479j7613P309L8682P1799P8376M4210n073
79053A26458l2133l0122k0321j5974p785J4873M4579O2769N6954K8001j2389m7750o4598n7840l1096L416K5799K0433
79035F3274n732k5775k2725q178r92M77P199J0642q138m0208m7583j2074L6321N6456M4931K8141J7771O56k7816
79016F6647m6832l9382k1207k1546m1216m9578k6972O821J8381M678n314R166L5345M6118L1501M163j5597j2760
78998e7584J3746M4606N0446K0103k6050n9460p2145p1833n8914k6523J8963N4766O1995L9486j32l6456m7544k6895
78980a79425M978K0001J4363P658J2103K0167K3270K2716J7510J707j8358k4215j3569q706k1675k9629o133L5210
78962a22027N2305K5898k0580n1517n1412k5301J5040N6562Q6372R6804Q8834P0093N1368M1093L7496K9173R757
78945C89958j1646k2868k8118m3291p0403q7666p1618k4457K5567M9315M0736J8711P475J4155K4678K1459K564j8607
78927B15944k8654k3421m383K4655N3273O4424M7691J1874k2461m3331n2999n2511l3845J234K4760O815m1344o9749
78909G7972m7161N92K5865J8606Q442J6255L1073L5587K7452P181l0227p6048r9792q1161l9904j4835j8060k6334
78891a84497j5359J2444L5501L6945J8504k047o131Q065K4404K9230K7906L3205M2237L8076J5855n382m729J3629
78873A17856K5248J5631m248j6083j8129k0238k1103q956J0943J0225k5084o5975p1709m0781n378J9001M5318P2854
78855A9392P1087K6097k5966l9832j7302N165J0575J2062J6866J2552p546l1540m8238n8148n9038m0400j378M2046
78837a13546P5634R7145J00625P0325P370n0714n8987j3094M5412P1520N3488R247l7259o8312p3083n2171k2847q628
78819C2125j6510k8896k4565m580J0049N320j0115j7895r255J2785M0908O4061O6946M1693J567k5881k4103k660
78801A10994J5418J8065J1432M083o995k5695l6405j2445M4901Q9914P5021O832n8468p6081n1509j7605N197J6414
78783A13068K1742K6138L0611K6685M626k6378m1133l0785j6726k0193l3259l4437j8841L156K3932L7418L2138N790
78765A03552k1259k5818r328R565K0780K4982K1160J1605R612K1424K8820J0667k6011n6830p1716p3831n9979l0355
78747a12960o597p093j2534P599L9564L8268l253m0899m3941k8236j1682J6184N4577O4654K0545m1226o1808l1630
78729a60468J0814L5150M0657L3907J9526Q874R265P257j2756l7922m0870k1809r815k0028l4646l2309j4164Q619
78711b10718L3816O0468P3894N4750L454n2820q2003p5786n3673l6560k2692Q49K9000M0260K9442J7358J8983K3497
78693a48481J9627J8224K8507L2251J0638j7138j5775J0815K0191r302n0770o9195o3122n2982m9386m8387m3565
78676d27850k9433l509K6100M6675O0477Q1940J06022R9662M4232k7212n8920l4492J0250L4032K8087N184k4704
78659f3459n2488n9242k9346K5672P0569P8267N2116J6200q338j5479j2124r682j2484j0195J1746M8431P0453N3471
78641A54088Q737k7467l3012j6978J181J4547K6643L9351N0480N4482M0308q80n7994r9718j02565p3096l3698N231
78623e0360M5362P8571Q4227N4629J0783j7485k2479k0796k6856l5420l5265k9966l2434m2523m6346m0207l7399
78606a63964m2868m0424k0305q37J66j008J9894M6316L7245q081m3140m1206k8254k9665k3661J9721Q1285J11670
78588a27116R3036M9973R541j9464l3836l1060j7412k326J2267K3861K2489R729J0519M2822Q6614J06767R5684O8792
78570D00880L1882j4879n0012m5554j0045J5101N889k3820n1771o8494o8718n2089l5343l4460l3034j084N0735P2017
78552H7201L8042j9207n7370o7532n8448l3367l606P148l507o461J2430K4814N683k2200k2620k76J5541K1146L1565
78533e1024L7961J6971k0691l4005j0076J7118J6268l842j8705k2930k4461k4291j9269j2923r697o224K447J4400
78515a52973K4019K7323K2301J2248Q474J7855K7843J9608j216o321J3637K8706R058k8470l7657m996K9065K0083
78497B8587k5496o0080n1323j2304K3337L8738L8305K8866J3098k080p148l939n484j5939k1421r926P685Q877j0091
78478c7738k5468j1465L0214O9506P6097M7424P979j8536l1431m3306n4461m9547k1909J0188K0410L698j7623j7288
78460f3256P019K9845K5067k058j7320J854L7466N4188M2375K0355Q48k0105m0542m6525l8216l8419o0503q5388
78442a93315q4070m9302L944N2072O9184M4043M280k449K9808M9858K0119k6816l7137j4299j956o804N080L7493
78424a00267M7933J5866k3471l5779l4467m2815m8194k9651j465J0194J4097L7621P5031R0547O9933L5404Q757r392
78406G9882k0004j4717O107K7681M2448N6935O8418N7290J7948k0780k5478J607K9122L6003K7420J5679L574j0268
78388C78867k2857k9941l1046k8254k4927k6296l4452m0826l1291l940K2903K6741M422k3913l4697k2840l287P839
78370H2205J0540J6111K6967K9704J2737j6925m2725n7372o1013m7950j4791J8888K1751q366l5724l2862j6226j6895
78352a31946l3764m1990l5542k9627k5143m461L2648O0469O5787O6700P7652Q2079O2069L4383K8833M1153L4893r700
78334B74493o8408r7971p7383k5097J5883J3192k4850n6566n0455j5592J7444L4940M6331O0060O9812O4566M1520
78317B21919Q587j9687l1425k7572j8587r558Q94M853j2612m4812n7052k8209J6244L4786K1537L520l791r508j9142
78298C0385k2441j3932k272P273K0387L7574M6780L8215J4096j7665m6048n4683l4965l108J2635L999j3344k6777
78280b3891l8531m8943m8235l0573j005L3707O5825P9929O5789L8238K3041K2816J9441Q171O87n842k7346n3797
78262G9481n0260j2576J5620M580j7700j2621R425J3478J26j532J0803O765k6072n9239n9075k4652J4971K8749J0306
78243f9423j3419p603K7741N5765N5190N0514O6771Q0318N2549l655l5649k5163p684j3944l2188l8983l1700j6552
78225I2885M473K0285J3923n566m381K3975L7874N247m2925m9403o240L8931M5596J9977p085j5741n824R485J0833
78206A86319j2841m9532p1460o1089k5631J1799K7713R814l1839o3032m9667O511O4135Q2879O3041L6428K3460J4023
78188A61031o614k9158l2018j4070K907N695N172J2894K0232J6193J2253K7708N5383O3644L4481j6913o2185q3738
78170A72897p7780n2024k6123j8706k6882l0436j9179j766J3599K6995L1454J4584j4300k4840r945m051l4008p5205
78152a55716q6167o6419m2969j4791M1063J08346J27518P2385o905m2675k3937J2554L8609M9467M1254J2809j3278
78135E1148o070L0153N2818L1214j8638n7606o5392m8981k4026k263R526J0915Q066P102R118J4172K4993M1971N7523
78116A25743N9164L7665n652n4025q0066o6584k5550J3017L3555M4873N4092M7747J2583l6548o8037o9221n5553
78099c2797m6215m5711n0003n4882n2418l0449J5984P5423J23302J32375Q8599J0756m9923n0323k341L5999K4286
78082I1662j9184m8576m6288l0829j9955q962J1862L4904M0369J9135j5286l7842l4570j3502Q142K4141L9394N1825
78064D6440M7898K2690p063k1547k2667k7681m0804m4716k4512Q058K2941O161j8787j3403K8046O5220N9642K5215
78046A11131P140J5649J4947j4356m1235l7139k7171m7642p6188n6183J3613O5301M9610m606l7083k7087N000L5880
78028e0419M9898L3922o263l7176l3943j6447k1505m5703m7152o168M5166O4591M8225K3288R532O482J0366K3156
78010D9850M1648N1697M2634K2088P016N45j2043l9359o6472p3515o4670n9339n4072j8225N7488J27635J33481P2609
77992B18996K825k5510j8365j1730j9423k6621k2541j4979j1755q048o71j163k1800n4214p3183o1204k3262J9462
77974a53186M3371L4952J850k8654l3778j8925o481k737O109K2147K3745j009k9948l6380k6441k2191k1234m133
77956b52923K4552L6470K2348L154o336j2910j5594L766M3228O6527N0186J7536n34j1364l2998m5399j5296L9990
77938h5597O1752K7180k4490n3503o5875p7982p3264l0927K3345L7198K011k9132n187O1224J10185J01585N1350M680
77920C4553j1516l460J1352K5674L9272M5729L4203M345k7601m1243l0531j0479m653k1945m4966m6586j9853J4178
77902e3527L0429K4202Q610k853m424L115J2874J5940J1081M877r30j1120k0549j2175J5428L3994J8773j4738k9807
77883B9200j8206p468k0038m8132p0896p5195n5954j6891K3001M2178M1634M0676M4792L9057J9274N173R734J7183
77865h78Q139j1163k2691k4012k2842j7959p120l017j7129l3504k4382P315K5609R879j3995n143M0463Q5317R5061
77846F7948P3724M8498L0492P086k5785m4455k8268K817P385k1826m8699m6743l3318l5296m5807l9678j4924Q340
77828a38509K0558K7694K8761J4964p945j9454j0881N050J3849J3194O914J246O740K5742L7988K0056j6682l0403
77810a118j907L5479L3906j2733o4109p8420n2368k0357j8762m7018o5476m0862J0198L9375K6961J804l112J0905
77792b47614K6837M3448O5449P9551O6672L1184k850j9106j5923M799L4098M8239K8758j1074m1091n3146o1989o9542
77774i3300n8755k9780j1176j8114k4784j448L9489O0657N1861L8068L9270M8440N2286N0620M6420L4626J3170o957
77756B30593j5499j9356l2671n4087o6318n9498m4615l8345m0991l8037k2883r051j3551l2645m3381k9575K769L8430
77738b88711O9695R1843R3233O6532K6362j660j1613k0853l8283m7362l2677q127j52j1195j9554j2910j861K826P214
77719a37253J8947K9295K3643K810j7630k5725k1907j2353k465M292R209K0170M3009O8734P5972N1910R633j9801
77701A20490j5402J3237L4999K7619k952l4665n4790o5256o6207m8878j1521K8201M7927M3285K6629P186j5542l8452
77683d092m7215k9401Q673M3034N0306K6490q743k7708k0356n169r067l4986n5378m2588j918L2018L2524R082n928
77664i0422M174K3108K5453Q131j1756k3078k7661k2527K223L7960N1211K2641k1028l6760j8377L949J1188J2142
77646d9429J0844q822n0215q2186p3249l1715Q570K9229L3707K5930Q822k016R504L2620L7969J7650l835m957O143
77627h5436Q997l481k6989n5498p5010o4981k5139J2314J8949Q058J0862K2869Q902l4233n8462k8976K2531M1119
77609c03604K4414J5758L0962L7940J7225j155J4627M6927N7350M4233L6128M1966M5681M4788N4873P1525O4718
77592C44356K3287k6232n9501q2402j00074q8816l0571M3627P8791N8085J3365k0426l4758l4544k3954j0915n175
77575D4143n266j902L741J400o583l057J8375M0583M2746K1902r223l3526l5104q294L0761N2166L9947N338k9551
77556A68596n0896n3712l8621j7777j2934l4007o2011o3034k2151L7739P2489N7068J2325j5788q792M930n210k4660
77538e6446j6163K0708M6040L6707J2354m974k2273m7899o3470n0808k5185j2742j0674R83J9330K1025N62k0553
77520a73478k2713n633K0230L9037L0677r327n1288n6044k1382J6323K8870K3680K1004K5536K8879K2883K390l0480
77502a10836n8464o0288l5931p136J1527K5447L8382L7923J5136j6190l3874l1437j7442q66J2749K0189K5894L9393
77484a45824N7751O0776L5847j074k2881k3999k1355k5185k3655j562L3556N1840L0504j7959n2721m5028o172L2565
77466h4576N7642P2884O9695K9078l9361r0784r5276p0251m2774o841M9312R4463P9363R093n2524o2588m6751m7816
77448a78012n8452l7510K2529P9104R2030O6764L5921J5268n934l5799n7568m6352m480L1666K7562j0990m3234l6238
77430a43725M406M5062N6698L6569O070r950o849k946j3060k4639j4949R676J4126j6128m6894l6434Q606M2690M0908
77411e0763K2591J3753J2781N060r598k1639l0304m0426m9368n2064n0269m2067j3749L6536P6605P0603L0613O969
77393h4736K0088L3630J1425k8468m2370k1743N366J9979K6986L0246K4774J5289J5260K2693J9544j047k7863n2898
77375a3845p5144q1328n2747l99L5619L6306K7868L9446O1471O5697M4552Q959l2628o9069p8671n2845j4406J1032
77357a40132K6843M4621N0855K7610p435j9501q761o493k2155l3460l1671l6140n3194n8265l5996o826N060L223L28
77338c01489n232j2832m322K9108O2525O4972L9247J3466N476J4571L3569M7029L2106j2661n0067m3663p392J3164
77320h2425N542M040L3803P2551Q2996O0425K8906M706j5531l5115m4461l3127o451J5999J9052Q232N357K4884N4628
77301B04011O3676L2120k6687p4205p9308m5994q222M857m332j3227j0269l187l13m37l241j2442k2315j8361j157
77282a9033P092p370k8511l4045k5310j6283p863M565J0805Q05p284J5388O2037R0407P5810L8749J0895k373j2498
77263A55983k2394k8973l7054n1865o4575o0876m1263k1042j0080k87K3979O3166R1515P7374K3373k2665j5227L2205
77245I1294N8457K6337l7055p8282p4769m2491o849J5121J6119J673j2217j5578j2727q282J067J1429O676j5057
77227g5134k7540j1877R166O96k9722l9787j3862J6527K1220J0512J1094K6357L8790L5881J7248j1087l4005l0932
77209h6455K49L0859L0474M331j4015n460J4717K1792J3232P997J9694L7307L5727O324k7942l7503k5250k4873n3155
77190e1950q1587p2869l3178l955n989j8722j9486j5609k1651k6753r886K2245L9386L1161K3283M0882P2578Q5826
77172d6274O8511L8378J3326r840l9560o5196o3530k8030K0145N3139N8895L9053k734n6233r3507q1620j6765O1554
77154a50288J00644Q0489K8325r785r682J5192L4224L3117K3281J6274q18m8152j11426j38667r4025m194O5456P6897
77136i3138M7182J5095K41p97L486P111L575j2005l5957n5278n5794l4396o077O932J258J767L0814P1136P9401M1542
77116A6098n559j9531k650R891r70k0803k6991j1884J8027M9453O7642O6896N5455L9731R975m1070r0362j00771
77098A2577p0333m0553m2584n6630m5020r836R743o568l3899l8876k0711q00J3971L5440O4098P8164O4270M3146
77080d4401M4316O1333N6855J7270k2585k5162j44J5456J2294J1411J6750K449m1896q5269r4445p6180n8881n1171
77062b62000m3273l4890l3063k9168o611K8255M7759L9555K0550R016L076m493q115R00J7662K8892K9323K5711K8790
77043a42124M4175O5141P3775N8350K9770R000k066k0441m8505o0868l7909L025K6673J9804l609k7328m3447m3949
77025a00533k4184K502J1530m857k8157l7119l0095j9340j3776j4576j9800k4971k2747q929J1508K7149K8377J3669
77007b54349q602k4112k1805q2L6412Q0702J18418J25683Q6700J6686m3526o2781m5322j9302n970l765K232J9450
76989c333L5822L0751J462k7628l1262j3567J904P623J7343L5433M5287L6574K0291L203k7970p5593j06832r0832
76971a41324m6202j7809j3192J576M1499P5310P0711L6448K537j7110k4159j9331p202j809p303o278J3377L3008
76953b7253K7176L338p529L887J4823Q189j325J1316M7113P9840Q1752M8175J09l5594m9103m8336m0175k4312q790
76934H3301j1606l3227m5958l1465j2510j9586l8245k5000K6773P3825Q1736O1463L5755M946l2326n4703m3691j4720
76916D762L861P728Q349M257j0221k0079o707J5220J1409j9545l8566j8560K2494N1556N8963N2741L6199J1272q338
76897A66795p112J2390L0672K9271K988l6647o3943n7475k6573p982k2687m6589m1707q710J4251M798j5970j8721
76879i2951q255j1678l4651n1943m3074j8901l342j148K309J4717K5752K4437J4688P039M625N949J3437K7292L5639
76860i0059K4964P37j5563j2985k162N273J4145L1150M3809L2108M20j8893j350L8805O2724M9322J6397j797P263
76841A84308K3901K2889K829j7647k8105l7947n6168p1681o5113l5204k049J4776J1974k244j7279k2455j1670P515
76823i9370J5906K06l4200o9255q7174p7047l9942O224L6639M3527M2990M9671N4547M1204J5681J045M837J1990
76805h2521J2562J6111L0118M1643L3291O267k3132m0518l9193k1962o743j4781l9560m4129r001L2777L4695l49
76787a14425k7693k5992j8250k4051k9181j8696o662q559r711J0498M1094N5192N1018M8703N4217N4183M1699J9832
76769I3216j6874p3799j27378j36730r4424l8664k349K3196N5439P7784N9766P767l6036m5483l5731l1154l0182
76752c51636j5344J5438M3811N2694M0129J2764k0710m4799l8425M942O0380Q7715O9495K6380p238j4601j850J5616
76734f5239K4607K2289K1499L7513O0503N5762P210n2998q0597p4380o7380o9084n2400n104M0684M9873L0359J5736
76716a01147K0044L1686L9036M0119L4609K4574J7488J4673N427j3794k5751j4681Q763K3279K6921L0332L0306J5913
76698B07797m042o710J1207K9143L3222K8470J9737N159p994o118N669N681r813j9425j3289r822k2153l5350l5787
76679A75582l6097m5970m3392q392L2530L4488o57k5457j3534J1790K2553K3388K6155J7665j9768p1411j00095q8663
76661a09285n4220k3165p167k108L338J9663M6762P0245P4208N7535L1469M105k2289l9321l1999K200M2297O2044
76643A24312N6276M1319L1227K3158Q006j3097k8945l0956k0661o422M260J1324K2244M0229N0884L1739j6274n8149
76625B70474o1915l9467k9323m1258m5438k3398M91j137j2448O42L2826M2601J2820k4336l1898j2126O443O504o392
76606D3665j5246m795K2970L9612J5296l7174o5396m1019J492J3122k665m579J6433K2749j0098n6239p7130o6860
76588b05862m0025L7N2959R6870J04290Q0312N8374N4566M9746K5663k996r720M211J2560L172o143L688K4181L0779
76569C36662J4515j0648k8230l3590k8013j3210K207L279j3392k9933k7094r127K642l023j9647l8988n6740o1370
76551a3700l9071k37J8901j1k5292j0882M1022P9014O7730K8468K361l934j3011l0955l6775j8430P220K1474L0490
76532A04382M7962O5087N9704L0582O80j6356l2873o1557q9779r3986o9694l2640K459K7808L2248O904l3698n5206
76514a07973m0835j2912k390n450R608N1953Q5970P3357K6288j629J9580N6304M9547j2582p5576p5880p979P2297
76496A01698J04400P3674J0294m6978p8429q3360o7438l7948p524Q905Q802R119K7218N3453N5816K0185k5018l8643
76478H8226j6352N603k845l0440m2844k4557P227K4767J6516o820k6145l1793k8077k0624m063K9103O7153P8493
76460H2528M2073k4856p8170q7948o4201m0149l3998l2886j5576J6905M2945M9720M6080M1508K8682O62k6996l0310
76442h3987p397K2820M7187O3632O4554M0868N147j5109j4415j5029k6867k8531l757K8385M0839L5617L0697K7884
76424B12538J9335J1283J3256J4414l82j8154j1850J5192K8115O628l3089o5595q0663p6641n5028l0177k1946k8476
76406a01240k5866m660J3411P904r206j1416O050K5014L2255L2598L4682L4964K0991j0659m2456m8382k2560J1637
76388e6939K7973K3960J1841l348j8877j9684O092M2062N8618M9258K7892k044m2686p0978n5011p023K2370J5066
76370H542P498K4159L6102J4968j6283k7060l4516o4981r0139o1405O097M3989K5090p075j1715l302j1958l2728
76352a94717m0404k7964p097J1352K0632J7032Q124P935J5427J3466l410j7552j2951N185K3886L8419M5583L7570
76334e9484J4316j0043k2236k1507j2130K146J2495R788r8k045L315o45j7005k7888k4310j8592j5148L264L9569
76315a46238N8053K5971l5227p0551n6878k1166L006J0455J3106J6226J4865K340k1465m2072l3957J3519P3398R8977
76297i7638O9495R558l8095m9579k8815P124M2360O6552P3812O2317L6545P314j6658l7806o2768q4593q3226n1320
76279a75421j0368R475N75j9414k9540k0668N343L8787O5089P3623O4611M4860K1883N515N480J9391L1788L3035
76261A64044K8722K1551q7l8218o4616m9725o438K1180J2422j1992k8296l8491n1190n9079n2576l8899k9831k2068
76243b43587n610J6940L4532M4614N1786N3902M3724K3955R118R630K0225K6467K0671J0677J0776K0823K0275n441
76225A63477l6507l6225n40L2584L5114K6199L5015M7428K5629k6386n7524l9047m257R34k0859l4506l0392l1285
76207D8852m5378m7069j5386L2712O3628O6205N2212K8259j1504o4858j11770j31964j21355q5455k8793L7193Q4312
76190b50159Q4517M1383o933k3428n044K4245M3926N1486N3028N2140M7968L5133N724l8811p7442q3219n1714o177
76172a03377K9718N2577O5975O1078K7147k4364o2763o6432l8824P25L0465L4241J2553j2170j5792j966J730j8716
76154b8195m4265m7977k7310l133L142j5181m6042o2820m5656p158J7233J3459N397J4175K4031J3501P71K0957O5326
76135a49745Q3379N2075P515o757P450K1784K6799L0619K8364N204l1252m8049k5012J9157M8500M9092L6712K8038
76117A83873J6850j1758m9637o6470m9129k2709j6595k4571k1672q857q924k1697k0435N3R631o012j6191O019L5576
76098i2655L0401n544l0690k5981j0960m891n667q204j3359j3857K518K9061M1737L1290J4649Q928J2794J9512L0373
76079I455M6593O1269O5309N1292J2059m8985j06210j28961j13943q3863n2823j4003L3718P0010P5757N5517K7909
76062c9900P727L450J4227K1344K064l6793n7713l8077L83K1923J9285R763N961J0189K3242L6446K7058j3386n4289
76043c7096n6815k6585p637k1185l9256l0833p907l200j7817j9425Q246L9456M0504J1923k0091m2263n9772o5362
76025c55115l3557L8659J07946J25906R2466M5390Q545k0171l7182k7276M506K8056K8091K2191K6917L2598K5655
76008A13625R334j2954m6358p8128p3842k6789J7267J6677r361j5628P89R119M199Q542K1458J4143k0214n1965n7394
75989a77480m1367j4997J3227K1913o589m6731m8751q024K7644L3984M4319Q1555J05088O8767k542m2426k9360J68
75971b1602J1742M083j3353l3853m2954k6879M036K4108K4880J7707P886r035k7373l2925k5182j6153q648K058Q951
75952a52506K198m957J0796M2219N5179L8464J8044J2317P341o896r559J4809L9523K8294j0555l4623k4971m100J083
75933B2100j2453l4451n5538o3626m6610j0460J8378K1004R734J3268M0521O7742O4218K6977j4821l0765j8782J470
75915b094J7872L3657M5726L5453n503n3109p2564n6941k9178r802J34M711J608p660j0786o6J2102M201k8468o4392
75895a85099p3140m1587J4630O4324Q6611Q3393O7006M3194J3479j2267k0033j0332j155p403k5116l9752m2164l2694
75877a18105j8000r023j3159k1193j0230K9720P6108R1537O1740R504k9088l7196k6693k0859k9577m0845l7215j8002
75859a60576K183J6695L4837N8449O5588L7469n061j7864P912K7879J509n0912p3440m8440j5525j1239j9212j378
75841a51126M0452O4882M8682J3575j1987k8959m7194n2969k7456J3834L4016K7666K7998N2306P2020N6896K3136
75824A55772R185J9207K1699j119l1583m5656l8540j6259J5341M3275M7345K0770j8523m5651n0819m0738k8555k5106
75806i955k8768k2300N955L6731L6136M104j6669M368M2035M8739J7242j5874k3180j5952j7442k8504l0774j3490
75788b7598J1862K1648L907k6177l9140k3809r2O834m288j6614j9543j4072l282O551L015j6699l3323k6886m328
75769b02034J3984K7695N1055P8651Q6761P0520M8888K7866o894m8791n8559j8438L0685L6318j125l9480n2762m6668
75751b328l0741j1888r907m0866p9722p3737p921O7308R1144N9918K3978K6370N8691P6372M9774l265l7970l4379
75733A20831j7256j6967k5514j1316L0313O6884P0272M5016R346k8903o4531q1804o8628l7415j6527k0641l7229
75716h4069m3128l0935j6492j7207k5034j3875J9682M0893K1029j7662k9277q347P835N32o308N738J6889P937j784
75697a73583J3161L8217M0588K1359R617J2332N927k0556m4119l7773k467L6105M9328K6500j0851k0733J4058N7876
75679A4986O2014K7788K077J0158K6100K0080L101K685J6254J6431n737k7280k4362p34J9573J8987K49k2498l9393
75660A20479m7607m2944k0406J2644L5628L6270K3418R060r100l2547m4300k9038p21J5127J8506K5718L0674J2028
75642A12889k1185l2120j4132n203k5288l7976m226N5501Q6769O8810K4620k0136n4349o7168n0577j7752M153J718
75624D348j6709l3408k9165O795N6248P6481M8408O671l350J5308K4388R717q753j9678l3780n2115n7424m5767l5433
75605h7218l4599k8720j0870K829J201k742N946K3454L9989N1835N0453K3509j9473m5636l9124k1769j6991j5582R12
75586a22596K2441K3306K377j4222p169J6644L5203K9901K47k8896k4782J6333N9678P0563N0395K3622N656q86L193
75567A61008N355j9265p3362j15291j01213m1411J4984M3735N8874O5805M4707n734m6341m4742j9732j1798k6379
75550a10800l3679j5590J3755L2978L7451L4820L2217L2978L5776L3046J7502p713l0943m3392m1956k4149P481L5314
75532E096L6478J0441j5549j8999q624m114j583J6276L9319L0681k0092p1354p7610m3969q405J3199L2076M6586
75514d0147L6718L897j9164j3466j287j1468l8940n6582m8797j7230K6797N6819L9575k4521q3513q3769k9642K8759
75496b75961N5404M9821K2523j3995l2207o529M6594P7075O2979L5922K8192K2416j7700q2792j17755q8410k3835
75479b58258J9046J9289N583J0170K6449K3511o235l3531k9751K95L3109N6426O7439N6979K1042j8622l1934j8158
75461e7151k546M884K0106M9131O9682O3156M1902K6477J4076q816l4809m1065k3902p414j2695l1273l6507j5567
75443A7669J6860L6642L5426K0872m490m7679j00424j28647j08711o3979l8418l7553k6201J2159M8370N4700M7541
75426b65863N7599P9474Q1343N4302K3171R532O923l432k7328n2203n9254m1479j4781n367j9776l5636l0025n983
75408b48783K0311M5801P5946J01920J03320P3581K7250j7204m7070m9848j7987L3165O6152N3382O752l1166k8304
75391A67218M189K3212K092l6666m8316k2516P029J3822J2978K7127M2868L1887R93j5048p439l627j7711k5561n812
75372A50719K2251K4319l847l8732o2094o8737n2170r863L7679N7154L8685N122k0704m0990o4790q1241p0670l6714
75354b14623o618L713P565K2211M0952M4490L0134J2435m4r509j1466N644L6263N2520L6244K727k0631k7787l1080
75335b6860l4598k9228j1825O683J4220Q784l513j4268j8426j9571k5005l1090k4145m090P688K96r30L4457R2609
75316g8812J25686J11635P4861M2050Q560l5375p2282p7129n4189k8858j1246P414K5743K6501O499q958M885M0889
75298A07874P0556P8089P0304N6941L7350J0488j4788k8158k9501k4631j6305q145r948k5976m2681m3114l0805k2428
75280A35122j9318q867L781o026m0497o3579m8271j6450m131n256J6259O6899J09593J09948O9916J5235k6064l3643
75262B54651j0426R708m470l8289m7959k2015N314P926K65J778J751j8005m9162o7774o2489l6519o61K2755J3310
75243d0311j4160j6880J5737M0092K2799o039j698K2457K0544o839j5917K934Q952j9321n1300n9643o0495p1859
75225b30947p2512l7290J5995N0547O1240O7892P4202O7962N2231M2462L6470J8705n834j2622K411J1887l421k6922
75207A12456l1700j6553k443m765k1230l8303m0183k0091R565K7569L0315L3980M2111L0983j3009n7737n6506r814
75189b5355L3910M1174K6550J4817L163j7539l1414j9840O5n688l4766m7735k4341J0500K7158K8876L1554L0385
75171D1474J1737j6401l2221l2058l0703l2206k4141m033J0948R812M825R767J5596M982j7428k8765k0446p997l695
75152a40953K671K3339M5654M3365J0644l1650o2476p5748o7517l0818K4083O2845O0742L3973J8816K6834M0153
75135a6043M4602M3255L8072K4084O999J946N480p247m3183p1331o1572k6429k033K28p45Q759K0721K3748J7239M312
75115A0862j3213k9082l4212k6431r425J5395M3794N9674M9150K4270J3569K3479K7788N622k6616l6929k0836m501
75097G2358p737k0660k0954k279K1380L2041K1087p406l5781l7651O49N5522P5881L4089l6503p1920m7432j680J2694
75078C5698j5452n8318q7543r0647o1777k595O4516J02983R2204M6363L12k0664j9096j7711l1465m6875l8513q391
75060a56971Q064j2330m4981m7772j5936J7175K8487K7701L0051L2193K4449Q706n508j0543j747J8525L6465M0742
75042b3230M0008M8075N4151L4775j690j5825M214J8511o171m3887m9125k5628j3172j7644l523L8489O3081L2782
75024A34191k3708m6084j7216K5754M4959L6586J3047j9676n3899o9594n2179j4828J3308K0182J8411J8409J0658
75007C8321j4627m1615m0474m916L5864M8738L1973J2653J3608K9654L6902K1609m685k1676k7662l8491n6400n7171
74989c8395k4279J7215K6341K235j4423j146J5420M373k0602k3408J027K5460L4105L7540M4099M4223L0094R329r130
74970A60078k4656l2426j9982J0378K9819J0521l9508q0464p8088l2736K2512M7918K9519p486k4464j3173l300j8657
74952f4195m0484l1966Q772M2042L4861j325k6864j5655K3791N7427N1218K92n9640q0544n0510n421J4563P248m528
74933a40918j3311l1251n8174p0677n0657p611L6075O7793Q3361P7434N0395J7639k267o518n326l967J318J0830
74915d5832J6279J1213l09q775r573o710p492j3651j8835j8007j6569k1715k6093j4336J0232K2155P659j3953j8063
74896a72375r001n295k825J8841N6756Q0942P5636N7621M4039K7048l686l3528l9051k1374m901p238k3361l6179
74878B069l2994j4895K684K480j6122l5585l9915k8857j1368L538O888m372j6060q289J2926J5087j4554m0891k2176
74859b40406L2308P1465O5594L6723K3955L8047N6257M9801J2114l3209n3723m3186k7754k8479l1728j5189J0967
74842g6443J8361R330J5046L8808L8917j1268p4720r1202n0569J425K1198N409k3228m0433k8510J4509O3668Q3003
74824h6699O4294L7506L3045M6230N1578L9862K2882P868j1235l4832m9517m7103l6737k7961j5893K311R089j3868
74806i180n1879o6135m0564j264J8048J3960O948J0739K0961K6750K2875J4625J5283L0438M1461K0024l0958o7671
74788b5539n5012j4267J538k4872n5930m9892q652L3955N4375N5983N2992N3432N8561O7859P6686P1755L9448j4127
74770C18293n7933o4127m0182j8027j0551K89K4682L9189J9206k1968n1418o0728o4661o5798n2391k9003j7057j9871
74752a72056j5981M616K4047K6504J9255J1235l854k5150k8096M685M9249O1888L0636j3054l1839j7239J1280K8923
74734c4951K5739J1506K360K538M038K631K607L654k540j6116k2815j2314Q782K9001M3256M4962K5500n195j5700
74715I6943R041L9917L5985l090l8401m0755j7294Q032J8783R515j4755l6718l9281k5195j2907j1854j5877k1932
74697e9843l5834n1160m1239R946P6995J11446R2347M6514J4576P179L922r978k2052j4777L086N129j4112k8646
74679I3499j7269N809J1366m024j5498n488J4583K0945M466k2455l8131k8912j687J8820J2099j5489l4675k2678
74661b4719J3777M6124N2175L4483J1120p627k5298l9962l2778P431N4754O5793L3187m165j4651j2875k6077m4688
74643H6004l6909j527K5977J9919q979l6220m9751m8820l7076k4135j8939j6588m738J6005L2987M2031M8857N1038
74625C9136M0887K8022L2463M7845L9651n215n2463o3762m4658k6926k1928j8051j0462l899O469K7182M2241K7025
74607H3557j0169k9978j5717M71j8179o1857q6907o8141k0193K5631M7386L9262J1339j4367k0934j3071p147m901
74589a63915Q587L7440O2150O4271M9998L5537K1526J128j4878o083K3599M3892L7184J8702P919N74j5980l7859
74571A73792n3956o5492p5859p3921n1044k4305j5859j6202J195L0450L3352k971m1102m2284j2825J9286M9800R0832
74553g7113J31061J35757R0060K1906k4931l0729j0902L672n085k8267m1692l1987q349J0748J5483Q071k780p872
74535A47051o314r816k8040m9783n4150m2243l6803m3487l7663o047K3042J7406q684j3844R783K9645K6224J8974
74517f4749K8730M3427L9224J6076p527k3149l6072m5558l9605j2485K3025M5979M6002K9470J0302j395j671J0302
74499F0326L0467M5925M1473J4181k3881n8568q0975q1620n3315q136K4302K9920K8925M5508P1324P9662O5158M3786
74481B74462K0226j4144n0374o1390m1904k0653j9055k3039j3532j582q984l0286m0877l5050l1141m0395n1238m6882
74463b35838k3761R409L9222N3692N1196M3786M3998N1000N7137O0900O1121M6100P593l6512n4721m1472k4845k6925
74445H1080l4659k2959Q337L7084M8465M4382K9313N428j8957l2794l6041l5927k9413p573J8847K0871q724l6863
74427B9897l1587o325L032n913k250K3125L9410K5282L244K331J3638J2880P162K1570M6948M1486p950n8920o4422
74408I2638k9312J272m259l6982o4795o3401l4914m173O677J822K534J5341K5114K3596K4571L7221M1749J3315l7023
74389A0991o7225n2431j2789J1657L412k1057l5431l1096j9860j4101j1456l283P847R982R14n655L186K5166M8612
74370a52617O3984O6189N4341L4779J8166J0474J1848K1643L3640L0081j014m0820n2910k8312K614J1698N048K726
74352I1558J0138K5223M9082O7774M8487j6038p8805q9394o0010m3169n2409m8813r107L5994M7157K7298P019J605
74334A3590J217j0031l7573o8170p4559m4272m578L939j7847k6607Q73L4056L4350P356j3658j5250q876l665j69j866
74314b31740q926o464J8950N3554O6009M2784J058l1390l8414k2700k236M759L09N309L0409N9736P3171O9959N7143
74295A41280L2484q21j9549q570P562p009m3878n6669k5871J5508L1505K7893K8602L1328J3124k9448o9462p9929
74277a1920o0516l0670n424J5429L6080N0269M6600K7867J2101P158k242k7625m9266l8853n085J0303j2165m1649
74259g9608l6574M075M2671M5988J5007k1567l4878k1002k516j262j2280j4991o298m407j7763l0069k3680m53K8474
74240a71133N4915O5629M3780l875l8233k7764J3007M3382M4469K8387J1034q3K449J9621L1229J2326l1190o5093
74222C2857p0673o4640o6365o7006m7516j2441J3844J8287J0149K915n18k525j139Q420K5614M1167M2945K7311M858
74203a04456r112j1109j1191j5152j1488J5738O2761J02380J06478O9291R539m4129o8649n6647k1412Q091O863k3404
74185D392n2088m6403m027M1992N2889J9748k8987n4047m0166o778J4941J4351P711J2794K4858K4746N919j6946
74167b5101k5905j6832K274J9987K5945J7443O672J1513L2649M9378M5483K8677J4197Q39k0174m0234l8917j5502
74149G2392N057M943l510J851K1641L7093L6227K3378M346k3415o0495r5067j11850j07947r0754o1062j1179N2113
74131c06238R4249Q2499L0495o697O110M2338M9979J9625p190L264L4674M7984L2437J1111L283P4j8561n3551q1670
74112a5785p9882m9993j5254O656J9737L3957M2694L0146j152k7579l3840k9299k6422j8936L420L0532M1697L4191
74094e5112K2638J2666l068k0607k0700PJ5196M730j1572k80L3205M5837J3635l6898o4153n9046m3009l3138k7713
74075b27382j9035l518J8196L7496L8116J5454p699k915K6108M6519L9830K1293R052j930j9139k7272r022K0911
74057d4937K9784J1141r688j4341j0730q845k603J1172J6036l042l3283m6836l4115q754J6671M2206O5394P0757
74039D5987M5573K74l7020m7264l6390k3229j7062j2589m375K509K2j0478j8720j5316J856K4962L5650J7218k1023
74020f9415l9482o553N8551R8763Q0556K7744j3656k9125l9601o0991p8934o7992k5653K0140L6692J7162j6149l8460
74002a46403m6307m9368m6451k5549J0594L6218L0808N189j2442r598L806J7012L1402M9187O0812N2317K3224q043
73984b3592j9232n371J6896K8075K6140K3013K4236K3363J7841J6752K4167K5538M300l2667n9867o3512n4443m6935
73966g5298l6539r984K7698N0509M2159J9511J2434K3915K7464Q309j2852j1568K381K237j1254j2298M914J5262L885
73947G0885j1427j2331p465j0168j3458r581j2761l4935n5267m4749j1785P240q38j2363m096K1701N0714P0413O7717
73928D7446L7066l074k2993j7301q153q580o160P158J3513m183l0789l5559j2945J1680J5896N817M244K0493L7779
73909E1355L1939J018k9280l1930l487M0264Q0387R6639O9508K312o6367r5259q2237n4035k3883R928K8476j861
73891B3487p3561j24123j03010k9934L4641N6358M2472J1188k5147n4658o8136o5833n0983k5213J56N062j0849j6895
73873d74978J1222N5977Q0754P5243N5472L0772k047l7412n9692o1933m6935j5927K3396M6923L8410J7194J3472
73856b50089K2112J4922k777J0697O7009J16006J05134M6377k364q519O493L893k6633n9561o3737l7778j2134j0255
73838h1204j7391o268J3911N344l6611o3603l5364K4992O0413M5803J224m2894o5012m9093M068O0607P5272L7380
73820f8426j9693n6439n9841l9469j0977J0808J7841J6337J9892L1924M3592M9495N3628N7243N3010L6082J1321
73803A46328j4075l4936m2138k6279L639J7418n238m4973n9065l0521J0161J9967n516k6656p516M0800P4139O7537
73785H3076L8481J5762L274j1554k6739k5434m245J9191L0678L2562K5617j625m9838r0501r2526o1980l4338k6728
73767a76867j8496J3079N5383P4302N7335K6772J0624J4179K4687L2496L6650L3850J5128k0525n5556o5949m5545
73750A1547j3492N197L040q990j8898k3460k1023o727J6512L0885K2500N465R184L5452M6992J5695l0917l7345O721
73731D8338M7677L3543k2450o1630m9847o860K8452M0541M0961M4255M7697L1686j7099p7184r6800m5135M3119R5363
73713A24627P7513K3642j6244l2569m3412m9706l6050q492L243j0879k3034q722J3577O156l2756o0173l8345K0976
73695i0648O9469P1428L3160j1465l5101l4923k4227j4587p702P14J3588K7739L4114K5497O940n191L9J5293K4612
73676I8749K2006J1769n866l5134o8619q5026p0884l4984M471L6109N2152M4236J7116m732k687J0339Q511p852j4418
73657b4744l687K275j1368k5798j5393J4178L2512K1306r499l6152l9657j6636J5852L1118J9614L42l617P438J8882
73638b3034K7833M0938N1597M1946R839k4795m4474m8380l9186j6097J0405J6712n175k9839k5688P141M0109N1228
73620D1080M2150K3633k99k8988n3851n6727k3207L6881Q4101P8363K1058m2368p0954o7483n7902m7225j9300K6722
73602a14316O6724Q1363P3269N0206J4490k2379l8875l3244l3301n5716p3021m8353P338M3585L4702O440o698k125
73584d9911N080J1069J7616J5953m82j8197k0695j5453k1000l2293k4608P297L8835M9993M6525L8188J9945r750
73566E8112l2851l4678k8394l4345m5652l8349j0871J0687Q155p633j4544k150K5523N5787P3273P2206O2655N3769
73548A70700L8222J1706j821K4102O7465O9866J2559n3920p6796o5451n9875o4235n3448k9761k5957n1075p2681
73531a60400o2843l1395k814J3380J7209P413r476j8677j9241k8227m9239n6504k9085J5232M2535M8120N4909P2195
73513a96908Q2130P1183N2502M5327M6594L7451J1300j8850m0792n7869p6765q9697q1334n1968k0742k111Q828K1345
73495b60376L2955L8848M3491M7180L4670m10l0649k3644Q515K1341J974j3815J468K8625L8391L3810L1221K6859
73477F0454J1170o507j6218k7940m3905l6641O131L9725J7472k8341k1410M4674R2122P2163K8737J9708L1847J9671
73459B62912j3939k9656j9202r511j2254j4917j5817k6250l9641l7030k4458k7535m3472l5540J0701N6331N4465P895
73441D3082l6898m2479j4091J3526J5118J881N926L3311M7549J8864k4892k9966N038K3651n603m1805l2309J1862
73423h235L6903K3176J903RN202m905k5573l3491j9964n90N912p07n318L32M984o476k8765l9608k9089j3215j2488
73402a50003k7821m4560n0686m3768k8865j6025j0362J10L2743P8539R8728O7547O674l7638m1903j7442J2342L0254
73384a42136L0447K1275J5854J0142j3608m8811n4615r936M5045N6918L1494J5567J8865P915k1155k3670J8369N5251
73366A3211L9377m703k1953p983j093j2367j4483L358J5993O537p257o303j979j5834m5220o7223o7334n0298k8275
73347b73829j0015l29j281j0385j9602j8874l383K2059M7494O5832P3725O8607N2825L7694L2179K9963K2513K1530
73329A36723M4654P6009P1668J9658l4454m5696k7785k2093l0826k2823N163J9363M641j2902j1460o087j8056m0533
73311A05164n4544n5728m6053k0681J5280L5831K4322J129l052R087J0126o436j7810j0874k025p089j2551M329L6972
73292E397N1849L0990l561j6731j509K0508L4425M7793O5603P0468M6005P375j4320j3594j4042l0367m9560n4196
73274A82533m3116k1546Q751L8173M5923K2128j7905n0696o3753n2057j4992L0691N3418M0291J5248P504J4527J3503
73256B08625k675k0885l0774l3251l1854l1296l6991m1639k3997K0216N8476N6142K2395l142k209J0939K3977L9572
73238A81629N2815M8426K8569J4833J2617J288k7446m8528l9031j1760O901J4069K3688L7319M3549L6704J7185j6911
73220C75916n8938q3482o9418l0062j127J10j2656k0033j6432m639J0313J8083J0028m931m913J7400M2575M6733
73202B14527K7498P21k1181l8558n4789o4614n5632k2938J7590L6776K0546j1748k6780j4326N499J2268Q100M474
73184C7433J229o796j1120K955K9553M0434J8532j7908l5343k2357L464K0877K3438J3218p810l2360m5622m0559
73166b8742k9590k9051l4933k7009K076L3706M3946K8817M580r734n626J1358K4870K0453K129p984O488L5727N3776
73147I5257M6467K2445j841k0119l7484n9172q1017q9407p1326k7948K0928M9145M3872J5109j2643j9259m149J4896
73129a16246J9935J0586J72m860j3202l2179n1572n3451l4497q862J0245K2296L1179L4504K7776J5395J0214J9555
73111a13012L4137L5153J4329j6402l9204m9820n3837m7270j8214K6493N4730M5024J6400K726O253J494j7603k4174
73093a42797q68L0763M0755L0832K2941K1655J2163j0547l3351m4734m3462k8436k54K5160K6283O272n891O108K4361
73074f3047K5194J0067q333l2753o9666j01705r9753o1589j4863J9000M0345M9074L5515N377j1513L244K9639L7276
73056b08491K6243J9240K4617L1102L3140L7239M3134L9288J9842q791l6981n2706l9921J578L9347L9741J6853J7333
73038D1807M9591O5921L4543p525p269K5431L4124j985m5665o1154n5428m9880m4892l0792j0939M560J2576R874
73020c7102j2261m9202p0400m5421J9500Q3912J10806R2496M3259j8340p3429r9220p7849j8173L6809M0629j0154
73003h4140o9203q8536o3366j9635K5326O5757Q3745N8889N801l0948l1182j9514j7267o723L0196O4899N1451q732
72985e3182o6243q3484o4435k7934J4300M6904N0460K7913R795J7141L4580L4178J2868q300j3154n517k32p773k3636
72966a05751k9066j0052K0995L4171J8865q33L055K7478M5830M0819J7095j1023l0737l5146k9486k7976l2816k5169
72948a29747N727L3490K1345k1954m3373j4709K7650L4151J0389Q66J6010J6677k0881o2037n9766j9514J2006J0683
72930a82987l737p622l191m33L692J2684J7071J1134P998J9547L3508L0925J6783J0361J1189P50k1346k9364p871
72911h0909K4857M0090K8351l219m4319p8542q3673n3695j1709J4566K2369K5250K5432J4552k906q821K389J3335
72893a56602O318j4101k7444j9624N314L1414M5765M8720M8831M8282M0799K7377K2531L3238M0313J7775l0794p1033
72875I7079p5494n0317k1655p782r992k0969l3074l9671l2432k134M9046R4177R6554N2123M408l335J7976K2023o234
72856A30297l4824l7999k8879k4907j5839P911K2844K417l6936n5019m4726l5198m0205l8376j2139K3231M2265L9030
72838a37052K2636K821p964K159K4012K7594Q25k6641j9441J4419L4544K3068K969j164L888k579k2322l7503l3766
72819a29497j1960J6317L4249K7879J143k1203j8378J215J2549R757J2520L3195N4645N0947J8205k4934n5859n6419
72801d5629j7768M3551Q3105O6262R598l3861l2714l225K2761L2810K9351J3488r670k3876j7651q19O505m784k9469
72782H7965n5121o4445m4298m354K5634K9537K2523K2887K4387J5364O281J0987J5170l804l3797m0024j8194P38J998
72763e66N049K0136K5024M911j7506j7781r307j8085l7364l7980j2230K0065M1333M7832L8952J8706K349o33l710
72744F9195k1086l6651k3845P614J8162l711k2281o453K6838L9863K3716n89j5778k0307j5293j902R703P195n798
72725B8592j2258m923N791J0466J3960K1467K2645M858k1072k6087r16K5353J9675r690k2378j120K4858K2755K005
72706A03981m447P854J0513r852k8178j8507N660Q931j7248m3954m3554k3042j0778j8319k7077j5287R720J7046p615
72687a04153l8010l5059N094M4226M5736J3069k1921l8098m0085l8319k8896j216L9401O7136O0006K6445L6N143
72669c9465L3518N7431N7474L1904q990m3576m3624n65N2901O8887L7635l944k3101k8096m0797n5239m8562k0901
72651a7110L206J0798J3475K1464K5848J4500r129l0521l7324k5266l087O629j2332m3610m9315j6035K7250M8927
72633g1632N3715O2773P1258N4117R057l4816n4332n3150l9387r108L2924N8095M1732m550m5851o0367m8357j8574
72615e6453J2995K2088J214j9228l921L3525M1371O05m8470o4442n5441m7343l2693J0341O5708Q8822O5918K8461
72597D3057N727m191j0007o843N875J2630M878m184k532K437L329R770K7356L8404K6290L772p163j0649k4414m1257
72577G2285l5123m667K1237K8337L7957O8614J00224R6878N2239o176n0576p4852q6479r0186q1995n4960j2610K2635
72559B782K4574n765l3265k4637J3191M1821L5834O437j9179k9107l1140l4194l4542k0823J0820M8210P0822O7684
72541H9523M7006K6725J7505J7194J7944J2550l900k8920m6580l5950O103N4172P4332N5205J4796k1307m1211m6463
72523B08724m1212k9509j8994j7908k6548l6783m2170m4296m5722m0203j6789K3732O0599O7844L9756j210k4735
72506A4576j9086N062L2173N4064O5001N7312L0991J086j5172j6584j4530j3737p931M360J2065O020p110j3094q214
72487A67252l236j0944l1569m7590l4806J2074O3397P6419M0102j2107m1321m2596l4903k7500j6996q105j0492j5319
72469B1760j893K5599L4240Q863k1367k3397p696p784k5050k7696l889J8675J7929J2585L0042N8834O1232K6608
72451A97595j3570k6490j3852r11n331k5145m5873n0613l1997l417Q680o976l1439l8032k4483j1360j2481k0827
72433a56522k3832j7529p57K9735O7134Q7883P2689L1959k838j4199j3492j8307k7841k9826k2618j6392j4178n564
72415g4495J5773L8195M3874K9630Q988l024q43J1463K1821J4746j3964m5904n4693l5718j1122p63J74P245K2393
72396b6224L5623M1896M1716L0530L949k7306m2577l3660j0877J3840L7370N6930O3979N2261K4494j0409l8904m4735
72378A67896k4047Q52K1k6726m7010l7491j2512k352j7663m5052o3073n2873j0928L5050M2488O050k4652m962M2288
72359g4696N6274K1471j5897j6042Q505K7941M0342N6457O4497M2951K42k6731j6255J3589K7366P506l4666p2028
72341A10826q1873o0898k6828m962j0066l6682o2489o4094l8842j1654r678k7748l2464p116K3596K7560R934K340
72323c01138J4831K5037J7234N473N754Q498k02n936J6543N6176O5287J7882n1455q3349n7459m668L6908N8169P0148
72304a06267P7814P4849N7210L1306R159j25L756J0272L922k1709n4080o9926n7021k6749j484R812J6749K5124K0766
72285C378q369l8674k4930M0559J04764J11379O6972K4301J0311M159j4047l0347k6809j4015j2253k0739k6214k6558
72267A22868k6465k3167j5001j1723j8292k0637n814J6171K9439L7308M8499N1535K8856j2220m7014o3663o2646
72250B8034l9126L722L4498K4072o913r397K2786M2026J5951l0283n4935m8520k4025R527M0066M4462J3378l0736
72232C4587n8119n9384l8192M19L8686M7744K2615l783k073J6960K7098K6278K6375K3577R309l511L073J7498J0980
72213A40137j9101m5463n0382m5064m7096n6881n8905l4939J9643Q0479J03677O7024m024o4099r1013q8126o1686
72196b55819j9916J7326L3847L5390L1895J4135k6002o4776o8827m1927j7710j0672p014K26M005J0903L6322O6413
72178b62201O4356K6039p906j0499k285p883j4721j477K2520L6521M3081N2156M9755J6647l2457o0863n6735m0598
72160a86550k8678j6170j85N823p327k3799j6205K2217O5269P6539M5745j83k7100l0794l4227n0652o5470n7972
72142c29719k6021J6507N2963O8625N6511K6836Q57q485k00K5390O0455P6577M8978j203k3296p109J732k3465m2542
72123b6609j1676M0937N1369J1078k9647l9111l3371k8832j7637j595m032k6467l0884P922N8383O8259K8911j9842
72105b844l9512k7771p840J637K760P759J5352Q722j4347k5338k103K9255K2578k0751n0004l7487j3225j0660j6357
72086a80176k682J9670J8165r719l4897l7636k1967K565K6607L4663J8626n391j4315o167Q039K7977N3731O4122
72068c8785L8797m010k6905k7190l2436m2062k0924L4883P3366N6286J4665n45Q903P671n546K5K6562L8623J9738
72049A21116m196q920k751J43L390O789p057l8937n2206j7596L7410N6283K1696l2842p1608q3904o6306j8067L3575
72030a23988L9925j0992o4552n5959J4828Q8638J17453J01930O4092J6098l4240p3025r2117r6067q5118m9173N009
72013b37258L9439K4837j3447j8681K7086Q2656J02706Q6114N7444K7452m253k5461k0310K312J4226L172j6757l0957
71995A00320m1091n1721n8362n6597m8786l4201n856L4036O6906P6018O3633M2778K1070M17j6579k8951l8606m1999
71977a7571k9750k645K2396L2650L5846M3894N0730M2367K2104P729O177P914O467P083J2844J6431J1363J350o537
71958B70842j0768j4694k2974l8946n8205o5939n0497j9956N176J7119K7104M2340M8636K6473j9963n9642o3556
71941A2550l3790n75J0167K065l435K085Q468J0966J9250L3440L1681N5m0093n6995n0476m5174m9122m5788k5599Q99
71921b19421K3334M0300M5029K7832p61j3360p88J7083K2282J8179J1985L940L225K6159O3990Q0303N8963K8035
71903B36309J5575J0092q081k4538j6644Ko078k5986k3036R45O40m0335p6468o4184k4912j1614l1965m0677n368
71884a36323N0119P7106N7183J2339k8243n2811n9577m5449j6077M717m209l2233m6568l2628p581Q303J2884Q914
71866b30134o102k4007k3024J098K0698J3445m548o089M137K386j1250j4053R54J6510J8285N860j8907m8911o2059
71847c65711m1976n261J8784L0172M8649O7677N8302K2777K263J7207L8248L6453K7964M1989P1055Q2657O3723K8482
71829B43454m596k2559j8165j670j172l0544o5473o9575l6699P978L8607M3480K0718j7966m3179k9666J2966M4160
71811G0099L2456j2868n0185m3930J200M3664M8614K5218Q801J0755Q647j1721l2132l2218j9270j0225m952K604M833
71792C9390o150k0197k4361k2250j9669r154R471J4638j527l987M0178J00750J12914O3869O340j8846k8012m7704
71774A85693o6441o1886m4591m0209m5932l7105r432J3956J7350J2033J6042K9498L7362K9519J1927q33j195N382
71756E1138R898R781N190o814k4175l1899j6909J1035K8341K6739J7192N107j7224m7812o6456o0707m2049k2238Q692
71737a63170O0751J12524J25090Q5829K1562l1289n5276n2209l1905o609J3518K5980L3513L5287K5442J292l0995
71720A69335n9317p2536o7039m9700l1362j5532J036J4271R836j6896m6754n5658m2924k7243j8000o890J1564K9104
71702b74705L9761N0888O7085P5140N9705K7898L883J24O214P266K266K35O386J7290K4638K0045R94k3973m0212
71683G0928m1383l5037k9616k0851J856L8312P4554R5680R3800O5235J2974m3240p2259o0392l0782k1396m3203p0559
71665a5379p4854n6050l3985j8593k357J9782L7664L9749L0772K5365K7356K6209J5226K480k492m180j2495k2651
71647a8433j6471J3568N1386P3282O9826M7585J6879j4688m2186o5190q5809r7032p9450k4571L8965O1271K4908
71630d6160k8621m1503m485L6662L9896J4155j325R730K6358K4778P530p364j1720j0637q368k501Q816K1140K6215
71611E2596J8441J719r884n500O592P021o250j2470j812K277k4926o7290q5199p0432n2692m8146l5099L971M5547
71592b81536N4774L2495O733q999k1010k7058j3343J7087L8296L3908J8993J8893L7092N4391N4252L9463K3097Q934
71574H6462j1759m0007n4051l0913J6239M2944K6455n233j3814j422K976p602j5515j7778l0961n3011n6196l1707
71556a94893r794j5280k9415k1249L567J5365R840J2977L8068O4931O6504L5548j8231p5541j04725p5191P114Q9677
71538b00728J18240Q8595M0363M968k0702m7643o5026n3804j8762J2620K2239J6536P920k435j5080j9429m540K2601
71520a14067M1179L6659R550k9292o0817o1685k3795K8284N5845M8633L5695M4483O1498M9626M3n1716o7397m9999
71502d7273l3209l3970l4497j5966Q715J3100k126j0332p63O132m820j4578L169M0950O5470N8665K9937o990m6032
71483b4418p6729q2269n7328j5340K5576N2725N6286L4229L803q464M104K1383K4412J7772J6924K4948L1065K5337
71465G4016Q683o243k510K3497N0049M7339J1422k9779m9291m8647m5860m6589l8555j2206K0059K8986j980m9807
71447f7416o5899k8567K9104N9754N7182M6202L0355q860n8696o8908k0918L5182M3931J5451j909M563Q309M35L077
71428A2372K2699L0677M825l7864o5150o5573m7587k1793r4K043j7409l2790j1931M4039R3119R3142M6386m901k7301
71409A6909k7907k9848l1425j2478K3458M2891K7295j096j3340j1283j2298j7905k1827l1544n2789o5012m4121k941
71391b65261K2394K3040K2353L0898L2024J9040J1742K1008K6685R863j7391l4782m3744n0799m0446M189O2109Q6631
71373h0447N9747J1927j7156j9114j0626l756L224J2721K0250K1755J9398J5512O956o855j3546K697L6768N7925
71355A17380L9647r700n4440o7132m9280k0738J375J3461K2700L4000L7469J6035k8595o8056p6675n9208l6029j2888
71337b00674J3886L2206K3092n966k4418j9820r463n505K459J9245K8332K2384K3163M7957P7870Q4247O7705M4197
71319B20897J1540l5781p2271o4003k5089j0722m2961p8822p0710k9592k708q226k1066j5426N690K4879L3644L4361
71301a46366L1297K6473J8318J868k2812m1017l2240L963L7559L5110j006k8597p509N5666J08815J01625L1684n4163
71283A18668j01509r2319n2436k0309j1044j1389m933P014J2797R295K897m458j7246l2485l5941j8829R907L4797
71265b07523M9814N5311M6899K1165q840j8628o27J9500N046n0691j09155j17268n7746L0433Q5515P9513L8750O875
71247a31657l994j5248m0399o0636n1229j9310K690p43j0334k695J6470K3889J4825R513K2938M4568N4998N0878
71229i5476M3633M0988M0276L6486K8004J5321P99j0458j3781q625K125J2888J4850K440j5954k2633j2274q96n811
71210E1902k5128m4938n6222n4116l2842K415K8150K6035P060o432j4400l0480m5963l3785P578M4110M9685L2830
71192i4541R229k3237o2702q2316n8949r293K6935L1610J7591L961J640J4042L1089L0093L507k0829r723K9495N6749
71173a05649N1612L3702K7619L1266K7797J0657j3662l3918l6788j4965J7113K7127k469n0731p6960o1273k1148R300
71155a81370J1076o958k1905k0435p484N765J4530J7967J3785M629K724J6363L6065M5603M2477L5374K7379J7960
71137E3545J6258L0603M5259L2431o264l4510k9122j0365p816j7150j4634M10O398l704j5253k2406l7693o2587p3474
71118a50074n3464k0455l780l472N411L1663N3786N2209L6625K8528K8935K0380l072k4277k4691n843J5617K5127
71100I153J8042Q66p871J1287N4036Q5345P2028K0236l2754o1636p1068p0802n6465k7635o150j4446m2126n3931
71082a73891l1017J0919M4801N7377M8351K2383p082j8996n268J4453J2088j5603m4052n0940l7548j7703J518J9539
71064a70671L2108L4376L1208L1812L2177J5222k3341n7044m9812K210N8562P1485L3166j9213m4184l3795q135J6440
71046d7429L9006N5967N0226J0803m5988q8938j01619q7513n1122N823O5950R6045Q1063M5911K6079K4681J8820M280
71028A02045O256L5384N7587L2548k8048o8727n8829k6626j3447j8781j5387k018n146k8593l8298j2354K3384L3242
71010b5808K2457K0591L0408K8752J2784P897K3700L4966J9191j3068l9293n2823n4481l9655j2773N450O314J0635
70992a4756L4565N5607M2400O487j0292K575J0381j1201l7544k9917J1217M7837M9868K2085j0909l2248m1996m6519
70974D7640m5783l3491q053K0690L7235L1151M218k7699m3350l7503l1387m6486o8788o1687k0025J6391J8033O533
70956b42361J6329M0834M9122L5896J6434j2677o1418j00495p9188L56P0557P7205L4977j1087m0803n2921m0919p872
70938c08031J9219K1359J5609K4480L6770K8231L868j2256j5873j8547j5594O811L7402M7783L5411K6238L0467K7219
70920i434K193k7610l9632l3120j8106J361J7831J3675j6278m6461m3266j717N1664Q6220Q7275N7766J4710j8272
70902G8799k6742j5018M318K4251L8854L4552L864l2948m0064r183K4413K2993o875k7134k1979j3969k1216k4990j41
70883h215L9709N5117L3183p04k4484m3839o5372p3201n3158k2333j0334j9226k2642j151L7739P0990P6475M2888
70865A1442j9119p6166r7514q2211n0583j4641K5260N7477N7492J9223k8434m8979l3891k959K1972L3274L3047K4209
70847a71101R897j764J648K4135M7550M1426k528n2005o4668l5535N51J4158J2225J8016L5909M8475M0404J3438
70829a9769j9224m3433m8579k9408J0023N2154P0515M9877P561j6002p13K5783J9800k3233o4514p3151n9660n0447
70811b12420m9690m2250k1004O418L2352N5898P6174Q7277P9556M5592o143m3093l2711J4447M3997J9128l0999m8368
70793b5839k2782j115j7854m7408m1808M528M9308N4350K5387k22N474L4462N2253L2995j3050m8589m6494j4581
70775b0985J6862K6225J6827P664J2391K5476K8749J4646r33J603J5689J4324j0589l2622k5801O49J8763J9604J3280
70756A41822J142k4320n2902n8919l7795j5261q420j850K0233M0824L5097J3498R604K9651M3784L1257Q390R23P771
70737A84529O401j6232n0058p4507p7800o5822n3012m2338k0838J6057M5393M0818J1416p192j493P479P536J9953
70719f9710O0597J01823J02266O0970J3903j5290l3346m9592n8408n4906m6842m3188m4451m7463m6419k9085J0444
70702a88697N2063O1570L1177n847j0345K2799O6164Q9253P8019L6527j7226o0008p7035o8579m3593j3309P527L899
70684c5641k4829n6189n8968k1182L4881O7658N3617J3295q173O872K7864K0942L16O984M0596M9201J102o4378q4531
70665c0563n1607j2044K005M315J4377K0174R81l3609n2979m6847l4052k8668j9136P690L7771M4708K7857J5158
70647a34469K4044L7399K8519k590l0191l1978o994K7156M4562K8686o720k4701q734J2904P072j3089p810K5621
70629c1313M7676L9055K6975L2937L4142O301k6851k5549M085K1437J5548J5614L4826M3777J5513l2196o0560n7550
70611A03867m1396k7761j4913M36J0960R523K485K666J1329J6741J3398J2242K1940K9077J5351q741j2239P722J3062
70592A65749k0605n9180m9364Q682N8642N5781R905m0483o8800o7678m1451o689J5773K2696L1137N0650O6006N8197
70574A88968L0490J745j6489k4748k6318k5088k5937k5895j1694K0961N0444M6377M528m6368p3922o8861m2220q552
70556e2579K0882L7244L8658L4834L7165M0895K6245j4663n8627p2706n4376l5069l7728m6637l2922K221K9285L0459
70538a07419J7360Q183O905J0985K1642L5517L8595K0605j0452l5458l9989j9538K0197O0605P7535O1909K9040K072
70520A98294p974l159Q464J4202L601j5788k1105m453J1897O190q493j942K7481M8406L7924N643k6657m7550n1613
70501A73368l5514j2301j0976m2242p6046p4059l9358j3097k0515l9797l3875N7K7365J9891q932j8986J0640N8487
70483a35890Q5788P7783N2194L1236J9392J2216J1334J7763J9503K169l0142n8193p0879p1479o1179l3457R500M9976
70465g2365P3234Q0649P6135N4133J5004j9780k6760r813O101O726k234j3640k7055l8365m1268m2440n5203p2332
70447a09273o6260k7071J8564L9738L5173J9861k978l3719n3724l9221M855M8398P3163Q4863Q7897P2613L6499r35
70429A88443j7394j2377n177j5997n0920r4039j12580q4587k6825J8420K9518K3573K3079K4626J4668p19k336J3979
70411h6645L3643M2871L6614J2712k3914n3165n4195l1057r194k353L156K4274N2264N7968K2920l9371r0773r7035
70393b01280n5734Q59L4814L5492J9950M724r545k2621k0654P134M5006O2174N0133L3395L4927M2845K6370j8786
70375F9203n8146n8163k6632j784o407k5923l2719j9084J644J7971L1256M3188M3298J9069k1780m8397l4940R472
70357i8874M7745N4380L9248K6719K2818J6326M615j586j73m535j9586k6271m153L7595O4051M8577k022n3382p2432
70338G9060n5957l1465k3341k2389m218K5951L4499J3409J115K6780O1064N6404J7438r751r414j1211l0389l9578
70320G8007j7565J2855K0564Q848m038j9475m2331n2722l0546N024J6503J074j2110j2634j9069l6507m2304k5849
70302a72275r269j1837k1471j9675r784k75J6207M2859N8369M5253K2991K1583L2358J9299k3467n9794o1782m1159
70284a71869k1756r974o174j7989m1255m8248j9204K6459N2042M7747L3120K3917J9706K0801L2929N0582N4995L6742
70266F2571P486j5943k7317k6458j3025O216J4888L917j3507j4002R280L8556N1309M4490L5585L8350M0889J6621
70248B59906l9135r3364j07448p9924m4254k6451k0320o121K2611N7699Q8077J02929R2958O0034K1399l594r124l505
70230B72373q79j3818m2876o7777o1509k4235O595n406n0994q2587o6317j6314K4258K7400J752k4217l3377l1283
70212a89211k8459k0703L295L8714O3462O3231M5280K3954P268L806K4753O4578R2974Q3856M5819R792o690r372
70194C16347j0246j7315l5287n9090p0447n7122l1815j6090j0790j251J3060J7631J1602J2380K5237L0548J2068
70177A29420j9364m1764m7931m4739l7807k7791j5094o65J3661K3781K8240L1913L5037K4483p616m1397m7660k7612
70159g2905r288l287P755K9246L9139K8298K1761L4527L7558J795m8322o5790n0340m3520n9438o3891k9574K3921
70141b22355N8603O0009L9222J6347J2766L7432O7778O4144J7992l0759l9630j3522O570n009l3423m4860k2475J7064
70123a4106L8628K4707m227j5848j0211j7823m8872o9723m7654N74K9845K5557J4353J8473K6208J5935j0395l1386
70105g5965l3821k3399j0970J767J9312L9121M8385L9037K1934J5298J8690J3506l909q077J8751M9368L8520j5819
70087A51729o6284p6686o0568m5648k7365J4284O6541Q5809N0312j2075n4669n4701k1704J9387M5043M5358K8032
70070H6795M629k5461o3552q7392o5008k753M6983M6374J8935J0881K6258L4897L0696L7682N8577O3351M1386K2104
70052B85382K2039J2019k9745o5944m6330J4154N0701L4998J737j1401o380J295R656J3200o003m5792p0040n4316
70034A09230k4671k2247m4346n1790k8146o25J594j4043j6150J2679N7997Q6439P4571L1443p737j6745m593N69j1541
70015A31888k4610k2006p644K835L96j2896k8759l5552k3216N951L3081L6849J4923j1463j7996k585J2856P269j6934
69996D2387l9474m5023l3341j1956Q984J6234K849j8402k4912j2388J066M856J2137L4311N5946N2711K3108j4624
69978E4469m6524o6284o6397m8613l4537m0667m8771k9013J0737L1326K1439J5060L6842O3689O3676M6158M2548
69961E138N4011N1139K0756j5777l3829l3511l0640l4756m2122m1480k3792P075L2911L6590J8421o681k4143k7164
69943h7854j6342M69J4174K6618M7442P1052P0973L2531k0696n2456n5962m8239l2011N540N6205Q6126P8199N1936
69925B27705K8458K885l0565n2213m2761j7915q049j4477j6055j2315k5374n5600o9514m6834j3022l623j4866j4745
69907a78880P230K9153L5250L8603N4431P0074N9833K1387j9429l8202l2150j1738J1593K4896J6998p024k5791k7114
69889B9120k2785k5140k1887M400L9430M7092J8235j5352k2477n249J7478L4045L4424P386l5909n8585m3836k3819
69871d3429l2996n1610l4600J4581M5205L5886K3286L9904O5252O4452M3005L1177L4072K8764K085l3010n4123m7180
69853A30721j6124J2775R497k3724n1039n1624m7033n9078o6969m1148P5J1612r602k2776j0146K061p43P276M2772
69834a83217P5706P3192N0727M4590N4274M8151J3757l0951o8536r2358r0446n2762J051K9930J7505j0462k2475
69817a42324j5181j153J6886M1322N9931N1679J5251j9278j5424L1889Q5956J00185O2710N853k9616l1967j7820p792
69799A91107j4200m0245p2146p9084m3563Q927L3157J9602K742Q045J8383Q462j4271k9156m2180p1264j00577q8672
69781c04933k8645L4126N9947O1736P1229Q2869O6524K5891L545J8667L3919P812m1663n6702j6336L6760N1950K8248
69763A34944K115m119m32l315j4211k7584m4113o5245q1110p3321l1249L4593R2620J05822N8390k4746q9371r4051
69745a24383m5554J0584L6394L4401L2065M0959M4078K5965J246j278K2182M5013M6892L7891L5225L1958Q325l3372
69727B48591o7308p7768p3819o6401n2456l2959k6559m5556p1167p5110n8358m2983k8129J3372Q2064J26019R7417
69710a51110K0996k6990q395L7826N4694L6989K1203K5160K7516N203l3254n8497m9317n864N1837R1205Q5364L6097
69692A60663k4880o3076o6984m7537k2362m692K630R652K8182N1849N5850K4926k4696n8550n4004j4404L5355O1161
69674D9083M2545l718l3990k5792m509o420k7418l1073r00L9886N9417M5637M740m4164p0190n2248p896K0696J7278
69655b9036N524M692m21k6953n6552n7466k9425mJ5019K2527K8240K6835J6285J394j8227m4826o5916o1358l2140
69636c01808k806J2757K8762N7331P8081O0327J0081k7980k0822J6852M6334N1913M8610M8886M2238J4949k4702
69619A39003n3932o0249m6227j6472K3414N6051N8480K6041j9844n2001n7574l8188l446L1653N4265O2690N8940
69602A62604L5176j4448o7889q6023n9350k1343j766R473L1721N0300L5013r911m6388n0132l0476l763K4204M4000
69584A002L8079N025k7827l0208l35L6422N3553M3965K1449O043N497J1736J6220J9686K0092L758l6014p9045r4546
69565A4552p4765l9420j2145n962k2563m6508m7603j1524L5791N5746M3897K5947J4344o55j9526k8026k6874l2215
69547a77509l9466k3304J4272L4422J9534L772J8688M2111L5531N078j4519j7771k7102m2202l3579R052N5687P3398
69529f3907O1853M2906L1830K6788J6840l541k4214k8652j7170p420m201J0376M0734N6548L5279N396J0354M2131
69511B31930N1694K0995j8031l8272m7110n0795l3079Q506M0723L6804J4274L678K026j3695m3654o6103p0787o3912
69493c4808m7310k0186J613l872l0633m3781k1253J9826M7046M9906M2257L5586K3595l176l4212m0942q549L8834
69475c0059N7416L1461r421k6853j6931p322j9829m8230o9378o5305l6577l420Q138r047l1896k8156R688N5828P6111
69456a63782N7964J7529j7636l1899k9191j9203l064J8586K9907J2141k4080l9413j1653L5599O5141O9589O2019
69439B8554M0816l685n3955p2033m7306q694J8193L6758N0965M3358N221l5034m2452k0712l26P126J4718K7196L3108
69420B1816L0551L2482M1121M2507L3947L1933M1604M2266J9114j1363k6040k6746k6523k2660j0769j1197m5313
69403A56730q8274q3927j8247N3611P2105M0198K652k0094m3760p3277q1509m9492m835L983l2344o8200n4199N754
69385b83125N9322O4461K9785p276k5632k7945j5526J5764N2415O4765M5985K6844L2056M1372K0488k2382m2641
69368B8730j9765J7700L1763J4660j6471l9926l6330k00M2502N1096K0345p296K151K7684K8076L997q716J136M528
69349A45664j9583n2910o5967n2143k0886K0090N8536P1924M8882O664k9055n2509p0057p4822n1808o780L0506L6799
69331g7455J6310j1152l0060l3677k1054K966K9818N1485N8922M1404l51m2988n8449m5312k6959j6741n328J0706
69313a57915J2471j0887l5061k8905J016K0000J3754J554J682R403J4169J6917K2794L3830N2817P6098Q1300M8512
69295A73549N41r192L2942P1327M9248j6020n9492n4088l0969k0313j5089l578J34j8211m0734l7485q638J5490J3818
69276D3240l205j2442p143j429r958k8210l5550j7695J8021N1774O9068O4958M1032J0593k230J1917K5719J744n4916
69257A65288r3389p8040l3431j1690k8285m9451l7359R219N8095P5013N1636J0456j8182k6460l0404l9153l7999
69240a14136j3685J7315K5469P421j0777q386R304K5089K7364J1347k0306n3190p1760p7956q3952q3725n3648Q318
69222d59894O6103Q6409P8274O9423N9416K8401j4015k7271K418L4827K6870j0518l0451j1581K2712M0214L2078R960
69204C375r390j3253r95J3283J5315O685k638j0991j9702j8880k13J9962J6433n197j3174O99Q307m806j0882J4318
69184a1744M6163M4035R808k0591l0345l1411k9560j6650K733R869R72r671j6908k7219l3391j8922O632R732j7755
69165a34223m1259l1079j115J7385J7661J3753J3475J4204J2392L094j6720l4319k8051L98J9400O731k2103l7494
69147b27870k8420P85M2563P8071Q1386N3290K8195K4588J4367k8127p2320o9121k7735o928k9605n0941k4508L5185
69129b07145P6493P4258M7981K6205J1280j5492n8056q6375o8844k1506K542j6479l6744j9754R931Q194j3294p983
69111b94788K3839L4747J2967L537K9031M6423J6030l2037m1719j0096J9670K3356J1582o890l5481o3536o5831l7237
69093c66433k866J6287K8552N1300P9760R1070P5443N1105M3771N6256O5251M9129J2244k2307l7430l3523k2368
69076A35241j7248k1676k0377O346M7909O0178J7772m5402p4696o0410l2636m850L1378O0082M5434m223l0691r153
69058H2978J2541q453m0268l0864O330J8505Q48m150J3873J5449j9442n6340n8220l3414j2286n674m876n09J3001
69039a10971L2778L7557L529n9003j04921j02244o3506j9823J6193M8567P8030J01198J17276J21017R9916N2082k517
69022B45158m0555n5594n0035k1833K2829N4554M2617p131n4291o7740n3441l5074k3548j6938j8103l3144n2735
69005a65004n2556k1276K2269M9959N4461M6858L3625J5643N927K1461N0611N5265K0410k2502m1785n0072p2329
68988d9035r1530p1207k4823j1744n2522r3408p8619k0715L1747O4568R3878J10562P9325j024p5150q7232l9196
68971c16125K0228M9334M4921L2081L4806N1914N7572L2066q455k6905j2867L126o906k9542l3233j5587j217O81N737
68952a18371J7675J3484j8331m9156m3731p683K2407K7114J7971R298K922J016P987J4626M294j7797k4611n577J8697
68933a27766L1412M3236O2794O8846L9203r433l9214l8016k2335m235J4469K2244O209j8656k1064l34Q488j3402
68915B446l9932l9251j7688m910j1933k4073k5566j3867M905K1615K8709K7603K7707L4010M1608M3425L3764N962
68897I4534l6933o8753o0626k2156K215q595k2655l786L3596M7736L1616J7331K4242L6370L4481K0897M095j6027
68879A07582l5294l8040j7975P155J5817R137N902J7005L3519L6770J6313j7934m1600m1605l2424l2086k5918J8345
68861a5331R0696J26570Q2031p46m0712k0663Q7k1355n3501m8504j6816k355q185Q06K5852J9774l6857q9567p5189
68842h3965o909M4817M3870K1140J5635K1788J2300j2913k4852l411M0357P6741Q0864M6916r462o0342q2628p0894
68824D9052l7697n390N726q360k9004k9748k741L3000N1538M3556J9558k724j1204o904k741r393j9682j4248J3169
68805C5763M3765N3409L9211K0108J4156K0299K0949M35l6351o3630n9111k9884o027n375j3536n244K1797M3850
68787I4584M0025J7019J937J0763K6827J8555j7682m5127l1604L622J2419j5695m0430l1925j1936j2933k4807j5440
68769b1828J2773K5254J0018o403l586M595J32p618j821Q090k340l3131n4159m3024j2679Q122J2139J7738L7281
68750e0447N7169N8098M3155K9915K1443O001j5573k7238k8390l9919o6195p9154o2410m3724n0775n7811k0510M8138
68732b78227Q6971P2412M3968L2533J6256k3774n0702k0217M5751Q0966N8794J2943j9249l3095l3641j6175J5606
68715h880L9935M3284L8455M1923M7909M0116J8654l09p901j3037k8067m9877n8882l9754m733J1157j1743m8775
68697I475n5200k0441J8092K1330o970l3164l7639k8787j9840j0824L928K4111M4492N8685N8321L8880J2637N314
68679H2400K7187N2182M1017j2003o8284q8102p3330n5714n1644m7396k9344q260k242q309o385J3753M3147O9242
68661a22085Q7487R5452Q7148N9433J8500k3778n5871o8049n5838k7465k965J687r704j7455p448J2508K0274N170
68643b999j6347j7092P530L0905K5794l655k9501l3716k1564m259J5231L4204M1714K8573J064k2240k6212j1210O392
68624B612P197j0265k3307j0089K0890L9952L4345J9275Q673k407j7037k2233j2766p869k1763l5596k5440k971L707
68605e5092j104J1336M0059M8742K2218q779j4967q061j2583k5593k8669j9675r048j45O388L440q847j6239j4534
68586i1153k0304l7257l6289J870M7115N9554M9915N7120P8606P3753L4829J858k395j538j2319j1867J3395K9533
68568B34426M043l8944n3131l6697k3949k6769k5807j1338O092K2725M3804N9369N2191L2411L1114N3167O7566N3177
68550D43450K2883r764n5121j16960j64270j63145j22355p9814n2292k5315J0270L9682M8879M6131M6249M7488L8595
68533d5409K0442M532p646k6581n0932n8128l3261K262J1118j1577l1117k0645M905J6459J4332K1480M2731N6631
68515i0404M8795L1017K0587J7539J1340j287j3260j4478J152K7815M5912L9370J6891L125N767O716p490k3114j9900
68496A06093j741R707N743j248J71L923l461k3292m0979m1476k6789j5333k1454l8878m9744m6050l2962j4376J0413
68477b21733L4382M2870L2879J9849J7512K1396J8961N331j7396m3546n8941m7438j3688J4430J9354J6342K7788
68460a31648M9080N8406M7946K4611q044m3298n6597k8677J8228L8018J8472o700q698L440J0722J4179J9065J5753
68442C4258k41r700L365K1123J4206j5855m1322m6906l7592j4233K7329O9205P3317K5999l6313o1407l3662J6748
68424a1681M9461M9781L2703J9086J1126o036l9175p2875q7108p9203n7714k5382J4784M5340M9284L6197K9554K7825
68406a4033N393m1829p9423p6001l8611O240M2812O1276M8628Q731k8148m0362m1908n0582n1487k5204P853J3570
68388b93085K022J1257L7550L5359m978l3511j5405J9846L3218L4098M3895M2169J831m7354m8017P23M0806L6801
68370a02775J1633m564j2946j8263o446K5216M8812M3825K8825K8833L3759K0035k491J9L2218N5150L1579l0940
68352A81479q7427r6838n6966o318J1808n986k1451m656K7419L6996J7136n702j3783j5434j8329j2543Q390K9922
68334c2283L4911K6150J6595P964o647k6144m1130m5807l8914j8209J3098L8005L8479J7282n067j6007k0688k3711
68316h2123j6737N937L0673L7194K3979R229P288J4318J8730J6310J0204K071r616k2755k7675j4191J5119M0516
68298E8471M0092J2055k2766m3520m7220l9134j8092J2889L0599J2627k2039k1559L2385Q8381Q1867J6574m0465
68281A31145m3892j8603j2664k9371l0847K868M4670N2943J6920l6186o8836o2036k4863J5867L7254L8291L7416
68264E0076M9586O7080O7653M1140Q48l3759n6355o8439o5153m3532k1105k3201m4538m6318q903L1346K4586k2441
68246a01429n0303k3200K7990N0358L1101l198k9271m3769m6697l4446j1245J0502K5412L7761M6902M3712K6528R264
68228c4028O614J8508L4050M3021L8508J7661j0520k4328q099K8310N6708N7346L2260n377m3946p2979q1912o8402
68210a6605m3041j8103M705K8335M6391M5721K3977l969k0613k1853j6901j7516k8634m3601m6060k2071K5127P3965
68192e0746R9111Q6372L8461k4797p3087q4431o3391l4707j6460n973P150K4427L9197M5235M0587L0469K8009M1901
68174A27327O0646O0624L2952q895m7659p1452o5234k0398L8003O1987L6228j692j5401j6240k9164m0995k2208J8119
68156I6548M2716M2478L9937M0844K6155n388k9353l7853m9630o7366o4606l1143M456J6326J3312J1261N373q223
68138D5844j2758K917K2126K5911J7921N768j5248l8883l8140n377K5117K3775Q498Q725J3913k005k6316k4463o00
68119C6725N485j8031l6296k0925J0206J7064j8937p9081j17848r2910o326Q5854J23873J00081M9282r04m2529o3575
68101f8792m9667j0451K5719M4881N1045M2806J8054k361P301L3468L4040K6k9957k7606j1148p137r444M42J7604
68082E8823K3409J4740K378q781k1564l6558n0445n6727m4871j1214K8250N2266O1820P3112Q3331P0054L0115q681
68064B59457k4820k6880k9973l4441l9913n3329o7831n9972k5734M907P881l973p874l832O70J2860L5378M7705L5295
68045B5581J7661J8480K6750J9099K494j912l322k8208o8113q2040n4049j1898J7660L6392M6806L2794r558m6882
68027f2265m1256K306M1472M5015K0424n078j7974k7609m6121o6195o6181l8365k192J8414K2493K6041L6043M5210
68009a15818M8966N1789N5347N3353M0918J9810o049l1101m4882l8975j8612P47P782q19k5176n7109p3110n1326j298
67990a85563L7825L7944J1221r276q804K01K532j229l409m707r993j2194N546M4316P5857O8523K5266j7032k7271
67971B9753p321K0596L7069L0991Q31l6088m9576k8081M244J6391P796J028N395Q928N579Q910L0330N7131O3674
67952B07580M0758O078j6398k3900l4676n6721o7246l9794J2584M5171L8087J9812K1233L1765K3628j512j9610k4167
67934A62672k7516k9750j8692P83Q291J151l011m17p220k3210k1254J0422M2227M1653J8379P708K1931M0982M3625
67915B68754K6533m390m1558p1889q0386o4072l6228j4399q012j6499l3150m8734n4284m3336j4826K2755N2819O3703
67897i7199O0543N6782N3541L8408Q771j5722j4477P444K5757K6279J5752M580o878j9463k5565k0426j5782k6168
67879E6177m2048l4150P458N3588O8575N1082K5562L093k5299n9175p9735p6157n7273k9492J1159N2739O1350K4442
67861A1896k1095l0864q139R108L512q221q682L027K2966M2996M2953J1750k4289k5736L357J5476j3535m8554m4541
67842f6615q148J3160q101m8796o2194k6134L2882O1721L3416k2958n4100l9220j343K9994M4038M0227K2972R666
67824d9533J7284L3429K6716n838l0193k5977j5300k2699l5488k9156p301J2995L5271O9140R4641P7443J8355m1956
67806A21833o9872o6497m7276j9762R191K3268Q022l2322p3827q6930n7462k823L7663L9551J7223J869L381R184
67788a85586J3973K7463M8616N3755K5370j7448l3514n348M0006O1103M6545J9474r3j9775n0351p3805o2863k8422
67770a40900j5091l9016n9420l2999K5415O3079N6472L0195J5495J7759K6446L3556L5583L2769L0803L1568K2737
67753A34451p649m5022n4679k2199K5024M4803K0701k8881p2084q6684p0157l8170j3189p697j4399j2895J1898N4722
67735a82106R1979J00285P3834K4196l0697p1428p9488n1461j1081R866P410O535K1551L5216K8316R825j89j179l876
67716b2492l994J0463L1315L4928J6127l041k462J3733K7684K8058J6687M738M118J5484K5269J9519l418l6989p2273
67697A03454r3211q1933m2207k775J8091L4427N9881P3937N1309R680q859K872J3981Q969M776J1415J6036J5209
67679A95052K3164L3691J3222m6447j02410j11368p6672k4238L2947P7684P3407R734o1428q1036n7691m2404m3645
67662a88438k2183L0997O9003N7379K0931j714j1071k4389l1368q965L5340O7291O6097L7789l258m3105o5608o4594
67644g9866n5260n2920m5984j4397K8894M4923K1942p564j3694m652J137R757L1086M5095K5480j2091k3351P84J8934
67625h1747k055m4238p0777p3825o7860n6768l5384j1212L513J6614M7145R1216J18173J04837N7926J063m4623o5658
67607a13660n9099l6159j1782J1204L6235N3846M6998J8683m955p351r28l403r470r60K3253M2146L6075P316k2412
67588E577l1821j9460l116L407P113J9237K9393J7074j1252k1973j166K1948J5060j3094l0270k7756k4095k9161
67570i4355l1556k3442j4712j4768j6335o467J6344M1962N7594N3187K6657j0693l9526m7248l4442p819K4796N1324
67552f9499N8231M3989K3977J4219J3295P550p523k0349k0459j3487j0034n115J6275N0064O6181M4124M464j3666
67534A82237j882J1235K906j7879l3040m0106m0855k7273L55J7090M5l5632m9796k3147K7615P4313R6483Q2006L4601
67515B59276j8029m6519n2622n7833o0817l8006O213K6434n248n7352q3547q4203q8274r2187o2127L731N8637O6658
67497c25815M6274L6171M2924M5315L3401J8510J1164R413Q288P814J2074K7088N3850P6550O8868K5855j8758k4628
67479A54358Q104L8942L3706k246l6380m1037j4334J6121J0916m2661j07028j25871q4528k3996Q621N486j1424k2091
67461b35342j6984N587L0207K7297j1647n1007m6762j151M0373M5973L0099K6473M7102P4537Q1555N3505K098l9405
67443F2508m4576j9517P268J7202J1461n911l3379n7707n6145k4114J3479K8664J7552m525k0247j4469K1551P3970
67425b6935J05475Q8371L5349j4633l6552l4688k4670j6189j2689j3243r887O510L0588L8428Q524n0564r8800r8939
67407a24544n4192m051K2010L5339N9806Q4487P1375J2753m6864o1301l5234p656Q00M34K124J857l630r013j5362
67388g0862l4553o7511q9989p3461j7151M8631Q9358R1259O2943K2306j2859k7454j5196J1972K9025K3057R854J4205
67370f426L6674N3863N0439L3558J3809o687k0343j3299N460j624n1250j01859r8763m8362j1664k2304m6401l5704
67352b70883J0166N4154P1093O2510L7371M775j8173j4006J5047M6475N8311M2708L559m4912p7485p2209l3836M824
67334a20511J1496j9112o6947j03646j04087n6811K0338Q1088Q7298M9080J4471J3862K9282K7590P326o443l918k156
67316a41800j3417k4525j7431N477K7693L8785L8032K8460J8502K0156L2264L2894L717m0612o2437m2783k462K2021
67298g7466J6407j277m510J1658K5912J7307p475k2577j8221j2990k4491m2969m7742l6958k1762O13M2475R2802
67280a11264J13258P9626J3280m0190n4180l3666L728M2585O8391O8274M1830N837j8644k4255k0476k0212k6147
67263H7775l0109k2577j915K2266L4027K4831N229m116K209O988l275j6636j5897r363j7357l4067l3423j4648p111
67244b7169j8777j6465K0139N8386N9092L6154L0590M4020M2140J4588j4227l1753m8376n7347l2714J5979L2972r974
67226I7258o4106o2958o954M6963O2678N3257L9638K1293l895k1396j8858o553l268j0430j4133r432q508k0083l1712
67207C8801k5498p922o106k7860m3835k5447J4128L9162M0169L4728K6248m97l7400m6680j6352J1243n548m8604
67189h7270o7309m7065j6806J516J5885L7857O3812Q6558J01123R5177N7359J419l9377n0225m8673n2722n4101l5706
67171c8548m01L2213M8460M7947L6077K0897J1620R620M778j0460k7474l1130k0114q405p754j7108k8700l5325l0344
67152d4151j0220J7409L5102L2844K1251K0317L5057M8395M0054Q075l0238n4499n5952m0303j9970k196J6230L9336
67134E6541N7771N2831J9528k1803m4212l9351j8336L817J5018P269j2838k0807q03K6021K1588j6323m3184k1533
67116B1194L0578N9467L4104k7510q1756r7433p6159m4787k5339j1309J6719N2872O4473L8340N898J830J5398J0424
67098a2996j5824k5165P590N9293Q5878O7351J8425k9565m9178l3459k528J4334Q771k467n280o404j7839l7090n3326
67079b9479o2092o2066m6639j3062K5595N2239O6841Q1100R2575Q1219L8344j4828m8851n7898n7792n7963n0780
67062f3537k9738l803J3565K0661K5426L3870M7151O3040P2239O0804K7254q434k5756k9583m0935o4488q1890p7985
67044f2139n6464k6829N062K7104K2271p120l3062l4904k4443k1596j9570K296L8848N8475M4543J6766M403J2001
67026e4358J8980M906k8467n4688m3436P781O4935R0459Q1752O4467N1701K9963r582m5482m5918n764M7106P7285
67008B51640O6036J7497m6665r8290j17315j01537o4545k6625o148j1252l2627m6859l4405K669M3046O7316P4426
66991f3638P4910P1520N4871K1270j3859l0558k9028k7847l7000m5267l8586j8676L782K3223L6207L3555R143k6216
66973b194n0016m7533k2707N760J6125P61k2272k4969m411J0021m432l1274l7595j8550K085J0043J6452L4204N7271
66954a13231O8232N4461J6579k7393m8821l4146k953J3367Q545K230Q026J9235K4670J9325P00k5047l5063j2815
66936f4099J9761K1223j2522m0010l4116j9351k9399n3882n4562j8786K8737N8089N7598L3892P019j771P314J0950
66918h3915l695j8077j1647M492O230n861j4707k0526l3682m0447j3705L7920O7204M7639P367j0855J721K7187N1479
66899e878O4147M7412m801o4017q8828o9461l3735j1050o990j0673q411J0321M1974O1311M3453o02k9099j9810K421
66880h2316K504j7149k6468j4427J90L302N005J7227L3084M0462L9667L4003J7068j3295l8605l6818j2001J0094
66862c8473J3892N252p224k2946l8056m1141k8287j0095L016J1410J7216J7838J5379J8738K6810K3404K339j4475
66844d5403j902L2109N3781M5581K3525J0231P127O01j6348l8306n6354o4349o0352m9070m0202l7523l1361r722
66826b77937K2392M2955L6736J2771q804k1690l3751m4451l8279q035K8604M8090M7318L7575K1508m413k8705k9843
66808a97959o893J5816K3032K8000M5023O1054N3461K4237m031j9795k9894l7476l3208j3510P700J3931N271k380
66790f7621P307L7133P1397Q4755O3836K1747j5121l4403m3463m7743l6633m68M4756O2260K9212l5717q3552p7774
66772b0092k8531J7581K4202r06k2024j9666p481n402j1307j0019k96M817L886J4272M3773P0181O6874M1549K7892
66753A89303L8135M7223L2933Q420l788j0990l5681p1274q4003o0350k4267q57J0352J6078J0764n307j2843n68J2667
66734E5947N953r635j1594o934j9806m4019m3775p551L0200L4248J1318p289n737J0481L2123M9521M8305K2132j3196
66715A30692l3509l2876k4276j6051k406J9929L7929L3301L154l5362o0033o1537m7437k9761j1498J0200K9296L0753
66697e9492J1839o787n201N797k903l4405n4253l5147K913J7252M9j1901J1595N2868O7966L8641q579l0496p466
66678d7710L9563O7196N0411Q487j8058j8194k1520m9544p6151o0019n575L6944L3088R87j9609j3197P233K4509
66660f1159L1588L0887L0419L5949M2680M1096L1343K0610O152k2246n8079p4206n3421r330L2602O1364P8022Q1636
66642B45907P0423M6294Q412m4564r5839j12138q1960l8272k2347l4213l9703j9420J1353K8974K6839J2724l003
66625d0533j3098j7612k2286k6061j7360O117K3997J7303k89M157L8904P5543Q2872N7005J5810k0949m1375m4413
66607G7732l9522l7325l9537m2902m7568n1543m2400q658M1892Q6116J05524R3963N4376L389k8297k0586J1217L2806
66589A48677L1194K2234J9466J5101l517l3430n7168n5934k4146J7866L1598j895n4431p8388o0836l2880k6522m1058
66571a84069n3636m5881j7777J1587J8856N080K139L2942P5364Q9736P2505N2273L9876K0043p047j6626k312P108
66553A00161j1243m4574o6688o2471k4286M0961R2001Q0967J8536k7743k0510K716l121k3125j9734J245P685l722
66535C7055j4703k4546l7430l2925K106L1307J2183l1130l5543O120L7930L2107K5321M6612O6811N0439J2627j1497
66517A72844k0227l1705m2418l6825k3739k8640n4378p5631p2033m8349k1641j049J8362M6476Q0481R8006P8948
66500C8482L3600p007k9753m7655o5873o6862m2822j6816j0370j1010L251K4579K9297J9081J5944K0608R374k2496
66482a26448m4203k9412Q654L6897M1614L3514K5727K2981K6184L2583L3064K0573O94j4952k4055l2383l8044k9678
66464e6690m847K0644L0106K5067J7593J0104l285j7490j5999L001J4285n918m4836o2401l7675O319L0313K2512N103
66445f4094J588J0288J4624R804P371J4675K2751K0774J2779R765J1376Q792L996J1232L4645N5686N0382J4678l0240
66426B20872n3789l9539k469J8948R26l5229m6245k1238P355J2577P907J8144L8049M3666L0022J1594n548k5313
66408A80690l9536l1609m699J6335J6091K474j4263l5260n7346o2853m0353o352O167k0676p2608j12274j05353m7984
66390d29409K6091P0992O5167K2698k4732m8870l5768O912N1206O9934O0440M0410K3285R852J400M365J8097L1251
66372c6679L5062L0889K3082J4049N977k979k0959m7350o0700m1619o279O603j3578l4706k5661P428L8434N2472
66354g6514M6515K0354j4834l5721l3551k8136l7509m8218l6830q108J3582K2971L5994N3968N4314K6927j937J442
66336d5291L5476O4357O0257L3977J9609L2506M9335L4462j6798o9479q4611n5871q968K4852K8813M909k9513n1734
66318B6288m8235k0831J9727N8161P3145M7523r376o0354p4163n5159l0118j4045k442Q549J1454M59j4662j3128
66300i7207J7788O4753R0399O5095K612m7710n3322l0635j3821q115M136K2496K4295L649j3627o741Q786L625k3481
66281A2975m4115l6772j0746P850M208j4670l1732l6587l0882k1680j4051j0276j0858j2187o489J0209L0589M1198
66263a74016L6439K5477K4318M0384O2776O8505M3253j807l7830m5331l0468j4174j1099k1220l5115m2288l7944
66246a50140k5250r537P730K3883K9169J9093J0128K3645M9483M6944m159p0103r7544o9654j3181L7008O0960N2500
66228g9025K0048j2251k2915j3618j81R894J5947J0634r473k5637j5031J3515K6798J2213r638k1049k8328l7124
66210a65221l3147m819L3590N8341O2464N3446L9999L3467M4558O1857N0752l850o5513q1966m7525n958P664L053
66192D1192O672K0667K5956J4283j822j0871j9124l6858n6064n6144l3475j0381m887n283P553K3499J6337q427j2479
66173i9656J7015L9955J7844k8835m8956l1073j0784j3747k6476k8203k0785j5262j2181q229m292M512K8871O2123
66155a78159P4205M6458N77k5499k2559j2994j4538k1397k1606j3810l55K1147M8879O8600O5881M3734J9121K354
66137H0039j2469l3681n3880n2141j7194L2962N9366L6436j8593n4691l4134K6156O7049M7976q835m4141k8983Q376
66119c82K5897J9721J7370L1676M5177M0305K2881P187n788k3113m3509n8075o0957n1004l0765j2451j4893m1256
66101a31979o6639o2204k7514J4055M6006O7646P6348O3151L0693k692k3587l3166l1967j4888R602J6726j512j8666
66083i0587r890J0227J2041J044R877M2035N9862L9642O499n284r3k136q685K431K5278K3219j7352o0747o6854m0782
66063g0255j6388n775P538L0110M2548L0669J1062J0022K9007M5749M2266J8516j4915m2569m7640k7315l676j523
66045C7431j4855j5566J165N955j7497l9965k6627Q487K0934K633n651K3229N8935N3476P308k9398j9002J9665L6734
66026A07391J0232l2711n4097n1136m9613n6860m6488q27N4386Q0403P5069O3909N2081J9913l3425p7109q9218p9903
66008a08003o2137k9836J6535M9986M6880J8010j0581k8535l3028j4016K3243M1242J1714l7760n4874l2685r732k659
65990b16236J6471O3570J04246R8527N7454K5652K1108J9676l906m2216o8025o8374n6683n2436n5148m5993j6657
65973b18970J3842K1265Q574K797K1390N3294P2241N8903J3986l8015o2348m6369j5822m891j5976k6839k8864l0612
65955b22414k7210j698L5656M5519J5667j2024L582M5669O7532N9274N0929N7734N9272L6872Q35l0395n4880p7037
65937E2883q9515q1224n5972l1074k0375k4637l3647l1869p813L3214O7297P0744M2531L584k5967m1750m5257l0068
65919b48915Q538N2816O9056M3960L151j8477j6638j3750k1701k7865j9449l151P801J3457K3821M2042N8128N6415
65901I239K8116j7298n3352n8602l9098j9909j3922j0871R74J6681K4126J9269N248j3049k7271k9024k1343j6676
65883b16762j8222j4333L315K7872M8312N8959N4412L2640Q978N495J5838M799l9970p9696p2134k6872J6181M4986
65865a46202P3835R4158P3725J3729l3670k6633J3183L0823M440l9213o4470o1621m4820k9691j5784J0763N3149
65848i4299Q4569O8607O754m9401m9092J726N0077N6911L2328J0701Q378J4668J3312O84j4057j7386m41L2035N9783
65829B15857O0602K9769j6456n6291p5570o7245l1854J4068M3104M4768L9636M9664O2365M7223N206k5785k2483o922
65811C09656j0071k7132l1468j8239q319j4460k7439l6612m3699m9746m3466j4202K7529N0918L1861j8889n9901
65794A6321o0075l2320j4077j7872k1205p252J0282J3484O086l401j9684l9524l6468K811M4584M5166J1114j2938
65776a14968r986o438k1999m1510m5238l4956j8262N506L1240M4366M3856M6975N9107O0544L7704Q290o46J4200
65758E7785L3789L8930K1962r900l4516l2300j1383p57j2760k9798l3673k6216j2263J2820M3353N4209L1867k325
65740H8824j9019j5978q170J346J9188M1816N8293O4466N8849L6866O574m551J8710N1641N6834L0709J02j8495k9412
65721D38593l2755j8901P818K3960J3020j8742n3408p1972n7410j1556K8675J8509m0209r2529r0940m5091J445K5763
65703B4270L7576M8470N2271L6591n57m7298q1539q0147l8152J7233M3390K2646j8273l6386j7310J5642L4659L7063
65685E0149L6610L7679L2229J8416O767M229L133p928k8416m5296m4316k1820Q728K3631J1309j2816k3214j3942L32
65666C5464Q894J2114N314j9766n0270n3764j8972K4672M3887M0191L5473L7092L7331L2426K1427r33l0664m7892
65648A12024m3825l7399m1966l6283j289L3379K3524j8450l6070j4594k729l2133o3171m2562J8199N8686M6088M606
65630g3965k2215j3491J9309M5369M0425J1528j0305r704n226j6433k9573j6090K4730O1891O7408L9931q87k9343
65612H3359k8639n350J4959J7950J9072L9000P0070Q5044P2856M6055J7076j0973l0752l2162k3471k8781n2849o6912
65594A85552m5719o029J1003r076l8316m3034k1405J553N677p717k5882l9392m4061l7009j9263m26O984O84p742n318
65574a38936Q016J9562J7544L500r083r196p90K913j518j495J3243L3878M4871M6946N1326N2336K7204k7176p4915
65555E8230p6271l4965N055P679k2324n1850n2608k1410K1352M9935N6008N4147O0012O7165N6340K5898l114j8110
65537A81169l4903p0445j04862r4404k8540M4748O6886L3069r043k1060j1915q619j2932p543P904J3465J961o712
65519f1776P358L6457N3101L7596n449m8664n7981k0104L9998P8489P3920M0762L595k4473l5030k0414R003K2846
65501A29234M657k6384m4730n2493o2035o3059m0913j7138k9448o7534p1988j5814M9712O0172K2206l463J3089M3953
65483a71976N7512N7246N4874M1696J1546j3189r562N853j608k7439k7516J7095O7250P6166M6597J2330j5803m9455
65465A31617p8596p1190k6458Q072n777m6779o5836m9365k4653j3580j0861p138o492j3042j8772j4611j829J5248
65447c00042L7824O5341Q5925Q3147N2854J0840j7042j5287P229K5643K4233R388m959j5898k6567l0410j5571J4693
65429h659L8484L6891J3524r291j1106O923J9718K920l3958n0031k0987K5900M2922K0606p026j2781n202k172j890
65410D4785N397J5048J4533K664r844j2536j805J4813J7088j0067m9876o1775k7868K3765N4097N4842M0350J7533
65392A31144j2050l3730l2861k2246k9252n4458o7804n0292j7103P954K1028L2089M7293O7518Q9699R9963Q0299
65375B57191L4072q765k6191l2305n4452r0849j10802r4896n6088j8262Q977K6996L4387K9799K1667K2074L1182
65358b6265L7208L3120K5343K2590K2920J7599L649j3531k6902l0055j5570J7882N4080O5306L8370q907m2498m1127
65340A33212r687K7796M3144K1600k4162o1649o9726n8626n0481m7587l4890r255J3279K1779K3697K8134L2401L3211
65322A2190L5131L7033K5478l579k8368k3414R008M3146N6929M0822p199p1824j12898r7242m1777M53M279j968J4752
65303a09048M3781N0945K7251p200l5434n3011n1300j9796L0079O5275O4440L7269M924k4359n1245o8916o4398l4758
65285a95501M864L0956L0996J6232J1607K7215M5323M5009L1945K7627L5067L8305L5682M5273O7883P2910M0019p544
65267D03868l4077l7917m1697n1244n3200m4380l4395k4719j3069j2042l1585m8416l1738L90l779m6652o2669j0392
65249a77713O0040P2645K7527j1023r807J753p345k5237k5572n651J7953K8237J3953k0550m5569l0396J5157M7112
65231g4486M2813K4499J7914J6757O328m162Q67J1368M981j6864l0484k2846l108J4508K1820J4948r46q059O564
65212B2412L2236M7708M8428M3573L0551m844n9390j03594j10385p9394k7615K7979O9306P4723L7236j6943m3972
65195a1985k4765J2341J8763k2109p4933r0884o1507k1916j866N996K0071L4602L3140K3066K7418M5270M8526K2746
65177a8026j2890l3158l2178j3652J9819N3522N9098K7696q984j2231J6654M1159L5358O949k1818l7166l6095k2313
65159A1744p421o648k4589m6416m8186j9952J9519L6473J8893m508L867M0170N9800L4716j0519l3190k3801l785
65141c833J1726K2786K4750P513k3926m9677n8632n5169m2553j8983Q050K3466K5845K9632M1150M9291M5679L6723
65123G3838K8314J5281n151k4655l7249m6242m9444l5908j0470k825l1959p3398q3298m9580r63L0059L5055K3198
65105b45397O220o995j4657k3953l9001m8181l6150p353J7973L2548M8431O8424P1522M3210N337q096O9p574m4827
65086a88450p1926m4492K3505P4064P8407O4862O5986O9562M5817J455k6121k1116n557l367j5446l3356n0749n4153
65068i1075k8882J4306M1825L9018K6286K0542P760k4701n3870m9202j8541M288P125N786J1205J9648L0117M2056
65050C691L9119N672m0109n9432m2334j5750R62J7339M0220N2059L7103O429j7836k4491j0102K2600N0963M2037o582
65031A01558n6289p3610o5161n1313l2812p857M774o224j2821J7557O6211Q2187N4229K4004K2262K9636J5795j3327
65013I8799k8865j9763M05J5730K0058J3349j632k1431m4744o7208p3850n0389n578L2872N0913O0532P1014O7370
64995A17582L4803j0184l6491l9664m2957n7571o5409m8804j7349Q844K8935N6384Q9571J05436Q5852L8491j3412
64978B34057n2931p5549q2529p7910o7704n2660k4405K0910O5338P7170M2220j8114o3519o6184k7446K6998O5076
64961g7182P0607N4291L8786L1905K2409K866j7011k6070k7380k7953k5202j7327j6478l3076n2013m4357n178L5620
64943a12743M5673K3457n257j7343j4475j7447l8665o2255n9999k8640L592J5889K2335M3214O5661O0667L1843J6369
64925b8124L4410O3599P0270M4562p34m4091o1673m2852q672N817m361j0181L322J3821K374j1773k007K3075L6561
64906H3343L4638K9955J7705j5680n5142o4037l3398M292J7182N872j2779k8719l4686k0901J0369L8569M6408L8005
64888F0996K5608R295j7674n0783p4799q0682p2623n8206l8630j1391K0399M5946N7033N8166N9463N8881M2450P843
64870D1292k4666l6161l2857k9896k1506R550N4986P8882N9703J5628k0260l3608k9374j6358m846p125k5341m5167
64852f7124n2463m9632m5707l8186j7849J2113L4561L7304K5867J6219J8893K9962L5539K6940J1770N481J1637J8047
64834A3372J4476M817l235j1032k2893l3815l2972j7156N642K3071K3901K372l3950o2665o1816l0220R516K9279
64816a83308J8064r462k5333j3000J7717M1242L9940J4540k2231n1982n5137k5846J4873L5937L0533J8308R079j3486
64798a59552n7558r3235q1692k4905L7257P4283Q5429P5842M2668l850l0217j3008K7019M3454J5766l1580o0991
64781a54870n7638k8940J4298N8535P7719M9930o885l8047j1351M0352N9288L5667J0610J0218J4532J929j3500j1885
64763D9962m026p520r789J0348M0203M8953L5994K6031K1273p35l8622n7560m0745j4896o578n040P950J7900k213
64744G0890m5766p5161o6751l2515J235K0792L0393M1003N4497N6693L2742q406l7061l6294j9575p628k739K516N802
64725a5333M70r082j2420o550O924K7843M8118M9317K7160P482J6597M3067N1536L0335J577j5261k4155l2102l2607
64706A62916k1627j0993j1028j2730k405J4462J8619K916j8927k8378j8518M368K6905L4640J9220j4041m5733n3935
64688D5731l1573N573L0845K9538Q680j5937l6221n0426n2419l4327j195K6443L0494J2833q276j8027j9390k6625
64670a04279m3605n1533k6188L0388Q4748J05407R2944O7416L6150p062n3549p4309n4183j6155L997r0l998Q915
64652d986K4219J8574o104k3612j6704L072J4021J2926J3877K3251L0899K9115K5615K8111K6858O459k9453n8162
64634A17976o1849m2368j4481M867K651k0613m3997m1438j0814K0939K8136J4027Q76M61O408J2021J9979K9237K6262
64615D8280L450k0205j6033J3101K7707Q88m3154o0102m3734k5802k2378j4457J0633L3305L6105L3575M1189M0538
64597D2906R813k9559l6377j0643Q966N952L266J4649J9424O97k5478l8009l9704l8781k7171n6K3512K3251O609m874
64577i1607m598K012J5423L6771N5160N8402M8670L5040K1930J5063K0465K4431j168n2598p9512m7344Q222K7966
64559I2728J3017J4715M7125O2367K4022m0167p9204p6947m7664n645L2522L8865l17n8233r0203p8271m0276n164
64541a96730O396j0783l9229m5628j2633L8492O9420O5376M4294L1242L4397M1489L1345m993m7387o0531l3569N869
64523h3163K7854L4988M4821N3733M3891J7086p131k4609m8800p6591q1205n0057n420K5705M0722M6102L5700O359
64505a5k1826k6457j4657r793j3720q594O813J2064J485k594J4149L2388K7637O377o875n515j687j221k563j4888
64485b9492m7629p9080o6425k022O4666Q2350N7551L5161L3410K9946J0175n640K435J8187J2229j3140k7554j7699
64467E7429m782j1273k9402l4818j8738Q313L6384O0841O8183L9052k2280p5312p8696l5262J3809L9454N1845P0894
64449A35641Q7679P3566K2556l3443n6588m1126j4597o739k2186m1432m3773k7007n100R486J5751J7374J4499P136
64431I1697P33J459Q704J6842K0944J6898J887j9299l4866m0216m3843m9948m5518k0822N091K226k6653m2922j9762
64412a77368K6185N9428O3300M2544Q841j8389j4311K3096N6054M4108l277l5298k3700M989R204j6619m4968n3430
64394d9611m1343j6705J2827L4378L2453O756k0178k3269k159J8537J8085L202k703R062K1031J3501q110j9927j1507
64375b5680R80j501j3372j1529J2267L8019M1926K6068J2831J1514M673k3259n3427m6248Q827P0751Q5084M0624
64357A78548k0301m6559k6721O662J4572j0725m4494o0982n7460m3342j8398J9585N0329M2943L312j7614J2950N7795
64339D0100N3845k204m9935m7466j8545n550j2505j8116j6032j1931p55K1465L7101L0448K1061L8158O6882O0004
64321A86025Q352l9698m5057l0094l9300p2976r0076o4565j2727L0005L9462J5495j7244k5746k298K3261K0176k572
64303a19577j2353k217K863j0420k2636j4957K40M4j2497j2279J2499M4179N5312L6496M565j2958l208J9908L1515
64284a5481K3255R804R262K5066M5902N2478K5891l3379q9891r5755m2311K3738N0284L5438J7891K1808L2893K7669
64266A24562N766j4298j9366j3725j2234k5311m8433o6881p2517o9792o0035l0336K6709Q6477J05453O8091Q082
64249g788k6288k0279K276J5401J8283K2594K4979Q788k4373m3138k4089Q444O640l4573o4867m6101m760Q596r516
64230a89771j9659l199J7442K2609K1431K4160K2309J3097J4768L4996M6072J7767l7961p8728q0458n4182k1299O008
64212b44598K0737J7747J071j5545j9966r848Q545K4444K8427J9882P254q67o10R905K7374L6539K2743k400n843
64193g5009K3482N2199M1761j401l5604l6960k1032j2384j2642n086J9729M8764N5413K8176q138j3306J7655M1266
64175A06883J8899l2310o3620n6407l2719j3824r91M264n252k0997k1469n894J355j0237k0993j5641o114l543M045
64156a74565K3177K9476O41m2236n6738l2014P621M1245O3501O6327M3537J4994J3670M0665O0697N1460L0713K2167
64138B04338K1622J5837J1175J7754K1904M155k3739l0478j3811p059k8260n0350m0711j0865j505k6604n8385o8879
64120f3861o1978n4533m5884k4529N713K6614L0738K8510K8402K6356K0325J9676K9050L4903K3364M756K447J6783
64102D6852J8066j4388n7140o2109j2301N3245P8304M9293O571o104P443O734k8471o9886p5767l9793Q655M3751
64084d7045O3972P4690P0548M5915J1346j3453j9674j3772m954K243L718o172k7768n1138o1342m8652j6079J8998
64066a8619L3020J4873k0272m1654l2182l457K1115L1697L4411L4830L0356J8602L652p904j0255J369K3062L4890
64048A47534J6836k1194m1940k6926n150j4146m2205l9242J1886O5183O8115K5079j7625l3281l2791k9451j8891l54
64030A1437J0500N819K632J7002L5865L6055K1198J4296J7320P018k2692m1816k4768J0445K5126Q970j6559l4419
64012H3429m4833m4376k1005K2107N9732P1880O1107L6100q88l9472n7034m7316l4719l9958m8187l4307m328J6174
63994f5894K2626K8677L0842J2131j8775k9038j0699N259l107j7037r740J6320M2847O1069O3844L7837j0910m4142
63976A12110l2242N958K8924K4228R913r41q179q270q9N49j9299m2686m4631l2660l2568m0711k9327J603J9320J1614
63956g7384M936J7653L3748L8164M0173M2684K7444l823j1922K1736N2183K7461l4879p0998n5626k1406k243J403
63938B9304J900N517J6454L1345L1722R446p816R699M1794M1221P282r653J4832M4308M0968J6865J527l442q148m851
63918C10274J3235K8428K3575P955q563l9535q6988j10873p7734k0284M0k0892l1022n522K2730K2598M809j3457
63900A8774l9290p4486r1183o6411j6888K5420N1098O4059N7136K5199j2392k9812k6323j8065r147N245J5818N891
63882a15357j9900l5617k4764M465L3730M9903M9125M1255M6927P2815R2499P2206J6715l1340m3620l7266m3043
63865A28733n9975o0036l0360Q000K5806J7876L383J033J2447K8138L9120L7537J5893k1507n0694m7584j7079J1443
63847D2174J9162J0961q186m3035q0316p9558k1237N2645Q0344N6301L1747M0334N8783N0744J7007j6091l3311l4435
63829A44033k0747r39K800k0356m4728l1797J9821O7421P2088L8416m2k1190k8905l5519m4956n4397o0840n9487
63811g9324m3680j6153M678K777j1169q164K1286N1955N5683L5402J4798O070N128J0395K5462M4370N2601M5187
63793B17302L0768J8105J1238J4573K6232K8449L786l7373o3396n7957l3860j0469K623j756k7804o1623p8529p4326
63775i4017o8536o8126n2577r338L9088O3230O4294O4204P2648Q3000Q7459P7086M0204j7374o1169o0531k6835J197
63757A33907M947k107n695j0628k5640m5678n5349m1358k401M3028O1964L4520k1225o1484n6591j4972K8607M2236
63739F081J9703j6462l6330l1903k1230k1276k7234k5380j4614l804M151J3675K5910L4713L1150J1839j0129q321
63721f9461K5117N5094L9333r664l3976j2182R172j1063m5805m7137k0887o605q851p39J9826L0821L4875N4580Q1409
63702H3857Q1619N5314L6755K9008n755p3162j17235r3135k8294J8565K5867J0551o217o744J9957N3838M9233o674
63684A27348o4837p2403l6688j709J5845L1275M7921M6538J6419k9308o8007q0043n5223n041L9347N6296N1085L4846
63666E3661P219k3339k7712O954M7096N0180J8128j6663m2940p0655q8923o7765p646M8817O7408N7998M7528M0369
63648I9715K1420j5721n8125q5218q4259n9252k7664n085N453O559k192j7319k4561j1885J4946L9602N2045M9656
63630a01885L1164J729k3515l2224k4434l546K7435N1819M3282K727k8467j6467J9036L2967J5542l852l624Q606
63612c707J5662N715k4757n6538m8129J5394Q2414Q2793J4901n3107o9959m8818k2998Q95K7054M5026M5761L9237
63594D6839L6089L1376K0791J1101J120k4030o4338r3084q9045n9125j5770M1345J02111J31647J06650M8480m267
63577B27890l9612o4638p2603n0588j2480P619j452j3470P00L7905O6161N6709J3545k5836k5994O693L1146K2552
63559A64247j191j3602j9048l7539o4352p0628m1886L101L3315L3641J2946o678r917k522j892j2727k2641k3521
63541h0894k0929j7022l653J7561K8316K0144Q750P078M849p441j6483j1254q387k3607l6394j7175K2997M5799M0675
63522d7070K9848K2756N384k1461l2215j7106m80l751j7090k3177k4516k9687l3265k8356k2877k4536k2098n84L2155
63503b58126N1262M5433K9831K7664M4951O4442O3417L7695M682j8575l0272l1159j4624J2502J6772k2546o8785
63486d5436o0844N147O4771O7505L2343J895k0137n1022p7281o6036j8781K5681M2203M1055L6723K6653J0426K943
63468A7808J3318K8789L4202L3239L5521L4122J4085k0806m7045n0350m2962m5409n9947p1893p1964o3590m7830
63451c10712j8170J9855L9675K3809n330q739J6399L3592K2460Q298J9477M0746L6546N832j7121j2064N883J6281
63433h3283J8341J7131O675j8469m6860n8353m3157o866L5636O5594O9643N3271L9285M3515N4827M7161J0168l8825
63415A65434p3581q3279p5328n8915l3927P79L4917N2518N0018L8930K8590J7980R714J6651M0942N8249M1804l009
63397B28487m5853o8618p5450o9215m3922n367K5110L7454M2039M2010K1116k3301n8536n3750k4210j0699k3576
63380a06281l4987k2775N259L1905M9856N5864M8159L6414L4884L9514L0946O650j0583n508P754Q249n369k2806
63362A47145l7977m2700k3768J4456M0170K8821l478k1951j8018r760p035k900L126n45j6558l2222l7721l4889k7716
63343h3520j9959j9579k7575k6838m097K1665K0426o86l269K3207M3556L1849J0357J1891L1579M1996L4371J8026
63325A03400l463k8492m3264l6897k0812j2130r994q226j4444l1472l6706j0577K7200M1472L0535J8419J0621l699
63307b8529j4343l83K3247J7387j5982k8306L03K7808J6695r833j2269p1j1201m8213p5610p1292m7012k1662q29
63288c00095J8396M0511O6233Q2856P1249L4122J411o337o24L415J1462K3378J2628l1612o6362m3356J9228N9790
63270c707N8022M6727M3175K5886r466k6231l674K6291K7555P552j2881m0718q3749j11408q7569k7892J6677K5870
63252a29540K2238K3010K0030J1542J6098M0592O2270N8734L5447R416j5051l8002m8600l9397k5406k6813l6378
63235e9810k5690J2972M9498M9346J1955l2862n6197m7596j2400L0720N3288L8036J950j6651j634K2992K6720R601
63217E4238p319j5284k2247l1562l7597m1029m8157n2512l6456K257M0722N5094M3479K0705L255L679K4982N2740
63199H988O4671N4855L7520K3019N841j6725l1901k9589j8926j4620k0295l6177o5229r5115r3175m5194J2553K8873
63181b30626J264k3858j5334P024J0080m468p764J4370M6375O5818O6364N5321L8144J4180j2632k8393k4597j5020
63163d3752k2245m4099n0345k2449J9223M1783L8367K2368j697l5639o4309o4340l6576m694J9039L9901N0787K9294
63145a29383k1626n8929m7195k480L1590L5807K3100Q445l977r597k801J0705J6016N285j7277m2291n6242m2274L004
63126c00120N4594P7338O2631L5226K0929J9665J5164J8j7345k4482j6277K223J8310J8897J357k1486l0860j9607M06
63107a03419J0560M845o566j3128j6069j9203j5162O527L8563N6723M6383J7915r451k8718m2007m5904l2272j361
63089a51744L4306N8363N8892L3709m576l1929l0400m189K5128L8616L2863J6614k78j5235l2935n5716p4317p3588
63071a76416m9723j6363R677K3855L2830M4491O2710Q5267J01984J00075P5977L8393j196l4389n2895n1693l8870
63054A53714l0207k8335j9598J696J9905J9358O311k432k044J364L287m9j3005k6768j7902K0214N5596M9341K739
63035A93185m6961p0269o3631l3263J0062M1601L7288M183k5294l3015k8079k0182p072O722P566l57P339L7143O2311
63016G9277O1305M7254M0562L6561K4300J5339K3184K9029K603m7868p9820p4062n9795p1295j00792j09616p5846
62999b59680j8712K1260K0176r902l6813m1229k8846j0576J5196N0186P8215P8757N5963L6136L3390L3229J6435
62982C3185j3921l9307n0666n3529n0253l1065Q867N0415O2749L8694O319m410L227N373l136m779O816J5865J4652
62963d904J8021L2773L7729J6347j1782j8595r833r506j6222j1425l519k1419o0287p6131m9719j7854j6867k6815
62945b50008m589M8247Q6922Q4330N8119L7352K9537K5802J7806K476j5644k2634q970J2848J8308M95k5126m6386
62927D8885o4189p0266m0236L0758J01247J17602P0966Q69n3108q0579q3351n9257j6164J9715K9400K4121K7041
62910C454M1467N2403N0035L3353j412n2549r4373r1397l9304K4475N8567N3910K8925M984n379l40J0404J5358J7280
62891A09861K8275M5165M6392K2506o631j7539j1841o198p657j4381k7416m3376m6302k6364J745J8376K8064M6714
62873A39393O6139N7979J4983l4289n7442m7680j8471J2422K7699J6770j2198l5887l8252k3744q072m272j6270l5079
62855C729m2175k7525k982J2152J3406O386j1309m2888p2217p5038n0802k0920N090L6544P1257Q6025O7879L2504
62837a0884J746j6112j6263O094L5894M0187Q343k9489m0305k4733o19K5271M7605M8240K0240r721j0952J1795L3911
62818A20248N0939P1764Q3305N9599N963l9386n3594n1249n1526n0505l9116k7596l4513o0136q2473p8051m4577m769
62800b25673J7480K8012N5732J04068J28347Q6621M77o5658p9887o4146m2907j2170K8452N1856L7684N642j0993q201
62782C4736m432n343K17J6752L5744M8568M9407L0711p229m4922n7583m1213j5014O09L41p786j1412m085P179R616
62762C4861M880J0892L4418N3505M2055M165l1042m2450l0014l037K4433L0998M678l4452m9298k9533j618J1362
62744C4803J7694L0868L6504J0894l5689o0965m0851R47K3057J4213q76J874J6099J5794j0365m3232n3675l3897k226
62725g9029K1507L5650M7136N2035L9105J2398l187J2511M8852P1877N7747J4874k6704m4625m2920m3728o0660q1145
62707C1694p9334m8130j1506K581k683L408L8601Q2369R8698P6669L8263R505m504j4673k9658m9368o9454q2865
62689a0387p9997n7861l0399j8932k6329k9993j1058J6636K2525K323j4719p173J1132J9594K6720N1654Q1370P9985
62671B5091M3266J1927J7470M0594M2225J5799j3498k7246k7298j8892m260Q357Q738j274j1091j5910j5142m199
62653G4657J3934J7176j0254m3934m0084N259M7329N2964L9641L5882L1761L10m8622p2817n5528k8273k7188m8782
62635e6569o1478m6402j3019J7347L0182K2593J650j7950k0811k425K5212M3099M2694L1803K0946Q107j6213m9875
62617d1109p3583o8256l3797J1218M4645N5368M9128M1712M1344L7917J6550j8820m5726m8924l4679j6596j255N808
62599g9055l460k3226k7462P1L6447M1873J0942j9505j8969K27P754J256P002L7084O5967O0336K2864r008r576L715
62579A05277l629l4039n3214l6747l148J1558l06j3691o807J4774L0277K6901P990j2312j9914j3311o320j2175k6749
62560d5585l5670l4141k6268p133L4352Q7758J15662R2076L5665j1408l0367l4663l8296l8455l3080l2615m0593
62543d2761l8605j0015K9196M3850K3689m786j5120j1000q888p412O270K7163L1845J0117k0116l6512l7652l5820
62525i6557l5047k7925r257J7435M5446O8999Q1617P5654M6046l704n6139q4092p1548l3743n925n678j6101j3606k67
62506a24392N657K510Q867L3674N9554O3001M1760J5339L018O098J0645N675l390l872K643m45j8049k9165j3379
62487F5749J7174K9762J1370j8919l5083k5587O439M3731N5950K3532l3723p1973p3072n8627n0154m2865l0619k6305
62469b13220l4704l1593M65L6835M6089M3464O6482J04858J03255M1575l2115o6145o3025m9004k4614J7199N1536
62452b662M6845J8723J3077L4759L5999j1406o9341q1933m5432l662J0082k41j6108k5737k0521O677M8371P9746
62434A7236Q0191N4115K4959J1540J3670J7715J1174q538l5927o2676p8102o8827k8416K8587P1174P9642O4714N0424
62416B42655M2450K6440k572k5675k5004j2603j8188m7735o8857m7919M436L9553K6549j1131k6617p293J7917K5183
62398A31589K2251J9229K372l7342o9731n5187l316L3710L0344J6811K7401N0361N0057J7986k0206l5780j9079J5679
62380A77149L4445R786m0695o2182k9356J5467J7277j8453m1788l2196j4745q122j031J3942K3631K3842K9882M3665
62362A40518M4553K8840K1994K9797J5459m1637r7380r6878n5211l5650n6606p0637m0807Q440L4175L2069K5840
62345a13121K4668J8877N335p536j6103k4136k8633j7460J3662M8167N8215K9431k2113n9286n5150j5980K8511N3979
62327g8673N4778L4903O29l4286m9001l1988N602L9023N1477M4184K7276N200k5011n9373p6672n5077l045L9319
62309a10735M1491J6582R59P355J5475N529j8226l8784m3223k4765J4217N4162O8188M8409J2456j9148l8289m0000
62291d8347j8495J7480M2928M3380L0801K3469K5398L5093N4103P1448O1006J7137k5044l1771j8513k4986n2943
62274B02144o5184m5054k0211j9151l5520m7825m7675l4150l953L5370O0362N6502L5287J5346J191r225j3622j4931
62256D9701k4367m0991m5421k8782r781n885o912J941J0510L492o927Q79J9475K4849J8646K1736K9861J5845j9384
62237H485l7794k0131L965R50k0005k7347j1160J5283L9274N1917M2940J4104j3161k1377j6829j0788K461K8476
62219B9263M9572M5019K4202J3448J6762J6369Q254Q433K1438K8569J5024j0654l0591l5178k3472k789R156r97k2616
62200A59212l3878l5595m9550p7452q7128n3799N690N6400Q4650R4292Q0816L7738j5681m0689k1395J4991K9725
62183A48347J5804J072J1163L7300M5923J9336k0861l8381k5554r730j5587l5111m2319k7304m765O812N119K299P041
62164H0604J1421J223j8465k0574P291L4833K2397k1114m3977k1484J1259J1472j5692l6273l6539k4237j715K7771
62146c1799M0242J4593k8408m5137k6951o485m414m836P733K0552J8666J1943J6252K6460K6053R010k1592o0283
62128c8401q9658q1652k9206L3650O2712M9536K2745R769J0705N751k2087o7352r8824q5224l2143J8453L5045K8710
62110b67471K6072K7895J6421q147k5389k5802j9614j2951K061K7091M6117M4060K5185M826r229k0878l6083n2055
62092b57891n4190k7611K2576O8858Q8356Q5574P7180O3879L5928N62j9800j8579j3232j7944k6910k9410k2369k670
62074d7693L1400O2462O0385K0481k3520l9926l4261k7705k1221o458L133j5553n4598p4803n1164Q47M7584O7726
62056a02884N7754K7013l654j2619K330K0925K2332M332j9704l3797k8633q283J0166J2477L595m21N434J2824J7123
62037a3690K0771K0313R188m037j657J2329J0459j6752m0710l5518j8833k5206n1055n7177k4576K0735M5468M8699
62019a01249N1783O3887P1836N8941K4863j2449l2057k8616j4566k527P843K0302K9463K9461K6251K5073J2960k4583
62001B06616p1368q8917o1924j5012K0410L3305K1133j9397p0660q8681m9080J3438L9683J5916j4926j0733K3490
61984a16707N0116M1812M663k9295k9831K266L5007M2091L1629K4317J5772j2504m9343n5266j7668K4321K7775j869
61966a2714k5356k0075L376K2598K1822k155l3788m4538k1595J3968L1887K8545K2707K4592L0021L9340N6566O8164
61948B03365M8199n554n9089p6537n4180j3700K2118L7326K3928p790l0154k6046j0243q339k0148k1861l253J6798
61930A4840J8311P382K796N729mj7794k4891P84M8299Q0880P5125M2423Q851j3910k8518l3287k1383K92P329j6485
61910A56769n5513p3875n1579n098K9106K9362N370j8401k8678k6129r479K4264N9530O4313K9944q041j3317p64
61892A07784j2313m5098m5076J3739Q0610Q6938L0941k7231m1692k1497J28Q085J0482J8761L0862L0342N597k7821
61874B03541l8096j8979j630r090k1368j1873L168r749l9701m2179j1776M228k2417n9560o6172m6571k6200p316
61856b21740J7562L4444K7406J1857J2529K1112J1699j0740j4997N767K4676K5909K4226L0729L1018J2900q971j4340
61838B1046n413L305R134J7716K4314J5149j4379n1998p6832p0802k8759L3597Q3517R0718M9174j5459n9934n5141
61820c1047j3114K3477K7299J3552J1010K0750K4622K1897K6050L0229J3263j5552j7974J2407L0905Q242k1522j5390
61802A49104Q758M746k0321j4109L4057P0486N5335J5773k790K23k806j6667k4209k1972k2210k7419l0290l3077
61784A22612m0763l9299r174L6927N6945K9157k1465n6542o5406o0860n1109l4189j1480J0367K7386L5226K3237
61767d8430j1921m7674m9228j0080L3364L8620K735l7324m5104j6887K2183M2998L3747P642o289J1959N2479Q4017
61749E6807Q5061N8974J8193l0123p2448q1117m2664J2631L6605K0635R04Q17N36j8459l1157n072M2923O6976N9020
61730A79042N0707M9965K6119k6445n8021k9504K5390M1531L778m9270q4430r6634q3635m1495J2991N0905O6468
61713C7462P4256P1897M1116r402m0045l2205j1356m102m663j556m747k2024l6170l2907k8650m2671o0738n4109
61695a60614j9242K5093O1962P3893M1060k4788o6436m1864J5869M1991L0494L1502O2371P7931M2748j6916n7299
61678A17755p3386q2296q2172o1089k8520p779n644j0413j2524j0582l941O488J4235J2774J473j5186k6338j6689
61660b83834J3881L6303K1074j8250l6448j4810K1001M6152O4400P8548P2430M6437L5484N9289Q2963O3286J1990
61643B99896k5069l3708l4900l4600j5687J9625M0492L0290Q246j448K364Q538J0350L781j1943k6089k6146k0064
61625A93928k9760n6064o8478m1051J2540M9035L6899j3214n4992m9005o430J8936n830m9758n7375j9285K2775L4957
61607h2172K4619J3257P149M923Q688J3487M679k0534m3127m4781k8036n788J5214L0749L2541J8073j181j1537j1504
61588g5281p342p31J1119K5646L0994J4604k0743m9408m1859J069M2851N1477L4368J9252J3334L871r997j3930n732
61569B3562K64j485j834J047j634o288L574K6753L7520K0627p548k3877k5060j8269m364J5537L1062L2986K3267Q486
61549A34326o018j3478j1735j2395k6206l9739k9063J840K1767J5514K35o509o463j283J5499L6017L8042K0081O102
61530A36534L270r864l7183m6557k2198J783q603l5279l8174r087L4080P5529R2374N4157k6792p9215n6747p837p204
61511A2987m5965n5760k2494K42j1653j9560K22J6900R382P839L6246O4238N4677J9113j0939l2367n2319n3143j8115
61492a00469K8069M3610K2001j1077l8672n8054n8121k8125J3401L0594J5502k121N069L0997N0064M6451K3425n663
61474F881k7869l5497k5480J197L4459N3660M3503J2976j3094k2591k2804j9606j0845n078k1674n8427q0843o2281
61456b53413j7742K0709M4092N8959N6462K1214l2771o4328m8720l82M9440P9338Q0987N6783K2540j529j0075j3776
61438D7788j8981j8498o426J0522K2655K7750K5974J4786l749j9424k5485k5823k3261j0807J3301L0613K0739p092
61420E4582k0524p133Q437K835q016R135N3993Q9504Q9733O5892L8054O510l2453o2709o3784m0732j8100r598j0910
61401A44716j6499k4886l1055l1213l1631l5864k9303J887M0309N1155K7753j835j7823l1462n4275o9381n1697k505
61383a63609N1017Q1735P9751N5019L0171J9895J3133j1234m9518p2301o1958l0268N854M0234O0052M3098p361m9515
61365C4195m8922j9316M182J2715J8654K1144R384q660j1637L799K1721L3382M0827L8346J6922j2295k3302p656
61347A23483J7465L4175L7402K4650m447l4496m1986k3794j524P287N846K351l141p984o9K5823N3977O0041L4753
61328C09812n975l0815j8258J8441L8476J9512j1757j4900N916P012l1045p5857q8587o8437l7319p560J3746J1335
61310C3740j8232m6004l9012m606J9253J6763J1325K5148M6810N3519M7352M8047N6341M7057N033m7445p1804n5260
61292A28025j9365R632K2901J9615m960m7502q3914q6757n4031q863K6914M7528N5327N2090L8656J3577k4695o3930
61274B0248p5182m3267L936K0592o29k1488j3775M784N225n547L951M2903Q4215R3347N7605o478o1873p5286m7902
61255a4621j6731j2827k6695l0338k2584k7799n1897o6651m6397j27M4687P4514R1644R5171P8420M4032Q076j4645
61237A05232k3132k6065k9738l2187k7817j7406j2542k4551m5493m7425j2231L8718N8875K7820k2347m3029k3549
61220a56867N343J6980J6306J8109K0078J2037l069j4765k1879k7422k5672j3144m977j7964m0695m4575k4449k721
61202c09346J0048K9455O1544Q2029P1033M5555L3651L4122K7251J1240m53p856j9823k6113p938K1487K1788j6724
61184F0950n0548l8611K525K3605P181k0296l3714l7247m2172m0742j7814K1660N1392N0368K3903l492j3720j1705
61166f8477j4768k6499k8158l386L3103M4944J6340k6985m8237m1181k6986j6458J513K9348M3293K5612j558j236
61148a09776K4363L3424L848l3988l9055j2860J0915J5354J3001J6114K1279K5782L4726M3705L4894K732l1536m3482
61130I440l1454q002J9796M4581M6027Q317n0783q8966q2124m4632o577J2959P644k1133n9966q6812q9032o9789
61112d90506l3294J9306P1139Q9097O2880K8648K7665N0877N3848K3301l750O122L9554O0602N3638K5237j5551n6584
61094A2229p5858n8611j7710J7368K7919J4915p619j6775O940N4290Q5483P1658K8963n082j6907j8167j4827j963
61076H6246J7160L2975M6194N8122N2092J4679l0167m3697k8976k6975n1364o8151n2512k4478q034O095K9397M2679
61058E1285K7927N201K680J2857J3314Q358J0655J697m2802r8922j13542p5274k2912J6619N2470Q5949R0717N5879
61040H2156J0375j6932k9335l5101k2912R061L0114J6060j0574j2700O050J3417M194N219K5697L8883K2351j1705
61022A24318l9206n4654o3332o0677l9891j2407o33p613p865K3104P5524J10262R7632M6032r611m1039m3848k9934
61004F6162j5311j3444k6600l9590l2886p393J2848Q109j5796l8658m7193l7153o920L5450O4683N5713J2397l1265
60986e6847m3092k1701O819J5960J499j9151k7575k1695r557Q936M1249Q1222J04778R6300O6433L1450j1174o7203
60968A76651j16404j25809r2784m9909k0843M905M1276P2169O9986L5596k536k4645l5089m1467l8499k1468k840k897
60950a74607k5866n1700n1747j2363N2470J08737J25986R8966M8568K480k5173l8472m8968o0648o3179m1803K160
60933a55159M3688N5124L5880J3029R802K2008L0390K6665J7462R061R02p191j3232k0624l7565o4162q5444q1103
60915b00469m1558K1890P7923R3318O3268K1470N632J3750J2530r350k1324L204M4311O1776M9031L4221L4130L4328
60897B98081J6967j4875m5933o3610n9624l5506j2820j9143n3341q0051p0221l4371l533J0564K0560L6033M8787
60880f2036M7374L4863K5748K7111K7115Q022k6730m7171k9125J4456M9178O0498N9095M8822J8371k8104o1558o5447
60862A00482n8278o0542o2774m8917k7965j3662O111M3547P0805N0218J79j6223K2296O2370M8951l547l9260l5303
60844C8488j8273j8392l3652l9391j9199J5070L2127J7027m118P537M9512P6684O2072L1036J7618J4599n027l7819
60826A85899n6173n4217n1335n1139l1469J6361O5511Q3043O2756K0588k3286m7888l7104J282L4044L5296J3730m257
60808A61642r779j5175k7699l6571k9709j1598L141R157J5653L1069M7752M8087K6265k786k0159k2578j8978j4483
60790A33251r391j0260k6253n1228o3361m9870k2124O11J2456J7437J5064K390j5321k9063l7860m2972l3873J315
60772b09052M7436O4313L2116j6976l0911K360M4521N5904L4916K822k8834n7416p0277n2629j3444J8138K6941K5066
60754a25006K6501K7480K1385J5222J7049K1291K1717K5679L7314L8749J1203l1921n7202n4017m1328l2097j7877
60737i5858N519K4071K9609L3760M1340L2165o577m5568m0938O311M4869L2275j9945o7594q3385p2875n2430k9091
60719b64342l192K2172M2223N5050N6651L5837j1634o1458p1402k8543K5861L9552J2423o682J3082M7431N7152M1133
60701A314K8968L5306M4432L6224J0090j7311k7267j2761J4584L1742K2959r876n2764q5179q2738l5623K7790N7520
60683a2590L8064R238J1782L1018K2459j9291n1553m3016j0533J2059J6604J7651K2799K2691P525j5152k3275n510
60665C0970J7269R918l0344o2664n2649j5219J4560L3911O1857Q8863Q0238L2625j2431k2899j1619n294r666k0809
60647A26617m0909o2947o5105m1257j5702q804r598j560P634N252J012R647K4248L3202M5229O7378P5016M1486r915
60628A80924k3316J6105N8902N2147j368n6163p6637o3459l9809k4204j5161K53K3206L6669K8980J3115R377J7519
60610A37080K1606J5475O221j836q596p896N349J9904J7889j783k5824m8307p1002q5507p7558n0096k1069L583L2901
60591a39466O2788O8346L5917j3556m5620m7752l5866l2148m0989m3914k1246J8049M0659L3860K7777M9886P5148
60574h127N7905M686k9440k1790j3218m0369p8091p8958l9432P252M3263P5714J04333J12545R1717N2842J2786j7255
60556B36363l1797l1308k0743k956J8622K8907J0687k5964m3559k1221J8446M1527M2745L5056K0239m418k5558k7486
60538B17582j6396p181R63J0530M412k6696m9096k1807L5693N7473K0413k4925k8930p110l678k5035m3106m2636
60520E0470l0890j3064J0114K6125K0039n73j2467q109m89K310N967J0545L576j8771l9526m0938k5953j0327k616
60501g4577k390j0280k5294l3625j5200L0320P1150O8737J9400l5149m6758j1279K6595K3752j2186l4027j3485K5615
60483d8681L9152J5243j8892l5091l0170j3332J0487L3377L7551J4079j9361l6960l6399l5041l8474l3694j4484Q726
60465b01964L0539N9686R3866J06520P9354L5210J5470K8936M2918K5410j9835o1847p2794m7849p005J8873J2927
60448A38415j2438l0108k9049k4732l8496p2517j06747j16495r2562m6942L03L8387O6499Q0778P3011M5843J6674p05
60430a10881o693j570K2181N9021P8474N6390R032k5940l5750l6924l9149l1974r268J7935L8752N2571N8325N3792
60412A48324M7858N0260M6108Q782n2668q8670o8504j9077J5082K5675K9308K4922k443m4972p2679p1141n2459k7939
60394a04233M111L7702N0433K8746j1516m0102l9549j2767K4527N0766M7571J3595l1993o5455p6734o9406m7497
60377b41801j0424L6896P5553Q3934O1061L1265J7522J5051K990k1149l5888k8089j3128j3035k8502m3654m6056
60360a57454l0639K374L8288M9824K7255k688p037J3380L4437M8125O2938P0278M5500r712n6042o2251m0137j9915
60342F524j1454o597k124q4L593J2724K0840K2122K3931L3821M2918L8865K7925K5561K8921J8655j0112l6206l8182
60323B01641j9763k422Q5o756r147k368N494Q226J4367L4693N7755N5153J9022k2378l9783l7463l5002l1412j4595
60304A75347M452O12k2739l3028j5898P802K0773L1533M3345L6743Q707l251K6500N8140L0220n1907j16406j15637
60286H5308p4137l5694m896L3080O5902O3989K6353j3723k9852k9362l5330n5166p2644o5579k8859J8493N0215N6988
60268d4914N0580M5762M5833M5623L8353J7440j7178n1026o4934n7088m3250l1840j5047R041K5994K9822L8016O1497
60250H2684P6405N2670J221l6233m1927l8074m5092n2450m3039k3587j2895j3288j1943m915m107j8454l7221l7952
60232b08197j1646K3370L9430L2619K7374M1472N9367N4341K6184k302j8197k4805k0842k208J4171J20l9344o0468
60214f9561l7320J78O487k0177m2977l7736j3929Q578K0258K0955J6920J9260L2161M4730M5833M1113M0853L7295
60196A12921J3236k7217n4772m6833j1599K3199L6040K3954j345k4453l6754l8135l0490j6338m927p709k1634k9093
60178a41949k2650j5173j4070l678K7370N7814N9372L9735K9657L2743K1880j1419l7662l1370o274O340m942k8283
60160d2559m5795m3204j7874J3971L2550M0617N3804O2830L7054k1299o1039m5922o348N135j3024k0995m286J3710
60142f2674K1408L5204N7243N7885K0089k8710n1133m4413k9710j6707l238L846m937j8961j5198R782L4580M2608
60124F964L9866L7652L3413J8999k749k1105l1552l6948l8816l6882l3831k9833j4925J8875N5999O4888L7148M880
60106G2043L076K4514L2420J3359p221o229N218M289r021j8610j9799j9789j9622j6698j9051l4130m5735k7814J4548
60087g4252M3234L6751J8403J8147K7011J4543k0445m6314m4850l2553k6940j6600J6389N9732Q0147O5107L5123
60070A52633J3886N538O027J5712K7355J9641j5583m9662m6105j1235J0277m469k7639k5144n555j774k0610l7993
60052E300l6804k2269j595K4534M5653M2176J3858j1452j0396R145K5309L1108L1142K2819J121k3206l0040j6780
60034I9623m318j0726k8482l4911k1084l393l954k2579l5301k4487j866R758J0777K0280L6282K6633k5046q4989
60016i7783j04270p6474l5837n306K3750N7611P6384O0616K3221m329r491o236q522j0510L252L5410O8847Q1988
59998G2321O9181M3223J7992m170k2629k6088n530K3037K7891K87l1103l4969j5437k879j4254l6572m7479l9643
59980b6821k2593q852k041M731K0256M3697O2842O5299M8737J9084j5556m4430n3309l3318P739M6934O1215M2885
59962B16499N204k5363k8454p193J5396K0258R751m09n10O650J3468J4591Q171m091j7674k7797l0156k0837j650
59943A45854J4676J4112j345j6260k5132l9391o3376p8837o7873l9203j4297K824K1578L7891L5826J5774k599r721
59925f9499j6743l0084l6758k6387j0220l796k958R120L8282P1538Q5438N9363m292o6168p5868k7214K8211M0787
59907c7248K1639J8679M5338O3435L7882j9133o7715q3116o6456k8676J8254N7959P1773N1392R993k1951k0336O831
59889E8544K4231R898j5451j4290J6792M2096L5322J1763J095N711M075j3441l1050k9901j0652Q997J1450p200l3262
59870G4727m3471k3907J4142L9930K9378j2620n5494o8979m7685j2447J0565J1054k342j4127j4293l606Q534J4569
59852i6072K0426L9909P0733Q5400O0553J0495k6937l7893m4534o3518p6173n7910k0522o35j1350k8059k4483m599
59834b05169P749j380k3727l8679l0154J064L7414N8914N8120M0435J5525n319r807N248K5519L1163J7236o129l0061
59815e2038n0432n7983m3538j6916k558p935j2321J878K1661K2759N367p215l07J7870L0581K6715L169l1128n3021
59796b05392m2167m724L0620M3175L7026K6299J6635O656l549j3697k5782l7837m0400k5942R06K6662M0364M0368
59778a30779L3981L0637K9966J7854j5843n4751o4611l1991J5955M0913L5818K6872L6487N5180N2578J1672m9158
59761D0780q8563q0163l8477j702R874P894Q778J0101K528j0915k1573k8290k7802m921M5879R6952J10565Q4063
59743A15008M8402K1857o962m2229n6610k5707L0146O3094N2092K0962J594n166k4044o6855j09121j11918o6796q847
59725a71100K2296K4011J9295J5592J485j7719j4403J8313M6224L8128R142m776Q61J199j2363j9688o727J2466J5821
59706b1943j153k5446l9789l2974q125J7511K9038K7481J9436L698j6620k1301K278K8447J8340k3328m8855l2351r51
59687a26607J2604J4505K2810K6237N481k2708k2034P936K7698J1018k7180n9527p3461o2314j9679L9095P2352N3067
59669a20707M636k2977p081L1748O0171O1966M1090J2356q011j3987j4479j8481j7324N553M6066P5878P4790N4233
59651B45440L7497K6685N267l0382o0184o5724n2143l5619k0140m54J7902J9284K475j0787k517J5929J9243M454o005
59632A10221m02J762k1347n7120p0158m7636j3778M600R667K0532M2648O1441N9170K8481k3092p1662q7632o1673
59614a15978j7137J3917K2572K1088J8275J4650J7006L5652O3845P8116O4378K9747j2583n1993p2014n6953j7104
59597C5484J2713J2206l654j2495j1912n851J1335L5234L7683J332m7058o7612n9976n3352n3070l4429J0162N4887
59579a38373P9205Q9340Q8698N9663k820o3624q1047n7277l2360l2185m1486l0667K987K8246J4301l0111n9897m2939
59561b50346K169L1208K9934K4078L5289N1264M7409J9291j6314l8707l5310j1160Q452J087k1927k5780J268L2933
59543a15162M4604M3856M7287N0070L8476J5666n226k0813l2915l6892l0645k2104j3028P846L7705M4793N820n4585
59525D753q7286p3112l2425Q509L6646M7335M6158M9171N9037N1206R148l8952n0416k6013k362O767J9804L7565
59507F5533L0725q452m2761m1110k0865j5296k5592l1198k5970j7047m080J4224K4362J3148q880j9340j2737l96R887
59488a15845J6513J5141O327M813K0493L4959J9662k1748n0412l7827J051K8117K4811O791K307K2238M9091N2641
59470G9123J7849m0838r1370j08025q6110m0843N315L8930O0785P2071O3033K9251o811j5180k767r325m5510o5988
59452a46410l1317K9061N3569L2481J1050J4151J7571M189q73K1466M0603J9680k2758l7039j4942N124K093k685O595
59433A609Q203j8158n0813n4908l3771j9550k1124j4516J1813L2440K0765j0835k6378j2803P721J0909L22j431J7461
59414a53044M4843N9165N1522L1698J6085J3872K4014L9263M9748M8366L8488L1227K7551J0111l3068q0191r0496
59397A29154n2749j544K4447K4893K5781L9581N5443N9825M7823J8919k0289n1957o3017o3187o9330p4504n4869
59380b5580j0278K5212K2915p876l6724m5500l4511j0705J6040L4852M3987N1238N7121N0006K7104N581m87n42r878
59361A51975k5255l6350m7284o2417o1904k3261L4371O0993L9327P958O067K1576J7497r442k6219j3331J0649J8448
59343F3398P512n122q076n037m412p741q395J20J4430K2882K0390J6833K2549K9713K1122k405j8667j3682K32N984
59323A51628O804J3208J5696n832m5758o8973n2394j4242Q881K514j8366l1725k5459K86L3057N2094M4275J8102l922
59304G9874o961M733J4037N144k2376m8959n1189k7818k339N054k160j0000j2814q928N225J9968Q343l9204q8458
59285a78828r6699o5300k8191L017M4286Q9916J01460O0731n06m1256n1798l8442l845L2681L0880j7654n8356l7011
59267b54915K2844M9337J9436j9237k3818p216o04m100J942K1865M4349O1921P1730O6328L9189m118m7270p1401
59249c3738o2916k5757J2806K4259J1024J386Q503J3358l383l2323n1295n3471m3992k3363O978L2981M1090L6774
59231a41079L3199K8211J1252j1432j9329o030J3359K5265L0665L1575K2501K827j7669l3604m9296o0433m8111p225
59213a95354L3126L8609J1841j4681k2032j7146l771K8022P1705R0935N9424m57m1273m4289k9144j7227r820k943
59195f4475j266r254k2053l0453k6264n162K2728L0438K462l7394n0829l7310l1413m4034m4220j5246J1966J2022
59177c39757J5034N8217J12628J13828N8022J0915J3002K9293J4711j6587k1208O230L3910M2874M0720L4018J9263
59160B25113Q61p351k291M084K528n440j6561k8570l3906k4831o065J0292K2905L9829N6041M8096J851o2663j04446
59141A19476r7873n1317O078M8498O4444N2494J6410l1078o5481o3866k7918J1272J9144j0765n3046p4981o1993
59124b00502k4081J4937L4516L0109J2801j989l754J1346L7336N4287M0763J252k9653k6729j0414k1983o2930q5085
59106b29773n2743P306L8652K5265M325J3078M7806Q0847R5978R2498O9240K5306k5166n5253m8559j4365K2833M3917
59088A41192M4104K8596O502j1601j7064j0064k265n605j5184j1234J2867L1249J0594m4590q9327q7626m8602m362
59070g2420K8645M9176N0811K9761M219l014J017r716l4969m4726k6699n506k493p139n800r291k7507m1233k7310
59051a54194O329L6917N9312P4021O3792J9875k2852k0901J1959J8182j9728n2048l3067J7566M6591L3618L025j3606
59033G4791q057J834r294m3556o8174n2643j4342J103j5064k6285j5344j3239m0464o1320l4222K2745N8526O0893
59015a82112N8396O3653N9670M0553K4992K3344K3749J7215Q557k800k5122m9552m8909j3559K9933M6444K6372j1002
58997H9822l5130k6770P35P153k7447o8445o7396l0036n732r717m042K9639M9477J8800k9882m1523k0227j3251l0019
58978b13991l2096l049K4015K1663P878J0080K3184K7742K4784K6841L0676K2636J324k2673m0449m4636k9072l899
58960a69042N102p986j1732J7108M5986K3540l9279o9579k7056M0942O2739K8925j5453m0271n1825n6557m5875k1295
58942c31608j071P517J6261K8386K9183J4927M928J0434J6883J4656K0498M3022N1885J7152l6243n3646k4768P901
58924a63703J6122J8170L1674L6946J4586j2539r721J6460L0044J9161L744m590j5294k8607k5820j864J8142J1370
58906d5719j1364k2007r437J6866M4789O5393O9512N4931L3666K0207J5821J3470J1721J1866P131j0875l6802n5490
58888A73679o0322n6375m6498k6779K797L2982N1471M8081J9506j9504l6981j4757K3405L5071J1566j4937k0183
58871A02222j7311k6261l9752m0389l2827l4638m6065n1165m2439k4945k125K3372L9663L5506J8195N572L141L585
58853a26661L353L128k022j4115k0059q981M185k622j9758j4769J7535M4000M0724K3211J5262J3576L006j1877j2549
58834f5433N849K9346M1072L1659K306l2025n0700m7995l9105l9890m8870n3310m3380j7866J2582K7771J9428R410
58816b59151K4889N4054N4773J5925j9873j1186L1056O6453P4282N7608K2869j6435l3644j5659J5546L1318L2446
58799A25271L4211L2740J4702j3215l3724m6231n6322n1007j6717K8033N1218N0625M6522M1085K2483J233o0R240
58781B40087j126k4347j7345K8506O3004M4453n991m0082m0843k2294N40J6390J4218l528k0760l3238n2089p2737
58763G2818p1062m4976k5422k5993j8457J4603M1510L3150J7216L2177N4531L1204k7712n2007j4137K7797J1737
58746E6977m7401q7995q3128n9032m6829m5078l0931P359N4123Q0398P3951M9879K6469K269k7437m3275j9572L0232
58728a09021N6445L3422p086j9137L01J7607J1670p171k1903k9280l1784k6127q468J6910M0264N3072M9308K6818
58710D5840o315l0452k7723O30L3372M7475L6023R609j4406k2725j3765n34p38j6805l0066k3022k816P971J7j6096
58690b4526k8657l4076k8329q724J1905J2785n548j8565j2731k412l02N138K4129M0039L4958K2786K7335M1016L7892
58671I4113J8995Q715R025m521l6102n5995m6063k5489j3826O91L1743N8513M8864O253l2778m1941k5949m068Q578
58652a242P957N319J8876M7128N9516L2387j3813l6342k5301j1039j4484j8356p32K5371K7425j247l0914k9863K050
58633D2696L5444M1065J7290r671j4816j754O325P11m102o05n998l2063n4136l8469M954K8539J1674j1325l609K0621
58613C2771K1014p813l1952k9139j2134K658J9983M4517N6902L3029k0146o4831o8317l1720J3327L1279J1803k0851
58595a9620l1368j0066J8996K7708J1169j7978m6744o2255m9425p124L8666N5515L8238R634r285j5293j1697n59Q936
58576g2552K162j9260k8990l507M6012Q1361P6786M1525J906k8145n0483o4003n8452l1774n31J9017L1751M9777
58558g400O3298M8019N154k9493k9190j0208n491k0237l4932m1420n0368o4798o9353n1056j5962J8672L8173L6915
58540b19677K2932J5200K4334L7839L7276K6842K8689M9748O9318O2826K6904j9012m5936l5943m045Q005k0541n4988
58522I771m4087J0726N5226N2681K1192n820k0989k9484k7036j3833m664l628P002L0846L6767J992m7127o8597n9088
58503i8150m2117k1952J0598L9512L5353L223k1631k6985l2882m4330l7332m593K3454K2854J0479J4311L5544N8957
58485g5687P6163P9483N7433J8411l668Q044K4203P476l6964p4212q6576q0216n9906k9382p837j3072l1090l2244
58467b59641j5313m980o558J801K6158M1462L2585J8432J6155J0826j3301l5228k3653J2685L4962L0200K4840L8770
58449f9798N6394N6558M6538M5063M6342K6885j3378m0749k9062L065J2262j6438n1867n5176k3372J3749L1028K9959
58431F8003K6085K6293K2108P13l7584o9897o4423j3200N1203Q2746O5852K3454j5502m1734n8288o5827o4310n7084
58413a21392m4019j9652J4628M5420O0734O0074M7852K9950K1203L7639O9894Q1979N2775M591k6098l1500k6967
58396B57111j9174o811k295k1225n1891o3576m7295k3373p523M347J4735J6362J2394J7330K7866K0316r793l2456
58378H5049k5302o507m034j3028r245J0188K5764K6730J9616J0294k011j4494k0165j6586n977P907J6335J0795L72
58359I5701P189L0696L5914j409n4411p5504n4571j9328J1133L9775O2716O2203L5507L936j5225k4793l1175l3073
58341G5281l1687l2391l2713k7735k7079m2402n8262m5911j0666Q876K43j345K8380N8734N1463K3514K0570M3918
58323G88M9721J9939r724n834J3541Q896k2280m3571k9181P347L6820M8654M9734L9716P945m0501p4114o7262l3882
58304d3248q976k185M738J4252R14m0927o8163l8797K5859O2592M4571O883p472L134J2696M843j8997n0233p4390
58285a72906p3452m4410r438P425J0468K5177O1008R4698R5720N9681J0537k4675l6399l1022j7852j639J4990K6417
58267e672K4070L806k5151m1630k9526M096L2789L6438J9354k15j1568j4832r795L877J4431J424l8758p8093p9070
58248a94025l3293K6758N7347M5321J9179J5482L5704M5769K2257j4432k6999j1445Q97j1033l3655m4651m0362k6706
58230a67887l990K2488L3293J7017q318j5864m811N568J1167K7555N6585P2795N6218K3182Q220K1999M1810M2612
58212B39639K4206K851j4168l4494o2491q6028q8161o6988l6513r870J0798K7666L7463L1845O575k8029m7068l2033
58194a24800K009J3609j5598m9983m0567R955M9935M6378J9719M273N509J2342K2965L4873L1437N555j8946j6165
58176g500L351R082l773j2883q516p118k2546m4513n0369k6707J8104N2828M5442J832l0861j9933Q850R809j5413
58157a00834k6570j2105k745j3866j9202K509L3762N2162O3483P5409O9084K9056k0196m1279l3268k2865j7556j889
58139A3090K2948L0646R257j6850j8282K087J6553Q809q944j3207L794K6602L4042K0102n045k8842m1810l4042l546
58120A7362K8920L2512M533j9749r613K2062L8466K5924J787j6503k7743l4172l3313k5634j4350L938L2356N6264
58102H3047N2758K4922P933K7516O4574P5788M2379j4022n8382p2151n9700l9264k9628l5661m3647l7414j9423p161
58084c7536p974r661j073J1116J6499J9578K7787K9928R379k3161l6472k4615j8308l5441m7343k0770K7281N1649
58066f9137M4295L7587M3558L3331r530n3687o2156m0539j5929P923M1008O9018O2656K1757k1990m7300n8835n7738
58048g5708l0192J9676N3370L9737j389k3001j3426r354m0059p9830p5240j3509N7271Q2581O0092K9887J8598J7187
58030A6691J1767P344R014M183j5848l3816k8752o903J4231L9837Q3171J22962J14173M9244k5304o7520q4211r7698
58012A12565r9635p0039k3028L691R62j611J9135M9972O4264N5486L7078K0755M512k1319n7502q2691o5873n672
57994e8950N0481M8869o805n5415m8404J21M1974N1911L9713K2985J1168R246J6457K2141J6948N410n283k2623n6857
57975H3087r4677j05586p8859l7594r830M73P378K0321L5441M1086K7008m039l1684l5141j6703L744J7668L3740
57957a44167N1324N0818K3237r391j9961q578O478J4253R560j6558n8695q2363n9245j2111Q226q240j8706O969M2533
57938b24617M5791J6162j2980k1374j4077K913L0270N7480O1497L3861l275j8338l154K1217K9078J5553l249j2002
57920G56j2712j7130k7384l0561j1914K9934P7349R9003O9638k300p0777r1450o5783l2987j9970j8608j4747j4188
57902a53831k4783l2371j7716J0389K0063m794m4233o2490m0532R952N6545P1064N2034K2855N246n99n621j0281m533
57883a53636J3244K8110K2919k694k9580l6104j9956j106J754o147n968N481J2755R277Q388J8745K7033J8575O8
57864h8842j4056k4296l5937l6875r135M0010P9635R0231Q0263O4542M2553P140l4962o1689n5556k2797R932K2190
57846E2351K1299K7765M0457L4426O15l3016l7355k2504j9359l2051l4990j2900K1449M8848N9245M5284N457m0500
57828A24521o1882n0972k8779j2393J863J6138J7956M028n952N42M015j6234l9539k2803L8578R5646R9756N2558p359
57809B09688n0647p3855p9896o4347k7431J4192M0491M8905N0903M9654L5767J0267m172R719L3977L1928m430m0510
57791A90203l9400m062K9541L3762J3646o644j1775o134j677k301m339q618k1963m3281n7451n1222k9536p549Q482
57772b0318K2275L3144L2646J7682j007p151M943K0573J2552l1116q4812j04621p7592l6297j3254n03K4940N4216
57754a53700N6992L0122K138j0529j9085l0126l1226j9503j3384j9274j4223J6603M7646M3951J0658j3137l383K5775
57736i3685M4126L5390P602j5395j5891k132Q84j4204k4302p443K5392M4341L8540K5629K6855M3651N7551M7923
57718B24832J2729k7281n1139o1028o9785p0300m2156Q465M5044M8200L7563L0165J0370l1099n9420l8115R601K7047
57700C693M113j3564L158K9069L0925J4509N644J0894J8212J9258J3518K363p962q063L17K211j1164l1584m7100
57681C8447n3072m6272k5027k164J97k0502l9814l9145k9375k7175k4796m789K5591L8428K1894n652j9331j0759
57663b23316J2782L6898M4614K6310p810l3433l5323j8738M211K9078N3666O7914O1967M2147K6852K3490J8857j119
57645A29047k8884m2417l2890j4803n872o289m497L455J0611J3851K1814M3109P0292Q0788N6597M236m6203o6028
57627A85917n3731l3022k4197k2673j0108J7379L8887K8277j7061o7093q1615m7384O990L8163K8617o265m5263p6949
57609a41131q7091n6463J0171O9541P9352M7406K0006K3115L6349K8375k141l0164l4595j4338J6971M2302N0914
57592E8579M3620K8825J3442qj0846k1187l6837n8688p4253o6801l4253P538M0138N5179N4253M5157L8115L7599
57574A19572L6997K6384L952k4165m9569o0991m7362j3437J4927J5771k352j1337L459L3122N9986O7291M4128J982
57556B18358k1726k324L3980L7897R54l8181n0568m5018l4149j2965J2303J2477k0055m5154k4919K1709M5545L1398
57538A19562M517j4056k5946l5581m1507m6537n3226n0711k5816J5583N5099Q3073R5990Q3945M4561J951j3702k435
57520A94764J1158J3895J1826R945J0132K1399M2536M2756l752o6952q6200n1110j4839j5522k8871k0197j496m194
57502F5278k6911m6132n4987n5880l4433J9614P6532Q9936N3446L292l1585n0324n4006l5733n130R377r91o773K2815
57483f2595P7879J16142J05039M8492j8856n8518n8461m1325l5775m1579l5653j0200J5136K3471K2492K5667K9122
57466A00478K2002P798k49J915P666J2184J4831J2295m92k2904m7227o3403o3698m8134k6928j0922Q57J4770K5493
57447f3668K1562R881J3771L7405N3383L9630Q599j7661l9752o4031p4557n5561k8349k7069m3492l7390l385J7064
57429b53620K933j0322J4158N9271Q4265Q2722P6423P1949N9353M1895L2313K5515N898k1930l8509m2019m6362n0144
57411I3789l9449k1141j8050k6218j4539K0839L9706J6591j8179k4662j0840q242j3920j082K4173K5686J88q949
57393A5701K1759N3846L9330j1145m4834l6895j1573J302n83o593j2985j5103k09L3626O1933N5006J2246l5928n7205
57374F1696l9324R184O2738Q5277N5142o157m4309k5370K7232N8260L7366j8176o8835q6964p0099l7048j4462j5574
57356b9423k7010k3598J470K9099L8650K9949J6334O223J514P109K7146M9571M7735R122m0889n7280k3702K5951
57338H7971M4410K4639L001R806L3894M3721K8146K629j5427k2308k3063k3545k5964k5613j6944o634p247j0229
57320A01243J3321O5163R5158N8118j6894n5638l6412j4049l4683p1151p1038l3939k713K575K033J2140J9212M402
57302C6848k5468m2197k5231J4390L7486J3850l8124o2507k7981L4128O7462N3135J8342m131l483J3496L1322L2022
57284A23359J0892j4582k4938k3301k5342l1613k7926r651J2239K7761L5304L4660K6572J6660Q592j28n696M921
57266A37783K8731L6026Q980k4463k4970K360K0433J7954J4738J4302k999l4641m9011l5971k2393k2829j8789p220
57248C8021k2080p4430j13215q9467k8561Q460J2346K3072N2956O6673M1511J761j9515j9188j1659n090k730o558
57230a47693q607L996K7203L9226K8175N917j0566j7099j7577j5695j5425j6526q065J8421M7771N0640J8835k3878
57212d0947n0018n2721m0357k5590k3734m1553o0408n0383j0483K5666L5647L7788N7295Q3409Q5491N9472L1193
57195A9767J7909J1700K328o001p183n161n195n456m426n447o166N815L4881O0760N4104J1562l3767m3602j3119
57176H3303K7107M5983M0501K6943J3736m391k8026m4772m6285m2525m7931n9454o0216m3510k1724q829k647J0099
57158a62638L4845N9261O1591K9493k5509p1248p7557m0804J3291N2327O2393N1040K9543m17l8404o9504p0275l7119
57140a99691P99J0687m235r817J1377L4757K7556n757k9808k3555K58K0370L1572L7166L3669J6411q044k6931l4898
57121a18114l4068k4621m612K1755M2815M7425L2699Q154n384J0210M7824P2399N2709m559o0968q3838o8220k7261
57103i5655K0421N0676M1066p231o3264r3770r1800p0961m1302n181K8581M4470L8158K2934J3334J0344P525M625
57085a87030Q342K2031L9371M8309M0559J9491l40l977J0626K9274L2050R779k6383n2238n2272l4754j9688j2227R84
57066a28093K5181M2096L4141J3357P886K3736L8395L2513J0232j4305l2957m1114l6863l0252l6501n0298m4334p374
57048a94554L2594M1726K3690P821M104k298j3740q057K5755O4191P8871P2874O7489O3686M1207m100m4926n4267
57030B02066l7845k2271k0779k5620k8741l1157k9770j3553J6721L8716L2603O885j3322j6468q515N261K2098K8987
57012A05296J1862j9238l6157k9047j4086J669L4103Q3683J11545Q3541K1008k4282l5721l9156m8748m3094n862
56995A57316L9634N5984L6123O101p877l662M76j3756m5288p3611q1231p1071n3581k7041J0549L7607K5676j5701
56977b3353l8561j3605L4852O5180O7524N7451M0699J1628k2748m3588m4257l4663k3249j1651n394j1892k6655l6351
56959e8633l6486l2541k4751p390J6548L6333M9990O1717O1405L0144k4399o0714m8637n924K7400L5560K7182N158
56941E1962l1286n9749m6901K100L7154K4524q905j5045J0593L1034K3274J051j4737j8461q630J7731M8554N7217
56923A01480L3202l865l0930m4277m6140l1805o954M923m164n611K5011O2855O4563L3733J4874K2492J9561k0619
56905A88329o9687q3762n9166k4306J426J4614J1347p705k5126k4716j5618j6602k2612j1899J4953K8638J0431k1828
56887a13289l6569k3587L164K6928M0997M5432M1727L1973J8162J76k2672m5031n1979l0113J1929M0136K4484k7437
56869f5569p5039q3421m9646M962N2276O8059M7246J6055Q938K4127K3661r595m0396k9046J1411L6165L0190J3433
56851a6189n066l5543o7368o2556o860O2566R9411R5523P0111L6575K501j7703j8173j8046l6149n6806m8553j4414
56833c6739O211p379k7266j7543J5461L4859K3379k408k4487m3810o0041n3950j0722M8895Q2247O9717L0331p711
56815A9044l3857m7600m3398j8425J4071L3212K9646R691j2742k1767p220K1941L9442K8660K421j4142j3336o654
56797b1013m795r454j8770k7700k8541k2422k0977k3754q689L3661P0934O4990L0065J8735M7627P3961N7948J4504
56779B26310j6930k6082k9936l6528l7466k7390j0485O353J3240N20k4077l4050j6630N300K974j6913k3209o617R257
56760d2359M199j2848k0604j2399J636R601Q799O704J2845K4986K5241j657m5428p3306n9372q482M7924P6219O3714
56741E413K4901j2656l0603l0178k4140k3345k9969l6861l3266j8209o893j2870k4396j3828K4724O2806P0868M9848
56723e8654K0316m080j8467j6662P57J5345O573k2122m5648m3260j3237L1617O9971P9224N2770J1179j3910q377
56705D3335J5516L3699K9241N185j5761j4268j894j0373m6131p6380p4888n8023n1732m4745r051M6013P9265P6026
56687g4966O5003P1129Q1986P0496K7243l5883r1483j03468n6728J1929M0399J1172k9604l3892o170J8874K5943
56670h020K3901K0764J8065J7848J6012j09l0649n1940m3344j4031J2973K9840L9303L6397J9321P480K0135M1120
56652A55066L4368j854k4482k707L5726L6102j3202o2722n9247r075K8997J3225l2551n0400j8521K8435M7464L3625
56634A38247J1203j039p84P057J2657K130k7762n9552p1547o0255l7085j0398J6780L6907L9723K2902o520l6984
56616b4320n2694l9611k805L0253L6295J9866K95j4405k6397l1447k2612n049J0622K4601L9821M3801K1059j7963
56598a0690m2761l9567k1694j403K4269N1756N8903L1608j1053l4600k5410J270K2753K7478J6068n713l1848n5377
56580d6011o5515n3367k6620r820j6362k5774o774L7752O8829N9084K4029k377n892N500K1541L5684L9743K8735R266
56561G1651o557j3734j4707j1207k139J2977L2098M8305M8891K5144j3873m6501o0627o0591m9988k4297J0185K7558
56543b7412J0969j9473k7412n800J6705J5361k512j5409j8469k3474l4357l7940k4408q051j3947m0904n1038j1176
56525c18747N9804J02798Q1472J8949l3251m7034k9752j720K1279L1946L3632L4918L3987J9040n900j3333R127K8443
56507B5658M964m5949o7052l6538N202J9236K0804M1025O6073N5851J1492j8281l374L0173M2583L1788K0875J4672
56489B19202j742k7344l7650k1335l422j5048m9414o5922l9673P081L0708J5849j1428j9162o809L21j2011k8072
56471f5871k4256r04J8429J7652P176Q080K5435M4899N2204M8054M3213M3062L7893R007m9069j09373j26415q2299
56453a03083j3318K5340K0161P090J7758M0603M6581L2548J8213J2385N906n822j5406j9964k6061l3277k9059q006
56435b7411J4242J3611k0372p4396j15606j11619o1846n835J8512K2219M3999Q0542P7099P929p0888q6654m3246l268
56417c42988Q487K7881P3697J05019Q3433L2925L0j3717l6202o3595o3998l5254j0603j504K0488O8683J07052R6914
56399E6748N0827J2701L309J1271K1723K5440J0549k4859n6222n5732l0552j2463j1261p507O059R655m467r545J6300
56380A1974N1649N9744L9539K0519J6367J3890N739L631J2119J5303K675j1861j3326j3440l5202p5271j00124q2019
56362g8094k7872K9890O2664O3698M5260K4869J2626P194Q01j3322l6889o4797q4697q3054n7404k1020J0276L4342
56344a75529N8332P8427P6085M2743O8j8448n591J3015J4265O043J0136K7101L5147K2501M328J962J7219L4584L9640
56325B82028K7544J669k6227m0528l7191l0894l6985n0527n4506m4556l0810j7316J194J8593J4989j1790l0247j1475
56307g7035K8334M4987K4066j695J571K6673M2077L4916J8931O858n901k8204n6977p8746q0871o0953l1727j4095
56289b07791j4662j2301J7769O4761Q6572O2565K2783O915J0787J62l1373n1910m1973k1988j3710m132K5684N7286
56271d4556N5096K2050K48J3715M1851N8292O4917O8661N1665m735p7873j16427r6478m3058N875L5392M8205M5969
56253A28809L1352J5431O631j588j9194m1246n4452n7844o1320o3739m9539j3140K7182M9656N3119N0249M5166L1207
56235G6740O661k0680m2865n3536m3616j2703J4480N344l5941o1160l4921J5191L0762p45l0334j3705L3977O5017
56217a02034N9642L6418J4195q037l1339m1191k5544L083J7610N944j7869l0738k2151P10K2371K9993J9349l188
56199g2776k2578k4429q857O025K436j3075j3115J5686M9339N0690J3776l0408n3393n7575n7518m9623j8492L2689
56181b51198P6535Q8866O9809L5690J999k1095k7813k0907j1406o864k620J0109L0769M8792N3427M0864J6242o857
56163A24342j4700q181m585j6217l2175l2815j9046j1319j7125j7890N91J9689R567k6460n1058m0564j4704p769
56145a60419k4468m0498l7946k0301M847L4813N6919M7823N625l2078k5394J8432N4647N7213M0694K4614O132j8161
56127g506l1232k1360r674k1996m4313l9200l766K2719J4856p231j5031j0713r459q764k691o972l5768o2767m3650
56108c44518J8004O1477M2006j1874l5955q802L3050N1233M7779M4176M2561K9183P993O659M0941Q6701J00756O6000
56090B77370O304m0683n4944l9316p233K6756N0455N6026M0118N011l5326n5565l9759l674J7802J0375p368j6917
56072A89432k4302l6975l7320o406L6382M7855J4886l2537o4063p7016p5290n1435q929K1266J2394k1923m6162m8613
56054b08756m5382m4682l4555r700J4539K6611L8400O4230R2532R7715P6236N1573L9299K4017j6243p1719j04278
56037a0163r0894n0073j7608o452j803J0995K9335M4369N3901N7782N0721K8599k764l0681m3978l7014j3922P473
56019b2177O986j4304l0834k3179l477J893j2490k8406l0615j7785R877N0529Q3614P7304K7830k5573m2751k8214
56001b1772j6623k2518k7196j3216J1206K8408L3943L3857L2037K9921K9437K7213J3107j6708m9611o5345n1635
55984d5495j0943L8299O5846N2041J5144n37K1668M5455K9893j2892l7691l3940l5281n8740p4915n7261k7243k0954
55966a47546l2346k2698K2710P6499J04878R7323O1965J4927k2456l4991k8666k2921k7022l5151m1042m1839l0751
55949a09127n377J6917J2842j4588l7954m3609m5533n3598n2557k8258N338K5236L1544M0113N2347N2916L4368Q091
55931a10889p624K8L1191O5486O9649L1354j8052l3402q220K0258J9630m123k7391m2137n3314n7426m4563j9304k625
55912a91474q460k7507l8062k6832K719L5166N3097N0557M2679N3862Q6634J09361Q9690L6997p507k4646l6917o2156
55894A37201p3580l4591L9661Q9597Q0871L7607N97j9062l1857m1047m2037l5241k1975L67K4485K8380K424k9520
55876A12280l4892j1017J7847L3854L6936K8963Q352j9046m1179n4150o1990o2195m5790j3830J8215L5335L4632
55859a7675K3359J3158J2387J5856Q726r135j3566J1840M2999L8534n942n0285n9810m1271k2689j7705k0272j9593
55841a11084r141R773K6421L0178K3260J4420K231j9954m3233m6928k6533R5J7498K3999J7099o200k8157j9527J5952
55822a29831L6296K0348J805J5636L8800K4943j8975l7775q043L1042L6909J6700L498P309J1491J371k1801m4776
55804a5053m7781j7579L2764O7430O2436K8256r721l9449n8649n8086l0201J0363L5404L4736K4703K3155K9611L3956
55786A06295L1223K0362j031l0483n5145o2285n3120l9031k6181j1592O243K0662K2912J0503j0592k7042k3494L242
55768a18554L3207L7653J1657j6680j8651J528J7604J7720J2039O570p949l3069m8102l4593l803J7531K2309K5467
55750g8116L3225L0898R843r751R9L5722N9536M2493j308l1551k8340j0315n688j8423l1470l3178k5970j3252N386
55731g0160K3050K4638N192k0079l1139k2054j238J7799K1943O748j3444j5527K850J5974M246j7172k0887p927l861
55712a01048j8317l1857k5722l726K1996M7940P0797P6950N5412J5309k0617l7482l7286l0510k4907k0798j3893l206
55694h0965N298O572M162K051p012l1127n7221n6087j6722L6521O8540O4836L3375r112m1176m1185n953M0364O9144
55675a5697P4130O5309M7144K0205m342j5148k3285m9628q6159r5798o2176j6047O449J2440L3289O8203P9338M7116
55657H5343J943j4909l936o80k4974n7496o7406m6432r678K4452M5378M9413L9266K3246P586r442k9693m3419l3886
55638f5324L750N2268Q1834O8209Q835o8464j16779j07273o0277k5411k3792k5626K600M5805N8800K9889k011O00
55620a42367K7879M2109K7648M968J332K0914M2467L9652O867l0211l6652p979J9395P084m1734q8053j00866q2117
55602b89664n1698k4406n176O944J7705L2098M4451M1730K1957J549k663P193J5560J3968Q644R985K0590L3559L9506
55583e8168L5566K7551K0542J0073q326k1542o371L6570P0264N9103J3031k2862k1015K306J3408k892l7090o7518
55565D2630p1458l9963O024K7006P434k1668j8207J9203N2591N4074L3615J4892M586l966j3108k1354l0381l6453
55547E497k4384J1024M3102L6135o546l9891l3389r976j0131l2029l4380M129N5859Q2459P8444O1061L5994j980
55529B20998m2193n9373m6650k6142j7632j5028p077l925k0086m0145l0288J1536M3574L3388K207o258J2187K0632
55511B9725j210k9069l3778k0987j1944o286Q548K3550J6218q428j5843R881M1366M5819K6863J0147K880r432l2593
55492D5427n1856n2142l5651j6490o578o988o664P416L1997M5274L2590Q071k346N235J0826J29k0434l8308m7043
55473i7535m0900j5133J9819L9042K9811Q526R51J1935K3461J7448p190l5886m9965m0431j6374K046K781p666j3306
55454a68566l620K0627M9233O7936O8500N6221M2293K9049J0837j0952k5270k6466k0445j2567j827Q449Q460j933
55436H9959r337r152j7339m5784p7862q5472o2843k7905K503K1799K4779J0727n087k977J3857J9897J073k5424l2258
55417b16846j2498J7519L7153L6576K0029J445o415l271L0m167j0939j0352j995R43j5933m9558p5029o7466l0216
55398c90990P889K7388L6829M7160M5124J4959k3284k8578M030L1273K1329N18J5586O4141R3162O7352J3231j5557
55380C1562N11L6394O3825Q1640R8828J04036P1806J87p4572j12070j07726q6407o3528l2084R329L6898K6138j3316
55362G1451m4730m6032l1278k6710l6492m1144k5550J877K0414K0711J1223L133l807j6056k9730k5968J0343O4894
55344a23451R3738O1727j4216p2357o8629k3440R211J0573R402K5985L7957J9298j4590k9595k4220k6394m6156o2200
55326b37357n5446k8923P402M4762O5461N3996K7255K4825N4424P3833M7391k755k6955j2049J2883K2610J7403L570
55308I2330j7177l5228l5386j9547p474p495n038J0223K3348J4029j4980m3872o0917o6883o0809l8618o432J8529
55290b61397K4527J5255K213m455K984K6524N5097O9847O3607M8179L5931K2984O26k4797l8092l7737l5947l6066
55272g0717k7525q439M580R39l456J3350M5197O0477L8999n100l9078m3383k6854j4481j9991l0632k4369j145J4984
55253a36644Q879n005m324J2416L1014M2304M2567K6061l730k5571k4166j3949j6874k4913j2345J8278L3696J7711
55235c4595o935j3267k205J0686J9260K5264K8947L0440K7535R563k8566o5405p0055m4242k1413j8779k0013j3740
55217a87520j3662k3632j8889J1933L7155K5261p721k6112k6751k8240k8347j1617J3817K6603L1402N0293Q0563
55200i5464R7425R4520Q5095O6715K5377k4140m4797l2324k3301l5996m3359k4261l696j3405m0242m5183j7299J8139
55182e6196L4595K5537j87k5196l1862j7586L630K1822M0463N7285N3904J9898k7010o1054p6399p9689o8907m0232
55164b27184o403J3408J8473K3804L5644M5601M6824M1179L1349J8591P477K264M13j090K741J6643L2899L8630L1630
55145A72893J8461J973j7245l1654l2332k1472r128k292o443k6460m9254l9102K0829Q6754Q9458K0868m6343m5330
55127H4181M613L1556P493k3235j0715L6726O7566M6746j4562p8390j13604j12005q3765m4057l007L4773O4661Q0129
55109b4896P8320O5486N3113M6586L9520K3360K393p993k760J052j4299l8886m5732l1328k3366l6119m0156j935
55091D2360N8818Q3149M4972k0259o5811q3347q7402p8147m7118n104K3804L0972K4547P989j9114m1511l4848L134
55073a62916M6373O9408O6762M3499P531k4235l3243k1812j1718j3128j2376J468J6761J7576N615p753j6733j7704
55055d6625n815J3934K7154L1281L8914N0631M7337K4397Q296J7614L0927K0584k600j0214m367q615k2362k2944p906
55036A79621K781N199J3837K3155O552l6954p1928p6612p0428p4547p5664n0753l516M5375Q4460J08117J06320P9223
55018A94238M7012K4912J396l9079q3164r9635p7965l9487j3114j1112k4386l2973k5214j0292m449n681K274J9520
55000a77199K4902Q156j4327k5001k3595r714K5085O9751Q6031N5009R887o656m09r545m4030p5061p8620n7446k1733
54981b64515K1512N6875O4229M0409J419l5362n5347m3236j397L4398K8543n153j7930Q026M0688N1220M9741N2572
54963B6692M8384K3496m907j2929j1886l2649p3472r5377p4279l1715k640O898J3090J9366J2418o929j2965J0073
54945a99331L7454L0922p729l5355k5301j658q05k1015l4201l2275l1820l7970l3404o245L5022P7646J11717J17524
54927e6824P4388m396o8955q3412o3082m5479m1176l3642j4363P154K3737L7544M5452L7643J6791K221N468J3249
54909a47682O388j1150j5511M866L2390M1505K8956J3999J2897K4636M1036N6373O1899M6240J3495j1307j1952p935
54891A79143l0222p2012q7503m7546K1398O5087N5942J0267l6372n7643m8529k4023n839k395k530O773K1489K6826
54873b7689J9017J1831K0278M3185O3439O2511L4653r082m8117o5337n7693l8053k5088k5737k7093j2286J4007K5872
54855d1382Q508j9834k9158j3146J0046K5442L2190K9677J3375j0743k4903k0752r227k945j984m690j8156m4209
54837a21891o4186n3448j0398L8607O3970N7834L6040J9972J6618J5344M803j0202j3957O50K5189M6506N5960N0077
54819A57488L2983J7889J4380J3634j599l1913n9740p3225p5395o7619m3619p081K3213L5159L3627K1470q028m6713
54801f5089o3082l9992l447J0168J253m477j661p228k1297j9818Q328M4673O9464Q1634Q1133N7549J3869j9322j7068
54782A05590L133P60l4188o6783n9572j5066L0075M3618K3591p756k6359k3396q361k53j2357l9951o2735o3082m2078
54763b55170j4980O197J9181K3846J9989J4652J8965L1574L6648K6408J4416J6344K8443L7103L8905L6541K6617
54746A25679J0648P476K9191N0667L3471j7871n4750m8085k1661o324O529L6899O5813N2549l429n2954n5383k1627
54728A36838P887P925j6622m3703n2734m1066k6793k5831k8219j3903R553J0991j4915k9951k779M5343O9866O0935
54710E2822M3572L1955J7561K24m060N220L145k4956o0657p9242p8658o6480l9321L256L9961M7623L1909J7009J1481
54691d7636O211Q51O289J8084J1924k3082o2390p0733m1676k668J6331J2205N730J3139K6956L0680K6548L3122N3346
54672A3231O4101M7559J5250j2062k9306l4889j6329K4632N2185L7250M533j346J2928J183l9524n5145k1421J0018
54654G2848j2926o3937p8902m6438j0353K583R902K9652M9183M7563K4687j112j1396j684J3364J3145k418j0141K837
54635B6457J8921J8423R447Q494R501j015j3413j0386j467q853k6881l1163k4108l2917n9491p0561m8215j6383k226
54616b55836m5R209K6304L9856M5773M4264L2144J2379p72J923J2563J7080Q806j0534k9786k9354k260K6441K5846
54597b5999O949J4143N9592R7669Q2565K4483l2348o3177p0119n8123l3778j5460j6251k2329j0373J8898M2862M5620
54579D4824K7838k552l0948l7075j6083Q679J3751Q281J6970L8029M3502J9782j5563l8238l8628j9615O048J5849
54561D4851l569l4947m7119l4710k1039k0906k5143k6818l4649m7101l9364J609M6855N6456L3558K2493N0645R1300
54543A2402R3984M2401k7827o7937o4321m2700k9226k2005q031P006N972p917j0211Q790K6942J8852j3569m8335
54525a25730o6212n6562j7906L0829N3688L2948o305k5287j8354j0663j5003j6929n666N468P04j4238k2762j8794
54507b96774n758J4186L6598M9016M2460K4141Q605J708K353J1918K9189M2435M0824K9608K0366J1608m270j9809
54489C8404j9958j0108j2155k7399k8789k010K9645L9371L5020L9845N1017M5773K1678K557L415J2722J3362K694
54471B35084j1458j8664q600J7079L4979K1081j6146m3377m5519l9025l7819l2570j5926l009p778j8351j6166m147
54453a0332L965P203Q235n074m1728p9500q3229m9874j0354J3217K6243L4771K8361K561k2545k2675L753M0585P3440
54434h2977R2173Q6417N6397K3066R730J1831p93m4250r1827r6147m0862L7598Q5255Q3071N6896L8585L1093J7502
54416B72758q663l5666n0609n1393m2966l1630k1889j0739J1532M4395O4752M6715l752m7036m9013j4907J9222K2356
54398A13467n588l6533m0964j7612L668n273l7623n9590m8858j4873J6583K6313J1013j5280k7966j4412R521K0126
54380a23881K0825L4607N9901O3243K9512p856j0493J0180J0055k5813o5788p3360m3389K499L5743L5108J093l9237
54362h7051n6303m8752l6731k7752j0508J5486K9348J9685N672J0595K8257L3521J7636m645j8680k3382k0755p551
54344a81910J6430M0572N0985M3209K4136L452j3511k4377k5247j3592K819P818m093j5926q062J1592J3299j4136
54326h6542m4168m3539j1106K5155M0105K9526O267q294K693L2618N2444M4637K6796K4022K9089J6178j2277k5755
54308I7849j5850j1308k9599m6332l5026r591J885M014J9992M3832M4762J7286p828p666P175J8044K1330J6088m392
54289A24665l3272m5381l0102j0453j0182j8340r197J4476K3372L017k9155m8846m8958l5901j7338J221J7859L6082
54271a16433N7935P4639P2251M7483J1352k1905m1991m1738k1522L405J0932o117l0704l7523j5724K3307N5513O1640
54253H4800M1132J0804j1884k1912k1403r709J0999K5404J5484j5346l9870l5285p544J7492K2411J2697N657R845
54235I3772J6699J1400j0335l8628o0073o6127n3198k6092l502m483k0649j7624K0270O0084N6468R958l4388m3029
54217a09477k3741Q06K1049L3339K9799J1392m978o557k06K266Q88R3r26N01J3945L8223N5158N4165M6991M3075
54197B05805K9297l688l2620k8741l265P069l788m472J9259L8088K3654p207j5329R041L8125M1365J1418l7728q2047
54178B04236r9034q1599m2377K91L5973N6745M9836J1486l5914n7802m2493j1082J0364J6365J5155R885r79j2031
54160B7025j3994p105O04Q033J9890K7913J0686l5487p8968q4476n5532k5271r102P882L2374M1515J8528j2431j4076
54141a41992J1813K6488O115l1524n3273m3285p754L2378M9591L1603K509K380L6996O8624O8446N4069N3885N5943
54123B23012K5095l7763q8600r5682p1748m1809q546L0745N6346M5383J0389j0222k765M770j4815m8617o2368m5373
54105a32568j7542K644J6296K7457K8298J3962O36J1797M7203P7790P4879L7749r489m1645m9774m0612k6060j4821
54087F200j1475j7706k8280k7917l819L2580M7962K4843j0130j3931J7746M3605L1010k696j6852j62K1963K4150M607
54068A21698k6106n9210q4483q8494o7457l5577j2080k448K498J1599K3173L0658L4602M4131O3183P8294O8875L3002
54050A35858n442k2822k2497k6081m3094o0959o3209m5812j6083J2382K3387J0382j1333j7037j525J6218K1384K2224
54032i4059L2750M9522N5960M0282K144m5544p3516n3563M154M7868M1009R825P794M2243O9483O0957L6504K2179
54014B55992J1433j0002k9514k7496j4402j7267l6941m6214k9706l393P813m232k8666m6027m2536k5987k2018m0063
53996a49226n1636k3870L1525P0053P3864O7467O7573N3728J0418l2301l4401n874N567j6849l7155k1172J5764L2211
53978E5686J3673j7007l3736l3094k6024j8550q881K165P319J950q046j2825j1515j2499k0213k8123k7643j8501o918
53959b02782J381L373K64M70J3245L3845M3746L3882J9200J8758K8457K7972J1160o097q365L634K1543L8572M5356
53940A27614L1222r53l0626m0153l4045l0762m0274n5698o1907m6675r045L5621O2155N5267K4018n756j2893M074
53922b8816K7557L4887J8468m567r083Q524K5486K1934M578p557j0622j4195j7803q013J8579M5611N7255N5138M5425
53903B62786K1305k4634p4546r1599o0252q339K2447K1518J2058J2662J4452K878j4045j5438J485J7460J8355J1210
53885A29763R313J3917J6863J1628l646k4555l6667k4853N105K5234J6844o076j7210j2045n267k096N503J4707Q147
53866A24609j7209l7789l4263j9842j9897l2585l0970l864K5859L1420J5369j31n728r404j1449K732L4464N4574
53848F5896L5242q235l1060j5019J3103K5780L0190M1007M2728J1752l5048n0609j9841J9694K8538Q973j5495l6497
53830A11099n3988n4273k4927J7031L9498L6185K9410L1489K8181Q244j3161j6722j0483j9329m6592o3957m5532j740
53812d9567L0601K9978J2607Q560K2717L1114J6504o375j0957M520J5536N611j2429j5915l036O779L79j2463j4536
53793E9628n194K421O566K2918N5094P3883M8619m619l3565j5894J1538N795k4129l8293k6774j5921k1376l1138
53775F9559l8370n5703q3698r4739o8590k3168J0574K7683M1715N2044M4604K0705J588J210J0909J5498J2791J2352
53757d3036K1598L6532M4463L7764K5684K4543L2059K3022j8660p2900j02926r6869p5296n9868m9945l2601l564
53740c10000K7254M5422M4899L3661K3976J6235J557j5442j2108K0625N6337O3250M5823L1442K2734n188n6734r7064
53722f3321r5331o2659l0738j1979J373J4582K6966M0950N6582O4017N6743M5990M7596N9557O5133N3171K5005j0786
53704B82851l8324l8670j0330K1233L0893K4591K5176L3795K8053j457l5753n4575n9881o3569o6963o2771m7547
53687c3248k5018n136k640k4561n5133o6808n2009k9539j2875Q736M2804O5172M4894p350m1183k3717K1895M4595
53669a51121K1630k3348n1856m7934k2935N448K7178L4643J9584j1964l0656r730L9230P5578P9220O8849O0095L2948
53651A14859l1919j02750j20545p1729l434L8621N4486O1090N4042K4555r302k0584j2734j2326k6613l4468k1214j67
53633a20132O309q446l2752m4881k4186K7391P1384O0654o970p5913q5915l1649L6814O5265M2066K331q052K1800
53615a04882N6034N2840J4129j9450k1281n788J720j712o419j1831j9389j8844j479K2648L7138L9509L5325K5139
53597G3407J2596R732J5512O777k5296m8283l0186O678J1972k0205m6823m2516k6654j8074q081O261M529j8354l2288
53578a69296j6869O028J1796J3759L1498M6391K8050j3297l9966m0876l6301l6381k9725j0047J5558M1165N8427
53561a40086M8173Q125k0154P002O7014Q7528M1451j4245j3636L6245P2592N3727m353n4661o3174l4035k960K31
53543G4784j4649j3834J1860L5356L4618K0866J4167J4059J0727N869M354J234m712P12K5444M9731M6615J5867j9620
53524C13448m1882m4612k3742J3835L7734J8155l2872o6405n1386q564J8414J0963j5901l9946n0170m3423j9772
53507b6126J2818L8268M4881L4981J7169n945l3253n2075m4756j2687K0096L5258L8968M2124L7621J5221j3343k6976
53489A22244k5640k4794k5077j4139L374O564q411k4165l5157n3524p3327o3443j4365L6884N1049L3352J4915Q421
53471h5239M211o901k6997n1648o2361l9504K243J9044j385j5852R625M4552M1484Q989r789q070j1455j8297k529
53452b09879K8357L6588J9788J6527L5552L6728L801j7826J1145O0774P3374L7442j3348m9019n8646l8747J22K8389
53434A122K6435R201L669J5438L2912M5432M0981R409l1594l9039J038M5646M9553K3642N333m580l1661o9727q1669
53415E1541n6210k0903L629K2663L6286K9550N110r405r50J1769J3173J2489J6079R262j3783k9993k2130j0621k3170
53396B4386n0242n9859m4350k2540k700K5363O0425Q0803P4052N4732M2177L5969K3947K047k4787n1961p3927q0310
53378A3225o5880m1822k5681k0113j1949O005K3497K8836K6064K5821K5795J4259q071k3922k1083o197Q531K0810
53360c1875L1755L4328K1101j565j8361k1153j0989J0942M2089P0257P9173O3903L2578n010m0076n9146n1939k8762
53342A17250j6034k6385m2372l7609p869K5727M0045L0365J0052m825r023p022j749P962J6745J1464r367k5691k1188
53323E0476j0167j8407m1238m6010j9218J4640K9910L0263K8249J8640o355l2840m0383l0085j5243N284L8676O9575
53305B5767O8615L2608o844k0304p352J7027M1628N5431M4000N623l7067n4242l6450j552K2066J9244J443n295O434
53286A70780J0511j8863o3866p8324m9689j8225k0759m0280l3908P228N2989P8230Q2798P1105M1869N541j2296L91
53268A85232K3118K4710l144m1318o4555o1185l9026j8295j3514j8222j3790L882J6503Q792q268j1608J355P749
53250b1584j0917m2925n5497k7627K7441P1245P3115L7705o58j2981l102K456j2217l7074n3182n4268m4671k4522
53232a89263R165M6142O2151M4536J1174q061m957M855J1082K1280L7955M2580J9179j7908l9033l6295k6472k0561
53214c2451j2360K64N215l316j1543m806J3496L1794M6060N4631N0258L0884P867r689k7845n0491o1121m2119n354
53195b0626J8081J6835R010J3188K8114M2256M6223L3963Q686j0445n647J2706J5923k163j6368j0674l813j8023
53177A57226m2164m8111l1892j6496j9796l8165n6898n9557l2810J7288N5663M6769l166n0717o6783o4275o5862
53160c19746o5235m0712L894L6734L8652K7864L5108O5984R9001J13346J04559P5012K6036l2093p4100p8184m8911
53143c2791j2446R520J3059L840j0398j8620j2140K972R974K718p978j3667k0120l1569l7213k6582p249P505J9294
53124a61891L5542M7108L6356P273j2992q333O654R135k644j2267r001J443O608kj6025l5974n7087p7136q7178p4480
53104d04891l8737J209K5923L5720M2687M9288N0005M9464N7936O6777N1280Q781k5416j7613K0717M7005L8117Q527
53086F6779j8298l5805m6531m5932k7217M037L1163M1622L4911J6762p149k9717m0841l3404j0471J6456L6222M3812
53068c601M0541L2788K8609L0368L1940K8035K2562J9798J3185k449j1945L761K9135K0756l2431q2853q3176m8321
53050C6702k6099k4466j0444K6124N4904N6628M7615L8541J1215l9831p9708p8085n3348l9479l3244j1115J9173
53033a04917K4581k240l3135m4043l4901j2450J7373L9802M1356L1035K7225K5712Q431j7878k4635o888P918N419
53015e2235M776J9227K8540J2460j4528k5762j9277r127J447J3350J3902o883l2165l6079j9422m425N68P489K2468
52996i5676L6667M3918M6979M4124K8092J891k0185k9726k8340j5760P907K7204K0852n992j9086K356L5397M0411
52978A21033Q355l3129n4203m9438l2471j6999o738J278P312N641n812j5528q136J3565K6813J5151j1487k8988k3830
52959h7611l9K8504M3930L2805K265j8677q622J8797L1400J9396L017l36L711N058P524J5490J8534P530m782j59
52939A17735J3311P955k3145n2868n3859k9254j298J5239J6863K775k0984l6379k8529l478K0771L5961M3626M0073
52921F4515J9938n996j5394p43K3381M1052M5880L0079j2647o2532p6643l7020K0802M9422M5249L6471K8081l957
52903A89938o0790r9287q1402k2192L2249N9714P2593Q1866P5305L8309j6805n3053m1254J0353O0013O9613L8406
52886C53576l763l3208n0272n9970n4028k6752L455R342r880k6829k3169j2580j7840l7095m5707k7116R368M0603
52868a1865N0481L7901J2759j1079k3626k4976k2362j8610o908J8392M8742O6258O2161M5098L0851K8819L6875M0625
52850C59536J8617l7279j00820j25806r4196l9556r014j1960k2569k1901j3354j595J5081K8086K1967L213m04J8579
52832a3375L2641K3232J2616K6124M5202L2342r428l7872k9597l890J3695K0259K0453J0873p316k1560k6203k9509
52814E8687l2434k0966O886K6080J4453j7079m1554m9568m7241l3972n929K5262M1134M1412L8766L0616K419l5737
52796A235m3640J5O1308Q5898O1536K4124M888l799k2210m4698m6934k2530Q124K4933K5474J2299j6190m9554n7714
52777B565k1365L6660P0599O0476K4456j3740m6000o5434n7593k1042K0826M4175M8348M2637K5679l085k4732j8664
52759A04766N192J5302N44j7661j9055r890n182l145O908J9911J5230j6799n8553q0246o8116l4531k410J5171J8899
52740a13665J4434Q034O749J0702N519k2382n8356o4313k2198M1016Q4945R8462R3696P2482K7171k8626n9851m9160
52722D4659j6601P691J3520O275q503k3104k3764m174K2619L6090K8334P424j2733k1178j6273q488r663j6512j4851
52703i232l902k402k1277m2654m0077j2774J3729J8583O301k639O158K7999M2746L2667N78l1459m2913l0435l235
52684i4238K7762N2306O1612N4063L5482J0712j8125m3122n1741m2302k8439k2038k1543k1504k0616j4030N790K9938
52666a00033L1887J250l5735m6680l0743p703J4872L8515N0575L5773P475k982J0485K4096K4831K5303L1469K7336
52648I9991O661p790L383K5778L3554K4539J2470M17j3949j8005M095M1308N9253L7107j1771n5367o8157m5188n490
52629A22839J8854Q912k4649n6765p3636p5047o1009l2043J433K5132L4923L3863K1520J351q091R641M1402N5198
52611D3828M0631J8641P568J865p045j0513K328K5248M4730N5925N6128L7905O154j1060Q882M8990O7211M3815k269
52592D78962m2174o3468o6723n5296l7261k5113k4096k6520k2185r460N592J4876J2194j400j5330j9149j4400j0588
52574G8461j2263j8931l2706n1626n8244l4203J0497M1919M3432L4754M0055N4419N5600L4034l545m5852p5265o8777
52556h241k3144K9888N5738N7356O0824O8482N5849J5436k6305m3660l8743k5370r542L151L302n952q329k325p170
52537A51245k6415l1877o895J9255J1868j3274j3146J3239K1952o467l5847k7602P426L1036K7745J0719n024j2298
52519A15640n030J6355L5924L4961J3750q740j4901j856J9973L4613L1988J7241K673j1724l6731o6891p2826l6399
52501F8020J9484N4828N6920M1424J9286j0861l9972m7962l3545k0468k3098k7754k2459k3368m8148p6546o5994p133
52483a87346N7662P7543M1807j8625o4535p5037n1358q005L7390P0606Q2571O9752L7035j636l1256m6056m9089m2677
52465a01254k5233N75K2900L0158K4025J7512J8747K1657J7470J1610J8136L3478K8934j4278o7497p5005k0083M8655
52447i493P2097M6387J3910J821n61n674l381J3932K8391J9819m211k2038k9753l8133m6290m2200k7792k0547k5510
52428g9226k4553k468K8642M0155J6118l1595p0848p1489k9611K7405O5729P3529N9126L1412M45j0047J9082O5898
52410A07704P9590M5096Q173J2209L4357J9069l9736r1024r9142q1697o3892l5357J9905P7558R2960N8608J2026
52393A56407j2346j3812o086O512K1475K5815R492j6402k9378k0848j602J4783K3095K2284J1801m976k1973l7368
52375A26873n1081n3885l1475J2828N0224N4043L0155P436J583K823r12n435j902O188Q823N819O773J6488K7794
52356B13160K9536J8810M901Q4L913M88k1236m8270n8174n2476n7284q3608j05517r2143m7389o92K9920M4859M2615
52337a78503J9931p213j0335J3494L1552J8415p037o527K4069M6668K7790k2276o3679o9785m6137j2675J8533M3469
52319a80246N6406N3843M5038M3392M4553K8460q443l7778l0944K668K6394K0994J443j0421j1938j1788r295O798
52301B9136M0025P1732P0254K2911l9972o6834m0397J372J2952m536j6655q780L951J2728K5438L7155K5374j2051
52283A63803m3918m7520l7896l7189m0085l2429k1501j9319j2933J6298N2390N6145J8098k5626l5442q149K8492
52266b6781M5009L0916l19k2747k2291r237p98J111M130P308N210L385J0759J9913J4109o794k5592l3026l5849l8568
52246h0152l5655k5305j3774j726J7364M0495N2785M7517L4086K1100P143o473j1218q056j1613k5967l1389r806
52228d0644K7691N3291N3948L6221P597k9102o3455p6051n6852j8775J2458K1086J2659L611K036K414j311o251r650
52209f9079j7267l0947l6552k1301K936J4628J7525L3734N8523N2934l019p4696j10703r7631n7851j2883K5503M4102
52191b82044L9858L5388N3453P9096P6154M1110J0452R467K2451K3093O559k2461o6458j17549j43122j16308n2992
52174d03853K922K6049K4214J5022J0400K1237N1810Q3426Q4785N0064J0967j999K868l891k6179l4686q249L4879
52156f0214N6972M1659M675k8254m0624k5943J2126N2251O1413K4445l4281p0889o5383l5743q479J0799K9343M2562
52138c3565L4777L652l1361n0402n2673m7537l5183q054L0527O0874O5018M5156K0342P764J0127J8492K3058K0851
52120H1863J5707J2828J3774J5941J4964O698j0156k9563l8024k4998M632L2531M3107L4526J4315q220k2714k1421
52102A35790j1406j4855m2630o9849n5289Q301P6242R5020N5620o214n4944q4099j01420j04863q5600m5937q01L6749
52084b70185O1032O6040M5819Q761j8721j4325J6164M3964M4321J3264l5653p8295q6638m7141J9240O8319P4678
52067h9356N3691L2799J4122j5952m8402m9996p670M6484P0057N8377M1133L8068L8463K7391J2396Q968J0203p396
52049B33380m4930o8447n0282j0378O026j1170k4376m145K6886K5007j5897o0236p6423o2362l0087P324L0460K2742
52031a06908l098q833K4373P1101R5207R1417P6294N4766K1762j0752j8495j914N412k1461o2954p5400m1364J1536
52013A00689L9714K3210k2361o4088p7387n8120j7793K7369O3304Q0675P7268N9648L9578K5383J5209L2k4210m7840
51995B40280n4677l9401j3286R284K3710L0963K9758K1927J7607K2783K7932K2946J6050J8885J9233m175l9511m7224
51977C03084j8274N839p806l4190l0543k777O657j4861l6892l7971l1698l2360k8703q122J7700K8509K0411L340
51959A01343j0896j0070R978K9492J9481j5037l0009R70M6858N9731L5901P804r481k7014m2902l4496R99L0830K8576
51940A92058P861m265q064k2042m4662n1085k9703l619p384m8549r6603j09191p1353j1003K7927K8954J2959M071Q29
51921b32864p460j0495J3057N7499Q6497P6288M4428K3217J9114J4729J243j1011j2548p321j736M533J0142O094
51903G3406j2220l3197l9278k7966j5193j5367k1383r536L1268P6169Q0615K9613l5088n2528r203M5608N6066J7295
51885A39081l1382n4719m6507j7650J5857L1640J0347m0074q0146p2616j9595L9261O3174M1684l696l9860m4910
51868a10111j9980J5045L8341M2029L3597K3566J4739M652n401j0330j0759j5149k7575l9556m1549l7165l4989l0469
51850b11064j1876J4687K5005J0077p036j570J8915K7957J8005N164J473L486P838J7540K8861K9968J8204L053j2115
51831a3428l2428m8942l6663Q724N0897N2156K0703n045j0903j6967l4094m2368k5373L91J0685Q788J0702R273j4458
51812a08350m7028m6463l284L3494J6021l7811o8775n2074j5638J0851K6448L2574J5733k2226m6506k9697R886L6084
51794b96761M3098M6817M4465J9978j6688l3331k1039k469R669K7890N4548O6970N5545M4796N3036N8159L1826j3170
51776A73339m0507m0949l4698l2636k6398j3589l935N40O482R400j758j7447j2014J5630L0480N454m0781o5075m6058
51757a34520L423N6343Q7951Q2260M1597j0209m5741n5241m4580j9518J5078M3454M2804O601m2390o9093n5989j5876
51739a13646K1925L6507K8643J2548j424j2446k1179k5874k9542m0682n8094o3244m1170m928J6826J7644K0752M1889
51721b15495O2889N7926L2737J6038J7114J5641l374k6364l2100j8248M226K7485M3725M0032J4721j0454j3200O77
51703A3976R500R417J3507K1246J5676n308k0076j4575n62P971J5013K5239K6718R735j2545k2114k2710k7971l2899
51684I238k0126R188L2073L2584J8524Q317J2388K5316K7035l96m3864n8115j5399M9864P1346K6388m1789p8297
51666F4275o7319k4945K7169O4753O3658K4562j8359l3900k8205k4942k5032j1118J5763L3302L3222L1685L5385
51649A59954K3065k0048o6760p2449l1039J5735K8364J0414q155j1885r206j0700j6222k2328k6625k2066j308K7042
51631e4217L9211K2820n706j9741j2281J078L082r798k7589l4006j8312J1917L4870L8106L0924K6357K2611J4287
51613F3613R047J4672J9488Q386p659l565J9348L1603J8240k836j3126j8190k7159l1772k4431j8165k7258m0930
51595c0694l7124j4325Q789J9030J7479Q572k126k323J7890M9482O8337N7883K2971j5250l3463k2911j56O352j1559
51576A06854l2171l4953k7823k8683l2603j9118J3327M2105M9258L6833J2712j9727n2686p0565o4002l9379j0641
51559a71262J2295K7420L9921N4882O4364N0428J3022j6275q707K0325K8709M098k3802k9554k0830j1616L333K8035
51541F4786M2546K5103j6307n5070p7464q3839p0177l2489J5119M8499N8451N0874K7203j2510m7899m6868o602L4605
51523h2039M2005K6588K5350M8693O7863N4365J3674k6550m7728m9216l6152j4281N137J0696N206K572N291j367
51505E0107k3461m0817l1308k839J7612K0166J5761Q366j0027l4172m2970l0952j6904r852N731L3255M1997J0740
51487c9567k9171l0526L173K6143J9541J1188K1311K9134J1483j6647k4755j0654K546J900m824r502j6189l0782
51469h6198m7639n0108k4471K3494O7873Q5811P9362O5519N0735L1904J7157K0112L1529K5869M943L030L0291M3801
51451C73014O034n2862p1064l9972j0623j7772l9453m1272k4039q840j345P239J9218K7864K6188Q477k4611n4514
51433H1667n4466k2625R152J2933k177r140j833L784j050p335m949N451J6745K0422J0183q349j5316K678L0792L7416
51413A03983Q598l7614o9974o8634l4497J3533M9614N8484M3705J5853j9412n2788o3241l8975k174J0247o151j6535
51395a05978N626M3417N9902M1425N667k0739k1564m49J6691M28m7195q6591q3374m6866j0897J0926K7934L9110
51377a72527K7793n188k9385k0335Q423K3397J1848p784j0750Q466L2786L8848J8881j1515l1278l7946m4544n3407
51359b54217m9225k4938J438R796O725J3818L2219L7335J2177k7011m5236k4084J9837M9328M0943Q060j3508n415
51341b11958J5635K5287K3580K4974K6989J2429j7076l3732j9111J0805K7988K6220J9597J7742J6795R726n530k3744
51323e3384l0517j1651K3623L8108L573n9861r8642q2890l4436N356K0282K3562L0105L8203L5773J5787j3869l1885
51305a82763j9220K0291N8385O9012N4862L9140L2337K0143r684m0966m5021j8866J0272K1972K5669L5172L7344R154
51287A17233m0242o9875n4185j0369K7895M5184M3458K5658l595l2584n2197o2614o1684m1897j1269K442j1111k1824
51269b11576o94L1214L0745M44j3760N541K2208Q101j2009l741K1501K8448J3665K925M243n77j8015k7148r844K3220
51249a05109M4906L8673J0080j9325k9100j9084r101j1984j4217L522L3766M9493M3169L8095N3393P3586O6332K4138
51231B71233k4199m5684l8858k9945l4938l8690k2050J937J786k4306m2193l2656j9709k8873m3146l0344K935J8771
51213a58929K085k4596l7854l4276j4250K3649O5064Q3304O9969M2231J5813o278j5808r55K3259J6849l2594q1711
51195f5028p8060k0458M5079P6172O4517K9583J179j60J9033L2780K8946K2062K4166K2181J648k4131l1652k2945
51177A24912k0090k9504l3958k0012L475J5622K474l0549n7278n1403j8887L067o596k2335r445K3524L8237K3580
51159f5166P017J0029K3620L3701M2403N3069N6315M2718J3517k6920p0910r6743q3589m6588l0320n1243p0791m6739
51141c06620J0184N6600P5043Q0103P7118N3004J2090j3421m675J5300J2711j2310l0667k4169j491K1370L6977L9781
51123I6928K1166j7292n4093o4279m5398j9021n988p937j5290k3587l2588l4091j4574K4834O0416O7966N0176L1911
51105A9259K7141K1819k619l6994m9240k1790K6988O1640O0444K5275k5353o4296o9746m5201j7219l78K3163O8644
51087A537J05573Q4034P045n8891o1871k4905o478k4955n0282n3853l4499l030K7829L9850K4454L593R312L8580
51069B3043N4512L9277J8270J7564K2099r48n1007q9871q6109m7864j0377j78j2961k2399r614J8371M2610N7344
51051c8238O8337P0962N1111J2543j8061k5350k6978m4993o8945o6869k7013K7337O1586N7082K0965j8085k9131p859
51033a599J6708J4839j0890l6669n0860n6901n0762k2708J5953L3882J8139q037j7327j0366k327M878J8030L2597
51015a13420L7776L3864K5278M927k9403m8334j4312N9248J04474P7087J4968r730J7857M5861L3310p39j6935j2171
50997B09606j2853l1163n3973o6192o2048l8077K361L7682M3263K3263Q961J7686K9811J7247j8604n0518n7501l9273
50979d0322n549L2471O0098O4030M6823K8853K7872L8219L6193Q380k8173l9910j4680J8650J7910k3460o5479o6421
50961I5505k9900M150R639j239n322j421l296j2189j5686j1113j0082j4721q224J7808M0847L1704m592l2796l2737
50942A6335k0839k0952l2597l9418l3938j9261K652K7826M2653L6970K1800J7443K3942J9732o483l6867m4910k4870
50924g0782O637L0665L8282K7256j379l7912o1534n5230k7800j1063k3209m1392k9352R286L0756J3213q511P376
50906b04693M6427N7023K3767j2198r493K4425M9182L6775o438m7642n2964j9050J9741L0124K1645K7820M9856N1463
50888H5770J6531k1446k5752o474j843k7085o1930p5708m8900J4876Q0736J01220O2838L409l2348l9633l8097k9023
50870d2859J578M4880O6247M6012L609k4343j8320J0807L0980J5142k8869n9282m4470K38L4793M4656M7861N7147
50852A85807O1080M7258K2755K452q150j0760o861Q18Q267J5510K3060K1473l689n1006r6722j16076j06686q6978
50834i8448p4704o9299n4128j7059L0816O2275O1990M0505J7766L952J735J1631K3198J6874p831k0695l36K6790
50816d4968J7003k6142n2420l5499r666j8933n4752o9290l8689J1013M1085M5424M8776O4801O9871L2526l3957p2730
50798a26547n1909j0575q393m3113n5735j6600L4808M9341L1173J7513K2602L1424L2770K9244K2203J2385J1559
50781a7850L0059N3205N2182K2720o021q964L367K006k1667m8278n8858n6368n2690m5018j9430K4128O6005Q9811
50763H339R5053P9796L3327l3668p2170m3344K2258N1902K1424j8876k1399m348j0824l7993m7086k6954o074l685
50745a4322n119P835L0237M7759N5871N4800M1708J8228o213k6415m5404n9861n4729k3529J4505K9717J1556k4290
50727E2334n3756o1293m3029n134L6749O2898O1447L6769N297j7540k7320l0267l5168m4977n3153m7297k0434J7619
50709a66255M3787M3574K8463K3300L4669M1138K0940j8603m8944n2869l7103j3428J6705M9912O6079M5035k121
50692G4279l6533l5387j8648j8911l5919m1168k2878j677L764L502J5499L5686M5868M0557L0040K3892K3538K3604
50674A09108J1918j9836n6447o8307n3296m5898o3212o9312k8338L0282M7421K2721J3244M3858P6180P9292P4093
50657A03471Q0725P3850K9529k3428m2722l3380k5646j7426J2233M7758M6773M667l3959l4654r864J0635J6701J5541
50639B20804J4341J4298R777o782k8509l2241r779J1783M289j9590k7268j7205j3842j9890j5812p033k5431p0655
50621a8745r1542m9338K9880Q6756Q8552M2068k4261p0607o6224k6201n858l2454o3847m4686J5501N6172M6197J2730
50603a15907p640r428k931R430K5539L3413K5436J1757P759J5296K3643K2617J0136p055j7507j6085j0986j1857
50585a4370j3133k228J5963K0325N513n286O807K4635J5386k3140n6299n4348k4703K515Q665p53q234m45K2478M6288
50565c4364N3845M1593K1944O603n962k0940l2396k8528r352J0623J8056J2377K258k478M093J9132L0015K4867N695
50546A17081j4301k6566l4225m3270n3012n6290m5128j8525J0186J9064k6k8593m1237l2673j2737J6476N6226Q7376
50528a00174P9843L4442q825j7805m669j837j8661l7217l7340j1979K9291N9938N4386J8528j3302k2809k7671m1890
50510f7751m3626j0272L6524N5479M1414K1558P426j0607k5939j6090J3670K6449P174j3145l748K2548L1676J2256
50492H4996k1724n4004p1835o2560k5836J5220L0219Q870l2104o3347o1900k7268J5428L7408L5984L3502M5103O1220
50474e2628O6358N9921M9357L5245J4463r605k9471m1648m6690m5837m1055l4503k7611k4621l1782m3848l9071m265
50456b47291L8914N3187L2501R632J2767L4620N1943N5814N0497L8163J9366n09j6434k9210l9354m3213m0045l4565
50438e3217k8389j7741k798J0176J9009K8938M2841N5284N6333L6151p246n5102p3366m7876n561J7571J9254K0556
50420A4817K6956L0174L6816N6583O7999L9570j4060m2446l1092j4903j1352M309L6338L8897j3422p2565p8211l5108
50402C9300J2663M8022P3278O9065J9064m1843n9589l3990j3389k3465m6246o3537p3983o7030k5565L7696Q3158
50385f6391R1183P7055N9073M3485L9948N5862P1239N3212K869m1148n0732l3486r562O368k94l3485o5880o2034
50367A37282k8574r059k2034l7920k7299J538K6704M2498M8567L7767J3738k297M53O351j596j9293l4465m2171l8762
50348E1428k1749l946m912k0174k3175n279J3675K2854L5831N4877N4362K1518j6663l2138l4348m3157m8852l1284
50330c1132l32J5902J2288P411J1330J7995K3062K6599K3730J1694p01p235j7711l9482n7228n1471k7731p592O6P34
50310h9804j302m12J5109M2102N0231J8729k4564l2109K94L0813L0269J1187m491j3463j7171j0044L298L554j3966
50291a740k6331j6803l171j1373l5129m5444l2384j3139m20J2559K9311L4439J6273q220j0588J0965K9255K6108
50273d5832J4162J1742J3045J448j7534j9580J733K2097J7347p589k8085k6625m065K4330L7595K5357K777j829J8544
50254C9038L9038L5306J4191R68O396J9420K5857K2092J3066M552m968k5973o2874r6658r8086o3947k3469o34J0477
50235a46208K0349J6985j2405m8243n5097k6353J0454K9910L0268K1810J4236J6081K9412M4193N0667N3053N5908
50218A05020M4694L253n0892p4094m6943J591K8734K2076J614r655p982q158k5090n2242o1714l5440P696L0297K0940
50199a06295M404O116K3308L7243L8643L1000J8752K854j5479l2485m2156l8791k2832k396J5715L2763M9570N7200
50181E7134M6099K0339o933k6992l4430k1634R299L5718L5245J5204K139L697K198j2959k9264l3044k6516j4607O609
50162B7302L7410O3978P0042N0575J2296k7183m2806k4106N285J1637l638p999J0048K4510J7177L755l823k4541
50144A99919o7895r8547q1641m1312k9324m8346n3475k6275J413N114L325J7065L2383K8974J7188J7562K3556J4196
50126h6120q011j8928p111J5907L6186M8509M9211L6596J8960O765k728j7770l0895k5146m701J886k0105m7586m9836
50107a04917l0465j9259k6922l0076p249K7667M2205K7925J0110J2965K8915L3436K3007K0621L8137M9228J7710
50090A13038n1323j07961j10193o5360j2110K2935L7354L7057L0850L5034N8901Q2565P1826K4203j9379k3166j529
50073A22742L089k2456m8256m3809j3925J4478K6241K6568K3953J8899J1059O555J0550J7419J7351J1617J0657J4705
50055B07437R546j0264k7857k9040k8546m8064p4522p0805l2569l328j7429n3775o7445m6813j4528J1780L0262L6015
50037b29945K4030J1516K7893P3292J08000R4901M0184j5593l6924j8987J5456L7450L4721J6526m559k8478n7368
50020I2115p7591o8008k6912K0318M2169K5194j6552m8596m2207n868J8686N990j8808j4164K0219M5252L6348Q248
50002d167j3629k0152j3637m19O545j240j0327J036L0584N4498O0008M9797J8267l9838r3637r1489k9265L2943M3370
49983b0752J6230m365m593K960J3720K8105L4722K7611K3091L2194L5100J1445k2733l7905l2313k0492j916K3868
49965A03977L2205N483k6510k4214k918r190m1366n0973k5338q637k5623m0623j8347K2603M7522N5080N5239L5757
49947H4127r064m5659m0531j2070j182n806J0413N0814P3016N0221Q191j2254j580K4038N1316P3367P8083N3731O429
49928D35600l8955n9684n5117m3815l9911l6279j8164R311K1674P452j5666k7023l0198l8655m7566m1068k0627l571
49910d2262N102J8066M0336N8424O0212M8672K9146m74l6599o0156n2758j6816K7697O0022O7210M6413Q631k5496
49892B35370m1978m2101l1355r286K1396M4627M3522K1033j995r230l096P40j2528m2660o6663n3852k601M4001L8569
49873A31913j3712n7998n4529k0533K502K331l223l793o695j1706k698K5750N1508M8131J5532k2810m5726m7111
49855a2867k9050L658L9208N7713M2515m228n6843q0779n9282r473L0733L5143R995j4928j3044J7204M9822N2835
49837E8332K1641r710k565L8661O6274M3237j5896o7577q8457q5067o5194k5680K7374O8082P4098N0304J8141j0861
49819I5137l8577o2420p0099n6664l5147k1348j4700m772P230P808n588j5484p384J0248K1368K6531L4086L5756
49801i4019J5550j6841k7682l093L0485M1701L0058J2011p853k9896m0024k4560K586J3533M878j315N128R277O69
49782g9407p593j662Q586L802j4695k2648M23M8033Q8781R1248N2782M799j6942q519J876j0492l9753o0174n5975
49763a7530l5736k0680k1616k7399j8470P832L2382L7892K7360J2475l433j8470k1478p163O886l96k2851l7774m1843
49744a70012m9747n8209m2591J970M2931M8173K2772l114o480J5724M6465N3745J7943l5816n5784k6263J2176J9440
49726a66677N267P27P833Q100J749M342J4846J8369J4643J5841K0778J7880J0447J3510K7518L8178L9370L4110J8681
49707A45512q282k6731j5263J1915J9588L556n441O240J5117L108j4782k1650k6026l7498m2691k9373j2544j3074
49689d8319k7993m1730m7927m0885r086L7242N5319K0044l1250m0242l375L0898L4889L1380M5895O6130O3589L1044
49671A25623j4482m8689n3211k9321k562L373l342L81J0221P74k4629k8980J527L3182L6448K6201K5391K3553M933
49652H6391j2366o054M220j5383n4263p1362n7050l4401o996M0277Q5960P6669O747n7593o2349l1894j9073k7189
49634a55709k1736P845M1081O4378P6636O8201L1831j0803k7275j6406l190K810J1989K1357J3430o425o832K2122
49616A13304M7652L9135J2151N958K9651N1948M2057M987k8443l9318l9134m7227n9861n9223n0108n8768q3854q1360
49598b00453k6702L5250M2547J806k4431q520J4098J0344q296k3464m1560o3615o4977l5420o109m758j2177L910
49580d12527L6475N5316N5172N1544M3701J9312j2140k5008j3929L192J4153J7963Q033j9442m1714k5155K8833P6562
49562a39659P7617L2561k4356n3251l2847K1404O2338N3284O665l4844n0284n1258m5668k2253K0280N5766N9319
49545f5186L7885J7784J2855J7685K4241L1560L9516M1894L0783Q047j1940j7470j5167j9584k8111k3428m501O750
49527H3613n11r144o251o181j9691k7639j5785r325l2507n5441l1155K5477N0154K0722j6742k1290m488J0462K5428
49508d0294L8074K2220k8449p1966o8014l0127J779J5087J9995J6570J662r547l560L230j1351l3778k8997J1026
49490a96440O1111R7629J11019R0454K9869m6150q9800p5649k6848R117M313k7330m4852k3355J3664J9039j5098
49473a09307m2188k4563J4171K7373J3641R561K6359L5804K0294j112o715j595R52L768J5224K9222L0525J3929q558
49454D6785j6113K772L2096L4413r373o9050r1067n6305K586M1300M5802L2922K4677K8126L3205K7919J5656P703
49436A34054l472m0427r4430j09875m8725M5752R0431O2061J4400m099l328j0118j9004j2073K976M973q365k3745
49418b3014l3334l3204j5428J9176N1669O3867N6380L8098J3523q662j4318n995o388k2960l0490r878J7484K0907
49400G7433P239N015J5993J7877P944O621J6960J6439k560j5873n094J3163J2493o776k2460j9472p76J9788K4282
49381A68236J304l6439n2702k0497M6490J03666J15454Q0596K3851k6223n1577m9294l1512j8388k2096l3666l1065
49364A66138o609J8014J4162j7947m8255n3098l7757j8620j389J1714J1792m03k407K1672M9654M4197L545l6928
49346A17475n2984n3484n1194m2430k7130k1328l2040m1021l1154j0719N066J7134K8701K9683J9064K1978N2464
49329g1919P5151M3751k7941p5267o7084l9696l3518l6326j6046K1371M2294L6757K5554K3255K4091K2483K0662
49312c2428J4344m761k8058l4155j9797n760m584m815J249k161k5951m6687l3030P016L3839L0546K1415K8754L8201
49293f6823K5394r75p755J5755M1175L5444k514m5452o7679o3524m2525j6390P065K1087J7440o495l6149m4149j7117
49274b54187K4106M2991K8019L251n858l617j0018k6115l1047j2724J4230K6938K0978J1318J1197J6770J3483m200
49256a34485k1415j5280J9220O0484Q1160P2425M3208N487k8269m2606l3409k2140l5164o6332q0368n8551j9794
49239b75829J2219L8833O7943Q8271Q5255O6544M6984K1302k0854o2513p3659n4823l5159k5973r058K1752M1228
49222f7537L1315J0650L984M777o841k5533k8498j3707l112p626j2213k064J3900J6723N245k379M472J0371p286
49203g5359m1914n6379l0173N893N253l0174n0624k6856J3950L4484L8585N0541O5977N7305K0084j6638k8059j9939
49185h4043j3605k0179l3355l8211k6138n044J0094J8361L1299M6099M1920J5247m668M042K2941K6510K5669M3068
49167F0007O2331M5406n316m4827m6955k8809j0269J0186K9327K8664P077q945m619L858N310J5459M0864N2503K5135
49148B36387j9678m0038k7591p910O04J672J258n087k5018n9078r2896r9261o5236j9151l852j5994n788M7563R8556
49129a00538R9766O5265L3186J369m9244r3564q5337l2355Q553J2585R749K1301K7962J6969J0080J9999K1717l631
49111a6168l1901l3956k0412j5969j4742K932K8161L5582K7429K9733M7692N7039M2864K0618J1695J7549K4861K2356
49093B35363Q046r706j7368j2630j2910l3973o2625o8143m2864j3606o297j5412j9240j2578r274j7955k9923l2679
49075a73774k5830j9377k0128k2649j3420J4431M8810O4520M7012R338k0302k7342j9294m968K0718N9463Q7594P2865
49057G7667J6444m0583o2558n6095m8525m4963k9854l760J0849O640P083K8164M5469K5854j7710l3771O87M7847
49039g1115N8163L1267N964L272Q778R370J3721K2852J0456l8955q9563q7052k9805K4852L1799P235m266J5184N1774
49020b6069Q6189J01749Q4326M0168K241o083l759k2580n4660o1915l5303q880p660j5398r737j00p759k8981m2727
49001a6938m1491l1190j0899K2158N2126N4523K9578M715j948k453j4660l3806m2744l9743l8401m3148m2207k8002
48983b24530r435L334J2871K2125K1035L188j3134m504J9086K3011J169j0121J1906L5713J9289k6049n1024l7048
48965b03118j2678l969n488o463j0739j7269j0025J5764M0498M9289N2670O1917O5164M8004J9908o39j2384k2702
48947D7740k8003k4894k6419m1494m9546k4698K0281M3801K8972j49j7831k3287k0716k423L0669N4109M8111K7473
48929D1696K1137K9987K8455O991j1185m473J4714J7495k635k7138m4057o0524p8612p9983n0544p136J9800K3244
48911a62768J9380J4782j964l2192n4497n1535l1961j3279J996J9046L2776L3829K4907J6353J1106O856P881K1151
48893a38133M2131N4427M3746R691l0061m5547j8200L3640O6731O0410L7114K4371J6897j718j8329m476L4367N7310
48875B24371M0849N651j8486l0350m5173o1989o1976l5106L499K5967J9130q00o462N068P325j4553l4238j9050J6339
48856B0016K4223o398k9579p030L6624M8433J8348j3604j5160J117M465j0291j9878p450J3043J3797r886l0775k3339
48837F676L409J9174J2881L061P278J9104K2309J2900l609k5831n4454q1071q9483o9100k5252K0768M3167L2390P175
48818a38508k341J3678L7803N0080M6673L0727J846l3706n4826m3311n819L2400N2202N1516L8235K2670J3014Q072
48800A20405l266k7074n2084o1355n3299m0763l0010j2103K1351O2311R1791R6917P8368M4414L291l7790o9585q0120
48782E1399n9785j0563M7429Q2535P4863L8683J3630K2402M1632K9924j6354n5353n3568k5161l497N197J6777L3605
48764B33795M2524M0444L3832J7294j7670n3991o1091l9461k1844k3730k6061j7791j8436l7696m7328k3118J1892
48747h436J9799L662m225M155Q014M56r87J0774J8203Q014q735j3909l087J6600L5941M6910M5858L3288N295m3275
48727A74315r5327j09312o5937m711J7457j901j4208O944L4614L7645K2178P465n236j6691j2042J3105L1315J7706
48709C7379j1055k1633j3686j1691j6098k91M0457P0972O0309K0151j4964k7150k0918o176O437L618j7894l9868
48691C7899l9833j9801m191p387j6461j1181J0212L3348M6861M8547L8636K0349N600N531J1460j406m1578q1140
48673C5465q0323l1146L1343O1282M1126q492n0961o4951n7044m4912l2028p424K9470N8016N8755L5140K272l3075
48655e7487o4215o8162k5144M4069Q5609O8431J6793k2488k9894j8985o968K235J0190J5069J4265R368N766P266R496
48636d786J640j8490l4371k8479j0083q010k8878m0900j4375L5153O3989N4155L0017K1730L1353M0699L7484K3554
48618A51402N945j0188k2797l3275m3640m9475l9156o411L6292O2743N5807K4586m448j4574j4564k4946n0561p1194
48600d8454o1081j6450L5925N7486L0007k5015o0728m5867O300N2204N8963K7604j7248m7785m4824o951M2845P0083
48582G014N9227K7707M756K146J0073J2859J082k3572m5484m3139j0537L2772O0842O5173N1661K3884j4489m6054
48564A75921m9386k6770n693n373j5555j7752j4519k2453m2359n3034l7256k976K6131L4688K6247J5284J3281J9687
48546A8113K2661J1233r955k1831j1920R605K2546K1989J9385J8955Q947j7294m7249o7680q2219r3437q1720k9065
48528c08936M0810P6163N6970J5864q513j3233j3694j2016n301m141j4557j4861J8797O8527Q6217N3003M471j0346
48510A5224K0712O7137Q5236N1015k0263q1949r5239o4035k2329P962K9315M2411L3802j262m3526o9929p5656o6663
48492a88037m4640j1460K1784M1530M2351K7760J0866J3786M6368P9920O7059K668n7876o2680k5855p9m150j2080
48474e2765n506K409M85J517J6159L1327L2017K4271J8480P335j8628m5990n1926l7328k5240k7424l2402k9641k5925
48455b18775k7362k0211J2966O1897Q9804P2416K7140n505o263O642O485q715k0835k0803j6838j3397J87K9393N4937
48436C163N0075J5140j9706k9184j8972j1765j7205k5641k6870k2663j7988r403R175L2028M2616L3066J7054J6301
48418A9221L5506N6956O0413M1840J0398k4586n6235p5135p2618n0267j9147J1177L5858M7162L5322L633k6539l6612
48400c653l2202l2736m2904m8002l9075k7231k4340k2090n159K0209K8314Q219j8032k0531K961K7443L3607K8616
48382a66586L0771M2899N0072M0978K1183J891j5310l2915m1732k5905J1462M1086L8586J5435L304R612P347k4518
48364G660o7336q3597o1192k0641J5765M2191N5743M6520J3834k0713l1947j7748M902K4523M0218M5309K7032r375
48346A1148l3789k4192K617J0372j0382l2824l1531j1304Q950K3727L6623L9589J8584j8636l9548k2629J3956L1701
48328b7568J6075j0214j8886r391k882j0178j9139j6323q895j3506k8318l0714o946K6730M0893K5649o40j2634k842
48309a09729J2164P321k4252n7607n7938k2153J2952J5104k595k721K3953N1302O0381O0563O1383N1433K2549o334
48291I5776j1017N287K0556K3878J7587J211k2636l3622j1821K9679N4398M7221K6784R627j2399m7705p9686q2352
48273C0766m9049M915N5071P4958M9469l407m0269l9963l0082m5680p5514p7211l9129N000K7000L8894O2145Q6239
48255C4153Q1095M0797n214k3931r555J7257L1893K6617J3889R584J2876Q360j0194k7815k7708j4956r502j8979
48237A28667l0304k8547j3780K654R068k165l0367n9657o5006l6464N189K7060J9008J782q75J1435K2497K3903K2037
48218F135K3184K2858J3444m752k4518l8581m0888k6325L012L2490M3449K9570J745k3212l4008k5359M113M7349
48200I706Q6108J01996R2582P0909M6515J4325k9857o8545p3434m3408j7687l4097p8327r4305n0839J8836N5753
48183F231M0176J337k7852m1302m3556k8918O618M6174O4326N6513M2208L8526M2451M1315K9437Q386k0495n4325
48165B07250q2501r1258p6480m7949j9852o8J1521J9195K8322M2178N8097O8607O8577N8506L9225J0059k1755l7621
48147B34053k7466j1204k2613o5067r8786q5544l5410P605K0490K1998L6381N5520N0002J0287l6389n3435l4577
48130c4155j0041j0062k8309l3987j8746r740k4569l6855j3500K9315M4234K3082Q374K5100M1887K3170j4334l0558
48112f9694k3785k5897m8471p0008p2414n7951l1938J63J8596N862j6768k293N9590J21008J32687R8334N6085K9260
48094A02366J7068J4624J6268R966p822j8922o623J3633R468k3931n6570o4534n8546o2647p7997q0276m8973Q654
48076c14794O2899Q7655Q0229N6620L2802J7302J6963L3464M9551L6945p933m8528m5594k810M0675N5376M0509N962
48058A97293l7851p0379o9023l9838k0385l5718o4274o3579k1588L2560O3507O0438L4906L169k3621l9648m2441
48041a36472l2271j3282O115J7936K0768J8199J1931L159P99J7066M7972O7657N3598J3668k2429l6648l6249l3821
48023c2304k7281q408J6309K6043R664j7699k8307j0932J8499L5591L1022J2432r841k9375l8162k6296P303M9022
48005b2720P8796Q1101N0427l122n0957o2047l2037J0504L4785L7599L5535L9064M7411N8361O4369M6241n156o1404
47987C46750p7398m7598j6874k1392m1663l6058l028J8880N520k7736n6006p2302p6479o1176k5248J3248L3849L5795
47969a08916L1771K8227K5006K7092M0730N9681O9356O4767N2038L2272m93m0093o2583n2683k7145j6909k8492l8121
47951E5505k6769o003J658k105O860L7867O6085O0512K2539j5924l0367k7477k8093l6503l5695j1322K6536M9907
47933A07211M1357J2751q270q717J52L527P79l921j4394l1237l9087k5751p456j0988l2919m4119l6992l5870n0012
47914a83956n1253k0395J6047K6763K6818M8396P9078P6520L8715J0692J4543J8495o739m0175m4829k0598N190J9730
47896A3042K9848L8541M1245L7732K9021J0323j6876l5781l4562k6453l1168m3788m1183j4904K0722N0941P3309
47879A00009Q6725Q3042N5788J1187l2632n7737o2464o4937p9942r2074p0238j5678K6603K1003j2606k7032p183
47862a38166K2722L9896M3697M0701L5100L3335L6581L0310L017k7523l1685j1614m08j3362k7865k2177p976o632
47844b049j3067n667J7590L4345K8684J1428M640J3833K2904J6457j72j0356j0905j3728k2790k8184k9032m0189
47826b6258o3198p4221o0424m4017m3276l5081N938N2753N9969M0275M9061R0869J02073M4975l5542p7259p5253
47809h8616n8677l6456o941J3027J3390J9795N3865Q6071P3265K6544n632j1098k1039m6154n6840l6898j2614j0853
47791a05861k3060k9921l2220l5925l0881q025J8699K9873K8590L1017L7780L5674K4210J9162K5494K4698J089k9539
47773a9146l3857k922L5349N1152M5013L3101J6569j0816l3464k5028P571K3556M684j8143j4427n73o931k1749p723
47754B2216L4903O1295M1598l950l7446m5715l9690l0853k1683r974O211K4937M1296N4205O5007O3911L1536l1722
47736B26082q9481j01140o3986j0018K8526L5400R089l0108m4824k1060N650o573m6231o5198m6997j9760m901L769
47718b41761O684r415l4106l2564r95J9157O224l174K7834P5973R4021P9060O2065N0008K4381j2467l4345l4236
47700D2344l0729k7312l228M2467P0894M9539j421l1538j9510Q800J8743O200p345p946l000m33J0295M0068O9336
47681B26224N9174J141o2449q1857n1625o830J9726K0536L724j9124l5935l9560l2434j9226N40K3522L3290J4463
47663E3300k5183n9023o8465n6262l3968p304K2367M9170O1781N3430L3436K3748L5404N0846M3287J4958k042R483
47645A98963K6047J7855q569k4122k1031j6010j4463j736K3687L4873J0728l0396m9884l5318j2199r921k8706m4476
47627A5322l7986j1431K0241M4833N7194N6136M4315K7362P707j5844l6546l7540j4457Q086K340k3400l4046j7213
47609E5073J788P89j0074j2743q800m428P607K6599K6261r960n0326m6682J89M0761M3008K5792J9091K2112J7565
47590A43622N093l81O826J6490J6250L272j3406j7498PK5610L1121M932l0329m0407j7406J2889K1828Q155p409j1864
47570A57395j2360j6827j7106n729O98k1156n9652p0117l1285K1162L6137P970k4307k8154o410K0438L9458M9000
47552C9155N0169M0299J4194k3396m8436l7770m438R091j3158l4608j7774K0271L4752J8722M477P586R747Q1l657
47533F5307J3889M1442N8845N6495L0418j7578o6541q6941p4455n2379l4036q355K7267M8134L4937L557j8023k6138
47515d155l5115m7460n0014l3062K98L6861N6004M0784j295l7295l9912j3821J4860K5730J4926q138k5674k3370n079
47496a34927J3549K8698M9673P1369O7156K4043l1348n9985n3562l5821k9951l8840n0239m8264k5120Q816L2399
47479b12354L7577L6717M0183L9863K4534j480k6353m5067n3771m3018j2425J6574J8010j1682n0737o8854m4695
47462c56978J6231P3448Q1644M2838R452J9736N1710O2332M8856L9119L7685K1992j1204l4053k9382j3087m305K99
47444E6333R033J4575P869l008n556n024j7616m4677o6611o4208l8961r532Q717J6838K4040L1061K9563J7887P088
47425c2189O898J4899K5174L7346M9373N2077M1337K6727J7505R540k439j0534o900k367j4149m0025o1112o6101
47407D5060n7096l6415o171K0551K6620J1944n001p879N277K6990M5262M7764L4641K2746K3863K6274J5206J989P320
47388B48945J9754K244n2787j02431j01631n3668J131L1518L6345L1569L0874L4570L0224Q714j9234l2176k4041p562
47370H2358R296L1113N2699N0593J3495l3193n2582l9260k0294j7466k5220k6629j6085O0J5552K7894L2953K4609
47352A09893L684j6645k0892p608R930K0690K5888K8129K0670k380l1601m9363m8310l3590j1836J0351K1382J2973
47334D1365n645j3723j799J7840K2412l592n3597r4055q7298l4278J7103K5253M286l964N760K049k2142l1252l122
47315b18399L3418L9345J6483o324j5895j7041q640J3374L6122L8574K0290L271M266J7968K7239J9688m320l1674
47297c2255m6161m3655l3889k4899j5112n512o146j9306k6868r395K5879M8280L5512l035l3841k9493L990L1900
47279a84006L1126K0062L1783O1607O7883L0739j7940l7085k3739O49K6091M9348N2337J8703l3357o1948m5979k149
47261a5875L7650N0521L3402Q010N234K5560K8176j5911p3980q8349n4612k2836j9354j1616L2246Q6798J01350O5365
47243A71779J3026k3547l8265l5968k1176m957k463j4587k2949j1478J2326K5184J6101l48l287O657Q503r474l3876
47224C1201m6455m7311m5181l6236j2319J5194K2381N931j0309p443O764J4846J2535O595L733R578K4678L3668J5009
47205c141k5936m9693k6940K1632N0578M7364M0066M7457M8631J6517l5769o2715l7764J7356N6750N4806K3942m500
47187A78641j1091k559K0j4222l4238m2377l9322m4783o8655r1057q3419m5865q530O550R991K3934M9250O6263O1115
47168i0354L8572J1506j0707k3103k4071j6373n371L738M730q733l4598n7572o0389m1147j5952l446o195n253K3210
47149c21508P7475J19200J07768M8855p590k4544j4738r245j0963j875J7985K6987J3466j2674l8187n5066n2584
47132a37238k4072J5676M0451M3798M1243L8983K3219j0782m0135l9761j4496O553J551k4436m5001l5290K842L8440
47114a18455M3027K1192k107j6789k8982l2071p210L9578O9295N5892K0414J816R342K1962K3493J8371J5542J2116
47096A46426k039k6248l9777k1539J4524K1778j9709o2347m4893K1214O4244N2014K6237K1858J0929l5779q2137
47079D4756p6021l1866n238n647M635L4127M6779K8290J1603K0464L4052K7515Q287r157k9583n4318o2816m3549
47061e7687j9554j6407k2674q060L1222O8004P7016N4482J3356k4877m1017l5454k8675l3678l6611j7065K0349M7416
47043b9914M0809J770m4961o6294m7303j0663M717o030l888L6942Q2529P8627K5646k0730k5479j6001l2114o2062
47025i4399n8243p800M3001M4726O216j7811N230M9002O4473L7603j389j6718O22L4136N7771N0732J3777k5297l7055
47006A48577k4097j3127j1721L040M2380P7327P3490L7482N565k340N674J7436K5317J5720k0801o4750p8037m8188
46988A88947m382J7873J0734j3967m6054p5399q3706n8022j0304K8959L7789J8413j1129l5483n2478o6783p2890
46971b27882n1331P010P4969J04036P2506P912m4476o3451n5027l0405R83K4049K4434N721j2182j5177o514M920
46953a79905J6870K9531L7839L5263K1781L161j5024k8994l4978l0302j5706N534K8775M5574M3627J7483j8010l2680
46935g0161q800L6348O3733N1686J6007j1930j9807k0136k8167m4976o0458o1855l9295M558M6407N6253K8404q838
46917g1027k3163j2179J342K661J030J1345K9878L4831R638l7143p6879q7174p1230m7227k2688Q458M1951N4003
46899b53573L0401n363j2086K1870O6736Q8384Q2523O7033N4548M4264L3705K5739K1919J5804j662k9426n2369n5576
46881A42871m2923l3759l7547m2020l5003k6380l1562m0043k3146K4355P1069Q5008O5673L2011k437k8030k9188J690
46863E0639M5537P0195O3112L9239J8368O263k385j3324k7502m0505m6453m4992m1476l8690l4947l1259k8781j6822
46845g3783J7649N9134O5335K0953k9471l1996O015K9798J5319o466p620l508j6516l4073l0305o806J5292K7766
46827A6717L3976K8151L421k5850l4636j8850K298J2691J1132J379j1030j5257o417K872j88n478L849J7234P321
46808B3335k3592l9030k0663M484O800k225N309K4749K6677O258o938P765L4409M5811L7747K4742J4790L961q869
46789A65520j6687j6394j6861k8418m6998n5493m3378k0525m872K314J8507N1963Q1724P8990M5312J3462N614O203
46771B19983j0621l7334l8142k26L9942L6383r205m7780m1454o406J0880j0286m6018o2666n5670m6487m9257n3081
46753b07445l9281p422K3249L5647L0997K2216J7819J6508J3599Q006M511J1216K9508M2704K4305k9602q1522q4865
46735a69852l8113J1045K4069J5514K2816M8284N7891L4198J679j0260o880j2919l2027m3727l7433k7580k8515l1673
46717b23483k1249j896P188K992L265J4277J4323j3294m4906l9840L644M3236M9637M1393M6583N4297L2244j9766
46699e1355o4966p6808o3904m3788j7615J7458N0491O6747O4362M9939K8668R683R029L1107N3751M8308J3980k0576
46681A04511l0376j7789k211K311n685k0653l3920l5348j9459Q347L5495N3512O2372O2321M6663R335m1272q3296
46663I4858r8897q6447n4765j3957K3443M1408L1643M464j8647k2943q607J2724K4934J9034N316M614J7740J5927
46645h158k1227o8226p7410l7200J7186N1933O7410P6092P4829N6353L0512J5095J4267J8536J7388L134k5328n1959
46627A53227n0019j2705L3193N6996N6300M6282L0330J093l6495o3201o5490m4601j0492J9857K5364P89k8700l1181
46609H0547p150J1741N970o672K438L3074N5111M4166Q624k2905l5993m1915n1311n1229k5917R197K2337J4126J7951
46590F2190M1034M2450m688o1626p1316l4639J821J8127L3863N4614N5810K9086K058l546J164K198O472J7493J7640
46571B10205l239k6080l0829k4487k0585j3090N056J6877K679k6078m0466l3846k4842k6517l3796l8286l6540k4764
46553a68628o42K9083N1536N5197L1556j6616n9985n5491M970P1757Q6408M5766l944k8917l7188m7607n7242n0251
46535a50238k2665J2884L9842N0050M8439M6406M6452L6875P802l2241o2661o8938m9894j6875P398L456j8864k3194
46517a45966P309M0373L3637o489l1349j2096K9919N5166M4850O223l6846n2748k3978K9181O2043N1208J5660j0904
46499E5193j4742n923k693j7105m3592n9011m6749k0698r224j5979j7117J78K0024K6437K6304L0818L3467K3264O694
46480c0454J087J3540L5461M9476L7658k976m7591o2703m5524k5906k1417j4099J3020M0230L6184K839k9352m0329
46462i0856l1463q244K1737L8689K5799l502j5520K264K7843L6590K9194K1223J9620J9279J5055Q637N374P769J2343
46443A41831J4132J3427J2784Q526m023j5542q536J5348L0864K2777O209j146q024k9870n7134o9783p0454p3375
46425g1989o9775l8825R203L6185K7940J1258J0928J9252J9321J0958J2j2957j9472l888K6645L8058J5127j1775q364
46406a2158J6172K9240K3914J7978J6896J0004k363p967o613p112j944K4477N9232O5296L4355N967J4274L8512L2133
46387C50293j2280n4730o1336m0927k2503j6283j0416M597K4146M0250N0047M9394K9853o947l8344l9276j3920M748
46369B36366o289l2754m4281l3312j8453j3888j3250p537l521j2871k9872l2886j0250K2950L9832L1377J4746R657
46351I5764J3236O316j8025m2990m7587k9007k096J5737J5787L483l260Q718K6826K2072j1194l8567k4686J9743
46333A0270M7857L0268j5976m9638m3519m442L1249K6448j8195n9758o1423l5569j8269j3663K347K7744K7686n087
46315a21670k4336Q236O5846R2529P4704M3785K2826N868j5924l9713o1197p2833n5984m713M4601M2579o680m1121
46297d3197j6743M0724P8419Q3411P9797P7273N6870P271n1024q6393q7895p0430n6050n4222n6495m8492k7303l942
46279a78421J1824K2169L3425M5354N3583N5090M5091J7508k1378m7504m1435j4428O54j3461l9700m7968k7797M196
46261a43198K4868K7559K4197K6648L0818K4564Q306k951m62P101R520J0167J5256J8981J3329M428K731K660r225
46242I5297k8120l3729k1998j3626k2556l3424k3188O759L3357L9643K8864J6169J4955K6401L5137K1454j4373m6293
46224H0729m9340k5725M553K9524M6741M6246J4821l7406p3237o4482k3292J3289K3623J5131K809r589k2686k9093
46206e7384j9897Q91J8913K6079K5664K0799R506n070j1909q533q879k1110k6885k692M0505O0911L5217j3493m5364
46187A7269m5088k3973J642J7692J1871j3222l2467k3498K109J0644j0491l8264m4887k6734K809L3391O0128P6608
46169b4461P7617O5508M6977K6825R703K902R859K2133K4306Q807j6399l6037m2409m0365l7337l2715k3442j7823
46151B3649l0744n8193o8152l1948L8016R5054J03526O7934J8166k0875m1334m6598m2970l4205j9791J30J9121K7907
46133a307K2699O604j3341k4915j3928J8749M6749M0172N99l7514m3387j8110J4830L6199M4778N2500O7055P5077
46115B73509N1329l495m6959m1505r464q710n1745q6422p0327k7139m348o488m216J2249K6532L1166L3216K9723
46097I6906J1010j1984j4747L144J5239P827m224p683j0029j7095j6403J57J5231P029j8983l6421l0930j2634K804
46078b1786J3969L0062N1548O1204M1503Q30k8811k7392r397k67k140K45R165J0993r0j6179l1462m3885m3750k3696
46058b9336N73M024j1372j9670j3056j1995k6004l4824k2575k554R071J7711K7683K0537j6385n7533o4189l2756N845
46039b56805K7433L3943L7737M6230N8767O4519M9415J6784q789j1251n316j4664l9798o1960o6159m6521n693L3933
46021a48195L8304L814k7277j9816M502J864k6478m0689k6428j0490j2704k0420j5691M422L8121P8122R8690P6563
46003c786K8626l353p267m868k530J6050M0706L1474j3750l8462p517L5533L1942p448k7993j5253j756m161m695O878
45983D8370J7263K0800K9753M5005M7035K6338r69j7175k3140k6744k8452k6045k0980j4374o215j19m1l929r014
45964E7367j7659k7045k2467K084K4234J5408j9070m2414l0887J243K4198K5189J3789N308L477k378j9411l1525
45946d0559j4170K4654M1899J5712j9223j8489J1970L5892M6462O2303P6219N9602J8480n587J22K325j6801k9781
45928B51030j7787q523k9773o4837q7392j03528j20696j09839m6817L2881P1667O8025O7555Q4335Q3361M4620l846
45911A10436l0367l7673l9707l3740j6567l257p263j7225j1283J5854N2163Q3663R9809R3818O8897L8727J5024o91
45893C80618j0933j5589j3920o681L629P923q686m8197q5507r0117o2676l3181k1042j5162J104K3491L5256K9450
45875F9780J4168M810J4874M2275O1860M7553Q456j4260L179L5804M1220J0118k9041m7091m0857k7026k2678l1824
45857A41320m3567m3375k9014j2453m935n781o401J721K1681M2887L9991l306o6412j04337r3311m8766L001M7376
45839a63681O9646N2140L765l2344k5905M792K8342M8100Q0719J07338R2971M8428K3677L3665L8734J5254j958K0974
45821D44657N4114M3440r959n6731p3884q4478j01042r7706n7934j1924L586k158M444K2345J6417k4207o4821p3130
45803f8971n9008m8623m2982k6574m65K1505M0912O9037R4366Q6178L8400j4868l8738l2349j4791J322P969m587
45785G733l1237m4719k6707M110J4599j401k2053k7196r960K8499P1420Q3843M6849q969l2309j3306R524M684j9193
45766C4211m0119n2956o1499o4850o4338o4721n9829l7544o700N526n930j1389J1061M4899O3965O7167O3636M7637
45748a31773J5662j0709r102R196J7237J3222J4297J9664J2500n675j4539q709j962L475K0521M4772M9896K6783m30
45729F4326j1301j5508k4746k3650M796M1276M7192J5243k2083l5912l1483k8890l1062k4663n073J4264J9696J4080
45711c3498Q438L382r006k5906l1440j9636n461k494m005j156m790k4606l7537j0654M2687O4917K7334k7382l7918
45692a28731P64M0377M3697J8556q139k4016l2384l6689l4252k1293r65J3711J0679l883q347O079J9363P301k4994
45673a63166m9025m7628k7758j155K9082N8465P4069O6789M2221J3658q347j6841j0130J700L011n966m419K0053
45655b5387M6184M0631L520k6985k3203m304q530l8710n7020l5764O662L2030L1024K9179M9025Q1808R8246P6764
45637B75170K0872m0900p2299n9808k9652k2705m7508o9975n6563j5095J8515K4834J7595J8921L0807L4925J6365
45620D3499j4344k5403L075N0771P4137N5405K0044j844j2878l0593m9459m7929k7784j7399l0083m2381k5604J5876
45602f2894M9435M8933J8115j2936j1318K8221P1765P5408L1588k2545m6715l7071j9715j6477k5190k6230l044L7100
45584G6430O1670M3802l697m1050n1321n5682o9891p2838m2096N09J2745p394j9486l26K6781L1336J5260k764j8978
45565a16990l8447n1164l8087J350M3450O2664N1629K2996L37K517K5836M2897K8681j1568m6543n0329k5083M897
45547i0957J6068M753j1197j0837P794K8542M0577M9597N9541N8237L6746J1568N506J1787K851k3152l2896p358
45529A57170K3173J5015l2048p5612q0835m9378k921L9210O2534N7484K8700l911k0977j7579j497J4542J7993L081
45511A34144k3611m9649o9299q2224q1294n5603j1208K3922K6965O552p321L739L0785N0683M6821J9583j4442l2734
45493h4191k3331N789L5302N1036M8852K7725j1297n5228p7045n5786k013M4461N0769K3716q11m14J2922J7566J2643
45474B0665J0463J0707L532n217L710L0097M5693L0272q98j9140j7658j0106p319j2460k8182m8995n4307l0048O769
45455g2422K4989J8703J0059J4816K7250M0504N7485P4192P4391N2747K5272M985j5640m4189o7296o8292n3463m1071
45437F3020l3276j9705k980K112m865o526L524P480j0116l6872m7462l5796j7649m471R950L2486N2949N4838L9490
45418D6131K6547K7399K9597J7113j867k275K2609M7696M4560J3919j8130l0366k5292k1028k9736m2980l8711q850
45400E6336K2379K1358j0632l4147k2898R48K596j0774j507L7796O8983O1200K9658P132J722K462N815J0888K666
45381B51981k9967o4654o3783k5229J1272J5893K745P78J3535K5844L2198L4864K5260n716m0475m3225k865M9616
45363A88072P4045N8510J9382k0937m7064n3446m5305l1993j5931L105J3521J113k0463j3030L3332P1895N2352j0554
45345B56604n4640n1419l2688l1426l5394j9243Q937K2995K1799K5559L7660L9683K4043N856l014j0429k4825l5356
45327A44702k5253J513J9029O920k5923m9321m5518l1182l6975o4444p7325m5530J3672N4079N3548L1112J4499J1533
45309e0864J7744L1815N0742O2342N6665L9219K2456R092o383k3633l4744l5784l0947k4714j8206j4677j9497k9737
45291H89l1350j4750J1031K9301L8501N1180O7300O4833L0585j0624j9178P641K9327J5504j4287k0446J32Q632k6301
45272B17920r0089j36408j30281p5733q150L7979N6080O1493O2288M9752K2557J320K400J1468N794p108o50K4344
45254A04976L4956J3943j5398k3645j1030M701J4579J5676J657k2757l1978p450L1732M6400K2099j9869n1548o1775
45236D5269n3281l3478j0486J1865L4920N4828N8512M0083J2475j0448l2981o1368p9684o7252l4223j0536M55K4212
45218a11118O3460Q0565N2564J3257R330L4665M4050K1269n969j9540l8238p5212j01232q0226k4623J5523J5153p11
45200a07033J396J9232K4583K778l2282n6529n6728l5304m916K0300L4457M1999M7338M6511L6021K4620K3742K7029
45182E7214J4982j5088l9256l8233k5738k9372n0723o3740n1661k5986l504J6900M2111O2375N8855L1052K174o524
45164f4162J564N516p740k8737l4740j2920K4756N0953M9789L2929K5436L6622N0211M4553J7087j5887m0077n5933
45146G9220o7848o7464l7900K1607Q2043J05149P9495L0496p468k2373k3869k0111p938J3976L5049M3139L8529L0006
45128C03738K0296K829k7133o3311r1396r9122q4739n7536k8038K609L6942O3019N5982J1838l0853k7190J4951L7539
45110D0425M806n0130p0327m7021j8233o616M975L1259N2170M2176R481j7796l1476m4189n5886m6565r090L1304
45092a80733M3740K6571J796j7801l8597o2267p0118m4796K89K9877K7166J1296Q343J8069K2525J8703K3490M5025
45074a37422O6446O6393M5141K1479J1034J6402L3097N3941O7586O2116L5575N81k5012l2681k7623j9783j4694j5545
45056B07031k7203m7573n8282m1467j0155j442k6016m4426j6597M0272P2802O0840L1070N301k2291m7793m2862l015
45038B8194K5665L474m3216n5943k2043J8822L7069M3748N6893P0519O7220M1225K589k7512k7953j971J4087j1313
45020B19554o0544q4649o4815k9544q703p42N145L931j0178k5411k8862k6624l0073l3936k5041n076J0511J2019L380
45001a79658n039l592J1324L1466M0712L0785R808p285j1774l719J1306K5866L5835M0716L5532J2233k0213l0994
44983B3309m377K8608K4483j1197l0928j6259k426j8497m1413l4594j661K7942M2410M4728K6696j7201o0532o5628
44965h6537l2286K642J3171N552p010k2226l5727l5113j8363j650J666j246N480K3653L6940K8386Q90k1413j7699
44946a60890M486J9827K0566K2637L1780K8805M340j6257p854J3512J4390m267j1209N593K5129K7753J5119m687
44928B8773k5133l2863j7118R127K0373J2924N770P538Q087M655Q949K3144L4115L7204M1173M4582L3330Q072j2288
44909B40414k1587l3907n2058n7099l9734j4538P351K9742M4476K8162j5841m6441l9447k0752j8530j6378J0198
44892a5969M0438L5713J560k1975k0582j3686j0029K73J0351k520l3144m5095k3885R63K390o369k0J8008K5793J7701
44872d0084Q255J0564K4907M0409L9484J3289j8522k0513J1853L5426J1321l7717m9995n375M3718L4038l3500r7491
44854b9933j05269n9798j21M3273O3313O2200M2584J2269j6803l8453n3256n8717m8185k1911R401L3968M4165L4911
44836h6362J1067l874J3838N4199P6696N8435K1963K003K323L328l813j3703k6490m5900o1803n7550l4576j1273J916
44817i9576J0408K0959L5802N7388Q0514Q3209M7090j2316n5405o0483l8702r108J7813L0090J5542j4947k6829o40
44799H0809M1670O1250M3050L428l1393m5231m0009l2683l6980m4319l3356k481K0723J1258k1695m3349k8272J6309
44781h1271N5317N4076J1927l2715m2174k1234l582k092J906J7985K6149J0438j3405k3419k3946l0671l8815l0260
44763a65786m032K0897K8843J8990O15j0121K321L4060N8794N7379M1164L2163L1993K7561J5943K549j6306m5965
44745A31062p3939q0565o6218m6768k5932L622L2809L7437J3563j1744j4593k18J3959K2478K7508K6618J9175J4200
44727B2454J9381K9344L3529K8076J3514r038l1190l7896k6235j4501j9420l0646k3035P616L6151L9533K5101J8592
44709H1330K8990L6020J6683k2219m8228m1785k0390j5290l0697l9946k1486J5507M5144N1254L2886l693m5515p2188
44691e3623o9045m1762j0031J2286K3227K2225O508j8562l6585l6324k5088j7183j2254L667L3568N7382N4046L0340
44673g7208J5179K3283L5591K3929j1047l7371k7893R225M0012L9854J4583j0821j8339j0055J9J922k808n900k735
44654e80J334l782j8527k7874j8566j409k569k6505m3457k8296J258P457j3069k3199N319O0336J10360J31350J07300
44635B16881L6637m4873p8304m6191r03O49k9752l8800j4716K841p660j9111p232R957P602l065L751K4428L1612
44616D3751J2765j9625m7638n8119m2224n589K6027L0691J7130J1168J9455K5534J9393Q886q67j6290l3972l2060r64
44597d2548L2203L3266R310K283L1119O4346O3227L2036M838m088r232j8070j7298k098Q505N05j3301j8131k3144
44578A33728m0210n4828m6056k2943j1239j2155o035Q015J1181L849Q355K5723K6887J454j9617j0848Q377N947j6593
44559g008l5944m4282m7125m2125k8395k2108l3749m2095k1115J6473L3708K1794O613N055O937M247Q342K7389M9017
44540a44371N6648M8345L3049K0825J9136K5370K3294R91k9814m7432m7692l9811k4035R37J6160J702k4074k1775
44522a32547Q636K5418J3513J0412M1245P1326N8755J9648j254M11n043k2896l0479k4884k5950k9955p829L8977
44504G504O4060L8059r388l3735l2793l2298l7011k9678q299P192O046N69M091J2001J1387j362j8489l0264l2515
44485a14923k7705k0444j2302l619J368L40O025L9463R8486J43266J31374O6521k435l3049k6964j3455j0456j2547
44467B08944q862L78O012J565r806j8811k1196k4732m0372o4590p6722o0077k2745Q668J5559L126q878n742J1017
44448a07264K5797K1429l858l0320l4957j9444j0455k3647l6466j3611M1402Q0253O5905J9958l324J6516M5709M3235
44430G6858Q307k8716m6838m8426l9854j8670J4192M2697M7764K8768N865o26R915K0863J9103R469N871J1337J4370
44411A32249O807l265l176N617R956L779n855j2056j7286k5257l2305l3337l0703k9699k7704j5490R232L4104M1311
44392F922K4484m526k5949k8725j6515J98J3105J7655J3138N039N18l069j6507l8161m5863k3377J3162L3280L1888
44373d3303L0330L9602M7298M5307M4508N0891N0214L0787P98l1097o8582j02367r9288m7135J0484K1106p013k0801
44355d8261j14K3670K7394K7814L9139M1506J8391n934J494L1263M3277K1107j0675k1274p556P749J373k6435m9615
44336A14313m3613j5575L676j965j9569l2276l6893l1443j0927J3203J6113j551m252K7803O3988O5063L5954P182
44318A49231j3015l1497l5411r957J9598J2332k1593k5777K1600P4576Q1759M3338j1780o6982j08673j08124n0169
44301h0544L2759Q4526P9175L5338j1521l3701k0266J6500M6838N0643L6043K2752J6449J0200O96r917j9132j9367
44283B37471L32L3871N1774L4180J479q915P927J9698K957k5898l3507j0819J7768K2163j999k9697l4266j7215m767
44264B62537j4880l7410m9750m1054j6592Q399J3153j3218m9797n6032k2425R541P92k9754l4201p882P466p561k1034
44245i9702m392K0736J7006j2697l4664l5882l4854m4065m8940l0949N704L9041N2486M8181M2207M7571N8341N4048
44227C9176K6290m323r918P429J4791j0509n1511p2830o2202l8159k0649r523M121J8804K5464K2724J7687J3669Q558
44208h0911N619J3414K9946L7855K3620o607l8021o3961p9808p0898k7798K7435N2538L0952r004k9666k3775p429
44190b16499J0567L1816M8381M3226J4435j7388l1668k5907p393J8377M2146M7167K6387j923j0386N873K5092K6519
44172B8822J0673j0385k9912m5414n0186l8426j6683K94O564J0183J8877K7185K3038M111j7529k7529k3260j4112
44154a43689q630m325O166J9509J9749j795k8795l2237k985L5259M9792L0742m492l2015l9167k6396l404J4037J3144
44135a39532k333j1868N87K5694L6158J7005j7642m1733m5065l6916k6649j3059M223J4931J0208j178j223J2240
44117b16152K0690J0889l604J734K7969M7958M2014K6754L3085N7890N7934L929p2592j06111o8746K692N2597O0932
44099b0138M4958K6024J1307j433j7783m2556p0489q4077p0051l5090P74J9883J2143k0464n3077m8956k230M2792
44081c08463L9789l22k5453j1839J4540K6417K9292L6157M0241L2064K0299J6164J4810Q873M085O136Q692R302J8993
44062b0223L9886N2721M5575L5177L7268L5948J0433k4852l9583l4841l5532m1654k5258K0609O3813P2635M6221j018
44044B37325n6676j01337j10321q1618m2715j5540O474L3251N2837N2363M6053N5220O9482N6373J0248l3848m4065
44027A33506k9413j7992j1095J6644O9006J03637P5519l533p1788q6384o4362m6986m5662m2433k8004j3299p763q569
44009g8971j1320j3420p398J1594L1555L3328J4756r288k7232l3637j8262K1956O1000O2810K8715l16K781K1550
43991I0201L0167K8770K7595K1879N832q186q668p611j9639l1479j9259J1046K7169J3446j2256k6074k3542j4405
43973H4986q239j0194j9724k9188l0242k2102q446R154K6419L0584J1595k2200m9326n5889m4475k5728q581M165
43955a67431J6698L2761M3964L5707J2135J446K1521N1268N4895K7503m402k3270l6350m8926m8047k5848k27N350
43937e1253p177j5842r962q02j204q669j4267j7597k1915j9210M823M5433P1257N5925J2727j7147j1819R038J2234
43918A4573j1439m2275n2531k7572K1207N9183N8213L0512J7464L5923N3645L2343k1867o9821q7019p8770n8899
43901a27130l6804j9440m559K2025O1288Q1793N3871k46k1986J2048O1662P6023N0713J9438R458K0540L3750K7986
43883C20430j336l1926l6278k0184k1166n6915r4760r1620m9874j0342K809N525K1050M5456N6133M2423J6169m260
43865I1334j1337r191m471k695j0845l3692o2867p7336o3076k8295P311L1730M1117L1655P159j2073q589O023N757
43846a02381q041m395K9816O4052O0925K1289k3289m8594n1625l8388j7052J875J3305K2481L3072L7713L0386J9386
43828D0535J5607J5961J1315L208j520n863j6799k8883k9522j8649q772o520p354q315j3659k6315m2057n1559m3099
43809b22260j1052K9079M5105K3941n535m984K4851N1361O0190O6829P4931N9242R411l7703l8488k32K9680K4298J05
43790A78769j7357k2768k0504r549P771J8703J6705J4404K4963L7521K7353j0670n2632p2057o5437m8630l7980m0204
43772g1599n2566o5605o9332o1187m4974k2062P354L2877L8732K8454K8943N4242P9136P1042L7672J4213Q087p570
43754E857l9373n1772k0695K3158L5044J7103M891R343R905k229j2835j7521k8875m3356l5764r56K8824K6857P215
43735h5179l468p032k1059m0798m2347j8432J2307K9820K7304L860l6386p3652p8411l8413K6001P8534R6338Q3307
43717h7706N9047L6607J2373j9090m5457m6258k3641m791m123k448J9675M6141M6840K1872l871k1310l9462n0520
43699a06122l1400J1146L3953J4643j5871k2118j6586l0455n2437l9096J6780O5999O1165R452m3122n9987l6233Q835
43681b31454M6016N3181L1827M564q564n734O278K5653N0860O9911O5245L0379k0715o0323o6020m0678j3003r312
43663g1889k4489l1351j8657m052l802p223M936K9145M3799L9821K9667K6069K5888J8845L253j0769j0209P745K8071
43644G4798K8262L561k2444k1666O511L5915M3381K7894K408k1082l6746m5324n1781n5579m4821j0656L2863N6149
43626A643M5081J5080p598q435J1117L5534L7081m095o7523r5515n0012L8525R7648Q8383L8340j402j3820j9744
43608A40288l7170n5290n1238k0826J5565L4076K7059L263k2021l3639k3605q03J3104Q787M233J8845L6721J9419
43590G6768l8523r0409r0036m6352n453R180J3176K3521L2543K6119O275j5715l4044m4543l7668r039K8813N6793
43572a38594O8672P1182O7921N4607L1529R698k053r169k0934l0630j9588J2640L4142J2740m0138p5254o1092j9064
43554e3385O354m34j8035k2110r935N286Q463q143l5499m8633l1195K190K3589K9008L6810M8496L8898k118m2909
43535g3302m5567j2109K5274M6673N4331N0420L2440R734J02N330R042K928l161k503m517j7580l3997m2100m0926
43516c9488l3801k0308n261k525j5635k4994j0657J8372L3726K2507k900k5867l8024l1596j518L6278M7529J6740
43498g7422k7876m2122j4847K3825M1789L8555L5183M1766M5873L2475O613j0482p506J327o901l3874n6486n6102
43480f6212m1152l1234k6209p362K8887N5156M3374K745k7612k3610mJ5442J8444K6483M7059O3839N7788L0052l450
43461A62424l1342n1200o0738n6925m3484k8462j2503J0636L8137N3093M4122K4053J8813L7672O1261O0999K7877
43444B54433j7689m2647l0338L848K7369K3786Q311O646K2732L5429K6861N271n846K077R778r386n6973j01477
43426A62185j07108p0274k3565l403j8221m7227o1500m3735K085N2153Q0006P8894O1760L6870j338m7467p0804m9791
43408g0480r586M589j1297j7911M198K5511J8367L026J3471M0905M7156K2034q476k6352l7622m1993k2924J9115
43390d8269N3361N6428M0031K4169O078k1790m3855m0550k2297j4396j6432r156J813j3055n4540p8326m9987J0678
43372b20095O0873Q5603R2246P7861L8324j386n565K1334L4889Q559l6788o8491p7825o8282l8700N35J8587j689
43354h0010l4716m0632j2461K4269M5828M2936J3379l0997n9223n1070k6083j6080j6022N462N0064Q1436P8144N9703
43336C3927M8613L9272K0295j039j4309k1301k0364j747K4484K4255j5141o1931q4976r2547r7587p7347j1684O0949
43318b48178P7644L4681r951j6633j174J2208K7028M7289N4580L6564J0115n045j2149j8346j4079O753K6194K5304
43300C2805J3053J0222J6211J3306l487j9894k2024r385P002J0095j0672m1699m9504j4951M3614Q9940J02744Q1926
43282B49302L8355p830l2682l0825k4129l2801m7248m4623k3122j138R549J0905O621K471J0984L4526N1297M2332
43264B11944K5902L5463O4430O5735J4333n8354j03919j05771p6817l5848m804n573l4327n4227l7290j986J3038R98
43246h7073j3080j6042j9280k6593j9891J0115M0365M0404J1160j5707j4137J0174L0313K9887K0572K4416M0354
43229D5957M1416J3839j5776j2848J3830K0608r713m4521n0242l6352l0250l1423j9623M121J5679M747j2626k0714
43211a23891k1410k1233k0380j8710j5408r86L0498N9188N4036J7382j0484m799J0275P39k7507m3458l7637k3793
43193a97578n862K2532M8712M6299J6765m548L666K0320J7172l79r149p655j2659k2695j2632K8766P5082Q8558O1436
43174A56151J9795r801k5287l8408n1317n5922n2049m9493m6844k4492K6969Q1318R7881O5861J2412l0863n2576
43157B3335n4370m1388k6179k1662j9700M275N0701P8451N0558j3197n4969m8192k3358j8676k7847j4018L5381Q7522
43139c3333R9832O4828J3798j6981j5779M930K5549L0539J3248j6446l1822j2443K7078M3789J1820m6161q2800p6672
43121B974m8805l1723l4414m0972l4062j2045J3424K9523L1164K3237J7727K5574M5142N8336M5059N971l3827m8640
43103A3643l5713j0674J3428L3127M5599M5559L2038R544j7128m1106m9532l4035n439J3990J4842O822J433J164N680
43084D3242J3171J3465l649k9088m0014k9572j3377j112J7064M5991O9097P0971N7113L6451N428l2174n2787m6372
43066A23848m1630o5368r2650p6837k1975J7614J3986M20J6004N1800P4009P2141N7881L6433P513j6729k1574j3415
43048A21471j2000k1620k9755l2869m1804n6922n8482l4221k909N260j4110l6306l8891k1444P279M4217Q3411J05979
43030c3716R5823O0463K1285j2163m0774n4018l6185L35J6102n461l1867k5193P556L1095L1670K1123L504k7260
43012B2319n7935n8627k3416J7748L7265L7653L2345K2376O641l678J256J2940J5926Q592J208k39J425J804k90k750
42992G2563k901l679j3236k9733l3158q812K4863L3527J2856o430l841P154J0466J3536K3129K0755j0241m9820o3085
42973f087m7907l2150k7333j4180K0926N8814O7514L5653k1257p6346j06039r8313n6504L535N9975R0301Q0484L9913
42955b9001K925J372L1450N5553M1529l720m2096m3057j2227J8064K4196J2357K713J406q43p568j0185m223L297O310
42935D8252N316k115j8749l0756j5329K3723M9919M0054J6387J2531K5842K9108J4690l043k0213m5747p2718p9170
42917b2018o3418n1246n7663o3634m3635o24L8601N2300L8881J1165j6428l7152m9664m7442k2152J4201K7488K521
42899b89919k6916j7050K4236M7718L3955J7072K8556N3631O2365N3643M3378L2026J1427j0759j9485j7169j9135
42882G574k9519l7709l3131j2074K1037M9061N2404L6243L0871M8820N9804L0678k5366o5681p1733n7195l2754K414
42864b6256L5232L9598J2108j8893l0282k9542l4269m5482n1650m4537k2734P785L0968L1472J2719o951j6558j7585
42846a74857j0992N69J062k1112m2603k5165K5193N4039L0984p037r953J8290L9207M1553M3905N0370M5327K7992
42828H6772J4724O436j1573l4943m1127l2642m3573q6146j20432j00440l1723L7263O7296N4245J5661k7718o0296
42811c08216p5323p2375n1339j6979J2655K0277J5599K6882N7869P5753N7017K3503J1940K5552M0631M6635N0698
42794e9221N0428L3701O116r171m469K706o43m810J965J3384J7411J4847J3750J4707J1433j94j9424m0157n0479
42775h120m2375k5543k0730l4126m8574m5440k4885O00K0821K8997K1260O102M330K6316N4400N8951K9519j6430
42757a4927n0663n4338k9521M53R286m164j2997L458L2074M5451L8564K7163J6937j042k3613l0826j7312m733p381
42738g8131n987K1163N5381N5149J3682k9307l8537k0374J166J9908L8956M6411K8205k875j9252j8673k4886m4123
42720b124m9724k3592J1703K2559Q615m653m658J050Q166K0376L2184L1219K1890K6027N1673P5687O5892J3049o0376
42701B44963j13938j14806o5659q739J2837k82j1511O37J9880K3449J2345m43j1393k0601j9692k387K1750L7621
42683D031M2302M3313M6166M9680M5577K1354k2130n5223m5347o213O545l3655q3890q6761m2723L335K7636M0033
42665d5970M1790J7517k3899m0643r499M0205O2990M9150K3176N447n258j7370l0784l7350l1431j8589j1868j6090
42647d8476k0944j7136j1706j3715j1657J3581N2900O9084M1666n662l3410k9198j1263M67M499J2841L3407N6230
42629H1508N8050K7355j7557m6501n1107m5632l6489j3866K0336M1595L5946K3903K9274L9289K3243j5676l8021
42612A15650k3529k261j3315m9341o5567m0662n898m499l6797o1856m7965m397L7585N7067M9668K0112j4551k6040
42594a16596k73M1292O3516N9698N4714O6124Q1298P8648N4996K2581r152l8798o6100q6625r1320p2276l3927N519
42576A3319L2020M8833O0687N4665J6854l7019p0607o6763l8040j015L3527M6854K3134j8329l4903j6615J887j657
42558D6832n760P734J4980p243l2905k2495J5547M1590M4640M0749K6402j5145o4430p3552l1448K0547M6773N0935
42540A03751M3199J7873j7783l2556j4742N208J042r050L017K5154K2113j2590n0751o5042m7321l935M2883O0616
42522G1086L9284J0363Q908K6716L0178J5008Q724J9404J8316j5794o4758r8392j09310j02715p3498j9220L5921
42505a99779N7370M0928J6885R737J1566M090q375m995J8261M0110M3085L5581L4142L6489K9472J7118J7575K9179
42487B28439K2908j8099o8810q9859p4947n3127m9247n7982n4901k1353L7382Q7759Q9867L9456j9104l9936k8455
42470g0009k4601m0119m4352j6626K0399L4923K6815J4304J570j6751l3581l5926k4793q991J1807L7965N2803L7635
42452g7528M13l0194l6256j9700J1828M6354O2427M9556L0786L5966N3488M2356j964l1838j5172J5557J0281k7672
42434A18688n0685l2696O567L7155M8742M3764K5525K74k2977l8641m3152l2195r662Q777J4370J7676K5863K0933
42416A38326j4254n7678o8019m1469j5493j1455r393P358J9296Q228k383J9619N8422O5140K5781k0568l7208l2781
42398C1469l4720m3790l7862j0630J5959J9768L923j1771j4942p235P679L0104N5362O8833N8308K7648q294l8493
42380A11316n8965o6136n7113l5021n708K7833N8456O8233M5315O792j3079j694K0172K9293K5006J6255K547j8473
42362A55029l7908m4404l7830k4809j0620k710p575j5016m043K1807K6537r096n0515n1613k0469p011l0124n4933
42344b05303m7256j4770J8468M6094O8431P3031N0853J6847p046j8600k6982k9481j8315m559j2031m3509o8152m9657
42326b71937J7126R6738J37164J10994M2074j3580k2628n756o340l6518o9206p7777o3420m0644j5569J0236K7551
42309a81492K6797J4065P868J7876L3324L4915J5288j3525l0975k4950O40L1691N3607N6146L6139K514k3909k4458
42291C1561L39L1084M7090L9574J0570k9451n9207n5518j8091K0211K3017q474l6266l0848m276P998j1731m9169
42273i1587p6562p4581m2005K434K9423K4547O926R652L7122N5312L4066j1869l8177k2216J5473M0056L8010J9760
42255d4216R77p497P78K2896M0475L2057k36k4460j0896L1207O0654N1551K2679J0774K2760K9746Q839k4965l8490
42236A84633k2971k861k345j6307k2945j7832k0928m5564p2205o6149j8841M1307Q0843R0245P6171M2037p639n3758
42218A44891p3856o6129m6720k4292M980L5556M7119L2225J4061K0616M7273N9049L0606k3645o2250n8242k6187l392
42200E1663m122n162J3677L1205J1411l9291p2813o1407k8401o192O031K3037L7876L2320P661j8756l6629m2938
42182a00830l3169j3661q386k8629m7842l2715J1161N1298P4670R0481R5742P5867L9559J6008J1079K22k6681m7653
42164A26521m8389m5729n2627n0674k2974J0092J7277K968j095J7907M0958M6894L4235J4396l92k338O200J2350O941
42145A12521l426o427k051j615j1215k3500k5224j0279J1648K0141N521j5921k0219q437k991q509k35L5923P4027
42126A19732P9280N2423K0531l950k8996n4833o8496o8263o8233p0780n5620r927M4124O8138N0563J9448R886K5538
42108F0565L9004K9740J1608J2601L3179M3103K3743n263j3944j465R042M268j0215k8770n2547p6852q9278q4520
42090i6001o8936m8832k6247o950J395K439R654K6755M0624L8951K4574P004r470k1793k2655j0078L618M008o729
42071a58669j3590j0057m009KJ1163L4581N1761L5687j3294o1621p8672o5385l8361k798L9254O6901N6895K2336M842
42052a23034J8564K9248N426l3590m3965j4443K8351N9990P6224P6571N7380K3792j1768m4577p4021q8012p3454
42035a31318m2502k3580k1451j1759J5103L1215J0880k6742l8235r146L3984N8593N4303L0147L465o437J0304M2347
42017b0829O5079O3591M2324J3637j3218l1803l8793l7978l4377k1669J1672N6201P5017L9744l0795q2533p7594
42000b2324k3877M3276R1825J03179P3260J9367k5430m1835m3526n3682o9746o9799n0233l3777l4465l5603j5843
41983a89233J7227L6181L0312J7901K1211L8859M7568K9453n375k7345k0351P68J2256J1776J2459J3792M73k8320
41965A9612n1218n3827m5681l8349k5811o18K5971L4996K0578r400l9860m8891k1747K3308M4485K7319M252N985
41947a28896J9367J8325R397J1608J3667n746k9352k0391J4425K8440N095k0444j8295M90J8349L9140O1577O2587
41929G9343L2988M69p528J248O945Q425P902o926l7235n4877m1141k1477k7436m3841l2672M566L0867L3911L8588
41910b7881N6020O1299L5370l600k8258l6976m3207m8435m3785k7985j0909n646k1874n5798q2811p5327l5026P083
41892c87746L0129M5554O8299Q4769P0729L0499n525k0027k3623k8476k8939j8280p003q879j8959k1878j5854j0551
41874b65761l614J9126N4878P7098P1221N9328O8563Q7579Q0873M2317O078n84J0699J5410J0897R054J2499J6449
41856C72110K0395J9986Q33l8498o8411n7986j7575J2173J1004n839k2021m0272o0264o4303m2728j4846n658j3862
41838a5762k0073j7381j6119k3304l2715l3340j7038J7001N3876O6370M2712O327r789m760m500j5488j2324J7980
41820a8327M7443M5086K2491J1998J2851m677m2839o2332l7189Q164L6788M7078N5661N4217K1049l1105n7003l6942
41802G2412l374M538r704j4760q23Q220r515m2596n8155m0974j3097p329k2815k2284J6649O4627P7153N6102M2240
41783I6515M9105M4198Q172k7044k6961j0065j7061m4302n1125k7849j3006l3591o3406n9636j8221K6982M7182M3453
41765g6660L4528L2862L2981K0101p949l0493k4771M593K9504L2808K4354J8734J3410k45j6210j8977m796J4468
41747G8242K7694L4754L8522L4311J3976j9728m8656n5829m5865l9830m6477n0102l5345j1230M751J4796L0751M4171
41729c1094L6516J9010K6473N9125O6551J6422m8814o0314j2229L5989M0676J7123k700j5546l1483m3938m1598l2180
41711b011k8709k3292l00K8984L0620q531o0354q6254p5288m3891r696K1669M8630O6236P0952O5881N5008L5811O490
41692I1955j8338j1874L2395P8959P9918L0132k3863l8083j7676L118R651J2623J6471J2226L692J2376M4135P0658
41674C88475N9425J0966m4447p6918p5265m7533j4958K595M154L674N487j603k0033l3671l5585m4175p0396q7904
41656g7712o5576j8703N560p828k3883q878K8279N5623N6188L5160P370j0603r528K082P450M526M857Q533J814j4170
41636a9439j6877J712J4010q983n6521q9921q6267n5115k0182J050O280Q876K3339M2823M2576J4818j4549j7608J419
41617b28559K0131L2144M5995N9471N9527M6114L5062L4839L6678L0558J7911N454l614r734j4968k1142k5565k1920
41599I8382r807J796N062J099n394r746m586J1276J9070k318l7369m0387K391M5503M3674J1231r824j5267k9554
41580G5232m9254m5883j9887k246N12J4623M3321N0895K0799j3197j7601l566M774J0754K2672K1940q170m1862l6325
41561B7531J1937O5679R2632Q6909N5976J4377j6936l0933m7618q2446j10524r1836k8779L0985N0415L5488J0666
41544G3523r344j6689o524J0748J3569j773j3346o667J614j1223l8771n3851m4633k4222n855J3951M0784O1547N1067
41525C3905L276m9537n9170j0347N7383Q6663O1452J9410L563J4093J7221o895m0089n1091l3032q410m83p680r292
41506B0940P473L1730M1022K4668p980l8531n2636m3819j4178K2390M2930L2125j42k3867j6931J4018M3932N5715
41488A38859M9228K8988j937l1859l9819j8342J1230K0545P141q851j7246k7546m2727m4146j7285J9516L0181L606
41470E9536l1745l9118j2121K1597L1528J4855n060q030O04n06k2130n3483p3890o8207l4857J1198M5387N4477N0283
41451e9682N2162N8446M9708J9382j6832m4439o2687o7778m7336o103K3514J7425q058k0801j6466j3057j2193L091
41433a51704L2159M9032M0244K5463K5622L0119J5305j5660l2147j3732K6269N6183N4505K2406k0245m5732l5217
41416F2870L646L7346L5302J525k9897l4319k2119j7411k2661k1181r098k573r420j5262r141m567j8602m3059n5049
41397a73670m7659l1713j3540Q360K7155L0768K5425L5690O9599R7805Q2993K6818k4558k6395J6682N4370M5502L704
41379B07336k2294j1275P074j144k6499l5949k3238j0820r843j0469j1528k4806m0773k4936L0938Q1378P7933K8931
41361A80016j8752m2168n3892n9063l9748Q212N2873N9883L2603K005j2945j8983k8263l9554m1542k7226l165J3797
41343c5912J1610l136j1493m906N376O123m27o253j4772l1669m3211k5790J6689M4363K4903k5323n8326m6818o600
41324b05572K8164L7159K2834J554j0538j1598j4325k4250k2661J2872P0601J05980Q8979L6111j3328l9582m9751
41307A2649n4415n2658l6939k608M4765Q5580R6950P5788M4152K2777P475j7028m8486o8119o6290n1746l5878k1831
41289f5862j0496m562l436l397m583r662j5338j4232n569M714J3623K0437J7457l858l2752l8587j504O1103J06630
41270A0126J04933O1777R259k2310k4960j2231l675j1152l3065n2292m2834N929O7173R4598P1994L0295M344q430
41252B49479k7464m6990m5846k9696k8165m8987o7392o6037n3451l4743J508N0727P9336O8455M4645M0599M8044
41235A34022L9804J8923R461J0265k723k9802m0515k0064Q843K1114J9539J7709J6827J4665J6959K2755J5662j1424
41217B62020l6622l4683j3025j629j2470k9384l5865l1570j8805N877L6572N0984L3069n641l9450n6511o0539n0702
41199c8374j9082K7300N8579N0148J2802j7499j9851q774j2396l8469o7077p2208m4954J985M6104O9543O6642M3278
41181C7697J2372j0806j4283K933K7320L9426L0231Q588r005j3926q608K170J6354L0292L6959L4947L4830M6773
41163C04264O0700N0080L637n4034q6141q6265q3482j01238j24740j19677p5027j4557L0922N0338N1787M7938M7495
41146i8000N2916N8640N3646L1415q00k3966k1144P052L9885N3154M0954J7859j229j6209l2631m6756n0047m3468
41128B1271l6055l1776k8690k8685l4872l9629l0004q415O681P448R849K8785N0924M8444J6929j5030j7645Q183
41110g2287L6242M6411M2591L8786L5397J8435j7312n4056o7093n0621k1049J018N513l630r145R402N1131Q2372
41092G2105O7259J1558m1413o2766o6739p8795r4926r0472n7693j5338J4946K6759K5858K1870K3035K9892L4414
41075a80446L0620K1419R131j1667m0002n4940l3778J5106N2072M5363M742k6293r518N2314J12251J17510O1492o311
41057A59065l2946j8873p252k1854l9408k9419K336K7258L5429M1075N0788M8610K0056k2853n2134n4688m2835l3978
41039B8377k8746j5629P112K4625K3858J0299j574q903k0187l5938m3057l3306j6409o760m996k056M396Q506P913
41020a02475N649J285q153j7554j6329n400J301n42N459L1930O1904O4626L4030m918k7430k9782j8349J211J5713
41001g824O193k5731m7792l2881M153K5451J9812J1050J7944K9709K8050J3218l203j6561k7021k9881k1657j0459
40983f7430r030j9561l2210l5605k4425k309J7561K1556J1534M617J0228J6444R355l744o800m480j6992m2211m6298
40964b19800p261M8211P3452O0317M3643M5002M0710M447m0170m2029O649N4481N5552K3507M204J4555L0852K5639
40946B21961o554n3523r3642j02594p2484k6322J232j907k0561l4970l2747o441L8892P8712R0051P6520N3280J7656
40928A26559l4856p3646n5698P675N0362L5804K270j562J1760n06l5671m7773j7364K1965L1936J5376M147J8460
40910E9238M6758N9644M1352P029j7453k8435l8975m3183j8177K8648N1334K8234m53Q809L5965L1053o602l1729
40892B13057k6208j9236l2401n0323n7760o7749r3668j18605j11280o0705J2049O7514P6665M9896K9783L9475N2334
40875i7162L4990J143j1944m267n902j7178o475K9111N0526L6238J0850o17n499j3891j6419j1237j5550k9666k6309
40856i9258K781K6806K5347J9285K5831K3070o434l4107k7995o278o078k4791l5225l5439l7520k7118J5025O2939
40838a39159O7964K8422q966j6484r462n55K2846O1971Q6935P4237L8249R087j002K005Q548R964K387p186r487p757
40818B12557j1988k3085l6807n3921o7016n0471P096O8738Q2380M7209J2796J0186J9916J5413M55j1865k4255l8817
40800A58521m1553k4248j818J0106J6428K5337K9057J9552O599K017K61q102j6695j4064k887O980J3792J7196P411
40781B03890k1680n5340o9674n7542l1977p451J2786L2181M9171N1743K9349m396j4684J0021K9525jn5266o5663
40763C4992j1073M6651N1352K6980K9223N9557P3039M8232L151m3516q2207r4045o8963l7982m2265o9906o8866k6779
40745a72425J0013Q683o570l958P072N851K179J2492K2208R492j2922j6654m702k781j2033p499J6731L4722K6812
40726h3289K846j9596l5557m2639l3435j0659P220Q304K869O555J9220L0122L3266K7749J2994m308o031K1139O6082
40707B852R8062R1832M7135j0693m6735m2393j2913P478L920m394L592J5469J01m5343q2950p6411l3551M558J1742
40688f8642K206M862K1559K4644m63k6173j5580K1658L4817J881l5952l2096j092Q687o843l975L2494N8598L7118
40669E7708o667k6451k1609k4036l7961l5461p151K0717K4380R690l124J747L2663P9762J05281P4787O233m0276
40651B10232l2394K006K3875L2101M2313M7359L1721N601j0627k4157n5913r3884r7513n4605k442J9200J1251q74
40633E3250m334k854K47M391M971j046o769l103P946J4577P398j2891l5176m3631l1093q464P692J6739K9608M1608
40613C9066L0097r814m6470m7202j9376M629J3066K0627L3250L5494J9012j65m831N16L321N589J6801L1958L2626
40594A58194R158k7733n6726o0915l6960K135L4223M4663L6316K0791M071j3865k9327l2976j8004J3099M7862O7591
40576A61597N8654K7565J01m398L649m215l8880p7970q7867n6219k331L8993M4243J8788j0196k1443j8271j5683
40558A6117j5927r075N276J3497R140L724P899J3641O709j0783k2390j8950q480n274j5759l4198m7114m3136k2220
40539a77303N692L1588N1933O1757N2814K5008p731l0424m0699m3915m2320l6695l1077k6824j9703j2137j7624l8540
40521b96200m9718k4865K5100O1667O5218M8739K4837j1117n3008o7672l1162L3805Q0167Q7586P1337N0236L1105
40504D6055K1106K6908L5453K0300k0922n5039n4582l4287k7268l6254l2632j599L5661N1366M3937L1014K4600K6218
40486A00035L4593M1616K9246r290m8207n1371j9165Q901O964m801K692J9320J2865j6569l2494j5085J1523J6635
40468H7408L542m909l480n215j3967j8650j4676j2966k1357k8033j1716L3559Q6716J13276R3418L8983j8572n6360
40450B47001p1890p0336n3577k7433p057l509j1210j7483j7611j2240K38J6671K3863J5141L995M138M418j3890l9229
40431c0000l6378N309N4853P8094P0483M3999Q158k1199k0150J3058M4353M4209K5894J8476J7701l233m2386o5161
40413B06080n3945k8917j2491l618J355p998l3412n1597m2232j7075k125l442p788n377N050K2299L6672K9790j20
40394C1109k3814j4295J3883K3251O030r098l917L124j2895m7102p0760o1946k3423K0691M3179L8319K7737L1276
40376b8651L8505K7460M685j805R101L220l6267p6724p6770l7832N003K5844K1522j037k7754l8543k5861l857J5147
40357b04614L8070O7437Q0191N7541K1269Q722K0850K8181K2406K4614L9892M1617J3642k2627m0023m0675m1572
40340A14921m3622l4000r345J7074K6215O875l2610o5148o9642n4310m0957l0694q013K4271M4535M9633N8008O6509
40322A9700M3756j2823n1956l3160J4334L5760K9168L4076N7081O0826K8990m690p124R612J2589q420l8703o0157
40304A28859n9597l1906R750L8395M0298K8449K0946J7918R769m015j7804l3815n8590q6983j00188q2453l6886J4296
40286b03557M4594M2882K1908N304N297J6142K8093M0394N6356O9752O2901K3255l6388q0110q1422n3231l2462l2046
40268a02338k5772R383N4917P3681N6844K5514l235k5290l1942j4982R457J2021r079k5267k1974j7040k4647l1165
40250i0914k3935j6729k4190l3101k3627j711J3722K0798K8145L2862L0542L3527N0385N8689L1380j5634l7997k5479
40232F733j3304k2588k6114O416N7047Q0351O0241K1696o335j8442k5701l8313n7238p2761p0691m7065j5644N454
40214a76258J2528J5848K3630L4232M3166M9269N1251M4468K6934O503m049j891M19r590k5338k6896p784J4254J9521
40195I0217R384k920j5008l3631n5347o6226o1163m8227l2550j1292J2481K6818K7366K2758J8680J2262Q028J9595
40177g8775M2999M7445J2641l6936n7310l8900j4450j4293l2565m0846k1023J9513N5455O4357M7642K9615K8021
40160A2590L1182J6505j4904l9908m6080m1530l1398r424J9111L0727J6302P90J0056L2334L5913J5768k828l748L592
40141C5050J0546K4909M7569N5926L2095m495j6436K233J7798K584l0901n3290n9140o3216o2968l2845L2908R2775
40123C1102R6399M4745r311k2320l456R064m548l4938o4701q0289p0148l2512J3401M0563M2496L6190L5437L6112
40105F3286L1507K5480K2264J8699J6783K7639M8255N0495J5383l2295m9438k9491m401O445J5724K9327K5359n426
40087B75595k9516j5082J4285J0701k2925l3569J876M0250L3338j0057m8592o6808p6078p4650m4478J2247O2188
40070B8725P4199M8617J2027m568J3706M9412N9451J7228n0004q3507n6143J131L6112K2855k5510o9270o5718n893
40052B850O3457P8377L0251k2398k7509M85J3857p21j8253k2475k1621k2365j9923j5462j6022j3948Q096M5999P1874
40033A14549P0911N8704N1815M1880J3346k8659o3090p5534o5022l8955j1699K287M807J3995L7877N8394N3725K6414
40015B65745m672l0924n5010p1239o5928m0281j6132j0934j7138j4306L862K2114K2735P532l098M837J8578J2306
39997B8047j7157m0462l0938j21J6476M986j2570j2338j046m150k9871n6784n7395k8245O042J8953J1491R771K7763
39978a67548L9907P342o6306j24359j16068n3572Q321M0639O2726R4534J16481R6898M1581j0391l5267m5229n9188
39961a69499p5196p9874o7826m0908j855L9146O1795N3189K4051r10n221R705K7680K6782j072l2615l1038Q686M9485
39942b05495N9356M7367L4503J5123k0265m5171k4585K5361N1073L6579J9655K4542K6076J083k7250k5904j77K4358
39924A6229L9641M5066K7565j3397m3466l2401K211K4674L5105N3723O8628M7435n079m7782o1859o4459o2059l8865
39906i090k409P996j9773m4624l2022m237K24j2956j1009Q605J6775L82k2083l1709k9653k3671j3568N241L3833
39887a83748O4742P9504O1260J9892q322j440J9534K0891K780q663o868j1026k4869k1376J6673O3954Q0526N9401
39869B22845K7445P134k921j1589j8842k1298k0113j5102j359J8192K5732Q418j8583k5824q154P491k02j8187k0531
39850A34552m480J1472J4741N358j5136l8932m2221p405M3322O2400L1226k1681o0944p6357o7632l0557K0486M3714
39832A926J4143l8474o3716n1929l4723l2546l1697j3349K0778N6096P7978P3303L8495q564m0664m9657m8610m4733
39814a75943k8934K385L4411N2911O0713O3643N3944K3222j5912l7422l0325q929N647N691k678j1327j6651j6821
39796d2375r643K309P861k992k4048l6688l2840k3647j7234j110L5864P2195O8851J9197l6588n5417l3544L059L1980
39777g4810M3179L0969N89k3177j7387O901J4253o977k5411q565L1450N3723M1646J6870Q54j0738k3883k1746R827
39758C7567M5523M1146p832n6096o4610m1598j5677N139K5416L5214K2488K623L621K3182L0222J2653n665m753L540
39739I2103M097R395L5273O1135M5617j7763q4539j06045p7378l2149j874Q615J1042J1388M269j2219k4470j5921
39721h9424Q056K0010L691k1085k0222J0977M0549L9115J2922r909j5076j1384r942r759p273p343j5176k3643j9854
39702a24770m146O529k132k3899l6398k1035K1069O7393Q7095O3765J1350l5904n3899m5929k7515l489K9011O0199
39684c2705O7572M3202J0489K291K4360M9541M9414K3986m115j7651j7482j0669oJ0074J1051M613P577K6810M0088
39665B88440K5321K145J1629M9698N7858J207p5688j02880p3353l9911l7021m8610n2245n1420n1259l9843j5498m240
39647a55670k4137n0981m5472m398L7061M7454K5815p570l0215l0392j4646n22N168J2016K1846J5531j6559m3937
39629b59608k4328L8661R2861R8234O6786L2502N259k5074n3423n5853k4133J4558K3982p44k7659k3370J0424L8476
39611g2449K8886j4301n6208o6013m3984j5357k086l282j981J2922L5191N1407N6825N5835M9919L4305R043j4135
39593D4537k1549j0833Q337K2596K2135O831j0168j2089J515J1547M916m315O719L4319M9456L7277J7135J3068K0111
39574B41545J6764P45r979j0103j6896l8846n5877m8062k8496k3832l0248j7940J7263L6642R549l9966o0654l6723
39556i5114M21J8202J8259K3649M7694P9905R2559O2323l576o5976r1696q7516q0184p1416m0394J0134M3565L6623
39538a02538Q809j1124k2632l7311m7871l8600j2268J6574M2289O0323N3957J6722k2382k7035k907J0048p315l5301
39520a58562n2507n7932m8597r076N7307J10884J12622O6651R734k9636m5956m3469k9950k0710k9952n3351o8950
39503b91450n9970l2747r394l414m097J0790M4626P1632O5996L5441J2340J4600L1050M4349M8688M1489J9185r037
39485C0077k1917j3162j605j600j029J3652K7265J5494j4673l0329j6779P044J9299J9505J5651O257j2749l4455
39467E946m5625m0402k3532m064J0349J6520J5472P979o157j9706j6061J2164M5688N4563L3043M441j0918j5776
39449B3924j7298p529K0056M5287L4724j7138p4127r1826n9046m772K9554K3479r010l3976k8086R91K3492J6742
39431a24559j3875l9940l4341N438N3555P7423O7828M5981L6294L6633K5721j284k0138q965J9822L4769K7525K0485
39413B08372K8350L1467L319m5816p3789n6439j5194J1867J1553l380k1234l8978m6773k9191Q007L0092J0565l1265
39395a8467m8232k0283K5963N5939O5899P0061O5886L7510q170l4966j9656J5258K7517N140k6319m1417l9383k9124
39377H3156j1191J2444K5887J5599o067j2057L514J6859P686j3432k1464j0292N144J5374K7173M3166M6012J7028
39359B44539l3781o9455o1685j9003K2731L3406J1087k1751l8641k8844l262J7106J9679P915p059j6705j5883j662
39341C8732K0924L6433L2034J2521o054j7512k9989m6726n4199l8196m813K4711L7334L7865L6589L6057L1969K0831
39323A68511L462j6237l3997m7297n3607m5616j3542M0819R4280J15556R2535M2746m403l1393l8040l1076j5357N774
39305B33118K6228L5833K5109n156l8668n3105m0369j7376j2775l9085p6477q6573m8318J7107O2365O0473L0157P303
39287G9791j196j7511m7556o0276k8068K8743O1641N2571K8497J5407L700k5890o0626o4512k6276K1261L6788J4846
39269A1334j3912k1798j3906j5818l6832n5021m4147q198K4049L8273N0426P3415Q5678N6313m301m6032l7821k482
39251C9220J9545K0332J7931J5993L22k6178l5511j3291J5875J8550m431k1907j3127J1127K6415K0664R18j6644
39233G5803k0552j3006n970o286p933k514P820J3469P999r810l6094n5634m6397n784L4773L9640R907k3120m0376
39214h4065m7874m9486l6574j1620O804J5083L2264N9880O3903K2767l2423n8219n8258o3922p1319m4635J9087P4692
39196b63915Q8944P7309O6333N4608L2020R369M241J5442L0254M0933L9438J4979k6493n7990o2347m9937l2892n572
39178b5276L1394N4166M8234L4129L1661K2256j6832o0947o5032l1731o789r843j6480j2439j6155l2467k9955R341
39160i2765N3708O4979M9871L7550L0057J0501j4891k1023o564J476j0060k1859j5209k51M090J508Q764K1531J4022
39141A15435j9769m4538k3793K6595N0429K0591k7960m5860k6518K709K4300L8130M0610K7079P048r853l2234o1554
39123F0847o4667j5330M6251M9076r938n8322n1924k7764k8245l2952r880J5144k212m6748o2513l3008Q308L6517
39105b27360N6083O8758O5369N0292L7726K3749o315m6278p4778q5831q3599n8858p165M0713M8849L0003K6430M2454
39087i9758M3300J8866k547q462j7988l3532k9012j574J5900J3061K1342N1120O2704L2871k14M07R111j1771l9769
39068B4055k9518M794P789k6925m5104j3903L5141N6727M5516K3969O503p718k3631m2429n5369m6734j5204J4552
39050h7489J8949P211O512K2683L7800M0892L6097K3109m507l8728n6867m6960j8007J4812L9036M2571K2656k701
39032E7069j0875k251M994M155K905j083k2081n8312q3455p5756m1853n793J4294J6238J2488J9708L9349N1366L8391
39013d0502R159j6390l4462m8738m6120j2097L3581N0750L3294J8571L3775O1607P0354N1208J3543k9800n6944m2624
38995D8165J0368O4571Q9283Q9338P8371M9941j99m5767n6041l8783k7561l3359l7221k7853j7877j8572k2148j7680
38977H6976p767k63N085J3417K4378L0489K3960M958j5041k1929j4451n577m241m174J575M268r949l7484n6886m9813
38957c2469j6019K7402N4793M8710J9414K22J0172K8256K0920j0628l1363k0627K556R447j869j1821p000J1468L6770
38938A38334N6711N0679O229n6507r2313p4366k3877J3905J9298J1983J6175K7914K6091M778k0165l3042l3125k7378
38920A1324k1064j8189k0245k0829j1559K897O200p797k4443k6199j2218O829K3917L5697L4719J4643j6609l6789
38902g9715k5628J7605O9389R6409Q2550M2425J956k9725n5734o5677m1838K680K2557k508l2964j9654K7819N5540
38884F5487L9227P842p821j3965k7961m3124m1341k4012q672k868L75N058O479M019O769K0954L8197M1988K4502n466
38864H5667l0203l5950j9234J3298M6330O1703N2263L0873J8132K0013K4438J8261k985l8770p8044q8957m1321M6049
38846H1563J04335Q5115J7024l1451l2769j7444k0973m5606p3319q7098p5309l9987n200N180L72R548L3984M1042
38828e0993J3608k2781l5445k2971l733J1989K2364K4906K2190K1421J7876k531l4192m8384l2356p556P101K2817
38810i6670M9878O7234N3725K7186J7920K0488R236j1669j5394m351j2373n0403q7280r4115p6431n2117k6699l130
38792b84965R398J0449J1633J4534O595j1143j6035K346K2208K0317M259l875j47L818L823M774P553J0055J4817
38773a69586K2801K6591K1564J6421K1238L1960L7086L2870K3298J3443J0854K2761M2191M7763K7764n909l6035
38756A87075n7803o8354n7804k8244m837o563j9224j8848p636j691K688J9135L7806L7098K4566K8741M8991N2442
38738A67538K8469O942Q072J2837M741L464K5646M2861J7829l6716p4670q0410p7182p7291o4411l1082J059J1872
38720a10432Q903J0868K3978M3808O2248O3733L3602j8278n8174o3977m6059k3526K366L5991O4044O5251L7982K924
38702A35252j8582j8607k187J5324J6953K210r926p135l140j5380l3170l0168m716J6071J4697L056k109j185J725
38683E8983J3741L7617N5719M9013K4804Q143R711J8112K1658K1406K0121J2321q440m0018p3249r7172j01400q1454
38665e0384m6093j3860J759J178p474j6867k0078r231J6618M3122M8255K4058j0236k2322K037M3755P0618P1023
38647A25878O0519N5009M9283K9604k522l2411n3101o8856p7466o5088k6435K0361M8732M8775L1239J2051O38k46
38629A55964O711J2499O201j3947l4006l3299n261K9983M0547J6385j6591k4726o248Q976m98k2558l3468l1350l3381
38610B1933m5934n4139m3629j9911J723J7901L7066N7120N5957J7627l4894n1792j3383L7665M0773r897n9537o2510
38592a07861l4221k0476l5257n0794m0171q111K0132K5311Q441j1173j2914K908J4821J0301N908K1937M6043M5316
38574a19860J4012j4539j0927J4608L0035K0173m535k6566l5343k8934j3532J15N801N599K753k825q349m874J2950
38555a64238L7024N0526M1861J4838j1326j5541L723K3534K3465J3451J8834L9463M6064K3908k795m843J1928J9494
38537A69370P273j1690k5234l1342k7510j2144L395L160j0298j7767j2114r271k3407m3845m6524k1481J8533N2465
38519c8431O7808O5279N1742L1255M852k2394m1316m8355m6997l5403n542L4834N4193L2213n143j0890K2909N5687
38501A66301N3423K5887k800l2508p1324j00592q8510l5982J7759L9315L0532R455j6195m3557n8724m5680q254L0169
38483a31285M9912N0435M3138L6542L0007J6831p563l6754n3880m7259k4938o277J007N152J0133O226r411j7402r4
38464h5480K7291L2458J2344j030J2260L1153K6801M196j0479r819p912j0750j0379p885j6199l3418l5996j1094
38446i3938K1039L1948K1126J1771J6508K2870J3503j0639l1873l5428k3719j1915j0824j5127r811J2219M0824N7065
38428E599N0123K7191P828O395J8735K8568K6479J6427L706j1820k5687k5858j0592L441N203Q607K7911M5553L2552
38409B40361l634k3709j2519K025l293j3037o869J755j0554l4578m1834k9031j7725j5275p553Q828J6625O975o711
38390E0247j2575j5728j9607j3685N687K0947J7765R186J5314K9738K8859Q607j2494k6478m6024p3904q7271o9522
38372a90938l9423k5436k1946K355N3949R8753J03709P1743K5005k4094o6820q2280n6247j0529J2807L12j9563j7123
38354a85766K589J3303L595j1974j1717J0431L8457M8783L4076R899o827j7042k5929k1778Q252M5461N1444J9374
38336D631j2160q745J7910L1690J6421j7243n1626p0547o2108l1855l253J0113K1445M5606P1170P5426N5433K6129
38318A18437q36j8755k0171j0312j2344l5559n2275l4372l45P667j3729k7245j4879j058p872k2750k5495j8720j4675
38299b05288j4698j6382k0630j9242K633L8548N7905M6404K6908K2244K0218n20k8868l4145j0291J9265L5594L9370
38281d0975L4857K1766N841k36P941K0381K3404R201k2307o1419r0324r5940q0791n6324l0033n094J3651K1742J9614
38262c05045J0575L89N66J9583M5695N4212M0543K7869K9058K2651j0395m4874l8544O601M3107L8535P973j7276
38244f8777k4728j6236M701K7371L6143L1803L3362M6482M8595K0813k1179m5688m2330k4226m684Q996P383j3174
38226D627l6213l7949j6227P766J7238J4741R162M302M245J3397K3560J6491q886k5289j0231J7765J7307k0765n6955
38207f1914n0864r549K6969L8017L9703N0741O1806M9819J1199l1836n3715m5741j8735N608J0034k515j1891p547
38189d11m542j8450l1964j1242M1312P7480O1578J7094o522K492J5623J6014J8876L5274M7047L3644J297l2932o6876
38170A94792j00344j12105q0165k1176J9779K3384J5078K2491L9345M6572M6079M9739M9322K5711j5409m3421m2987
38153A16685l2676l3553l6205j4661L3410P4357O9672J6994m1309n4562j4118L6281M7595J7059j9658m0174n5270
38136F9867p4757q2585o3798l4759k1485k0275p253J7991K6679L082l1363m5511l2382n796K1155M1813N1575N1527
38118a36275N1361N9039P0719P5989O7374M1385k22m3622o7420o3426m5734l1240k0165n058J1661K2455K7543K7489
38100D1853J1979k4134n9449o4322m0339j7667r551M345L8776P2381P5092M8189J6553n935k2138l2095k9595j4654
38082a0711P496L4763N9568O0995K8012j4765k9598j3209K964O64n058J057J0785J4019J6746K1234J3423j0423k8306
38063A59656k6554k5847m4623n8694l5572M746Q467l2709o4760m5114M427L6794L9235K9047J5182m764k2121k1589
38045h4793o251L502l273j8447l1429l9507l9725k5401K390K9137M0297L6193K8429K4080J9173Q793j698j922P667
38026e2785J3895R790O655J6809L0500K5147k804l1269m2195m3311n1322o4226o1986l1262J7778N7920O6787M7286
38008h8593K7120L1326N5334P3319P0659N4579L3551O036k3694l8132k8280q854N83l693j9738n2965r8326j23003
37990a32771r4951k7762K6117L1672M769j3928l070K6647N0540N1820L1896N929j2201k0550k4166k5004k1851j5245
37972a62109o334M132J1312J0294J1519L7644Q9157J25345J03228L2689k9772m3788k1202L475J5313K0571K4678
37955B26152K5559K1067J0527o789k6791l8879l6211k4251j4414j2881j8609k7019l1540k5872q950J3918L5033M6862
37937A06912M4080L0321K0131K3398K7907J0264l1379o6632o3180k1833K4641M3352K7877k295k3656l0232l3011
37920H6665l8086l4128j1031J7031K4725J0671L35J0279K8971M0698M7662N4159M8150K0310j1370k1006j2823j4227
37902B46985l1476l8890j9165J0219K4527K4982K5467K2358K823k4838l7128l3072l9265o7899r3428q6950n4550
37885a69300k1313O593L7065N9449M9700J1055j9888j7977K763J7034K1038K2640K0171J1029N964J4454K6794K8207
37867A05478J9294N944j5803m3694n3722k8825P290J5481n342k1500j8493j7226l2625n1061o0386p0386q5287q1888
37849d32751l8230L1034Q6336J00537P4188K7828r152j5721K054J9713K8093M1768O5683P5556M9590K960l0263l9163
37831D0060m0245m6729n2488m5210k2392N919K4491K6993K4999L3499M6343M1813J6055j0003k4325l8654n5336m8331
37813a23541l655M4624N2871K7998J3979K7173M2650M2724L9044L8042K2340j4014m1562l3902j2201k1170o5241
37796C6159r6071p1692r378L6073L8243K2726K1316K5782R030k1522k6736L788K9486J6147j4083j9025j202R7k7989
37777d8851n3359m4851o457L8579P1109P7851N4973J9555k088n430j0001k6248m0197l7842k4548j1120J079J1899
37759c5947J7250K1684L7509O0053O2705L1395j2577m0490n1761o2385p0300n6092j5568K7242M2675K1860j6772
37742c9519l9313k1577K5231N8755M7369L906l3413m6057m4198l6446j6604J2221K4841O026j7536l429M6757P7205
37724D219M1422l6801q3816n4803K3042Q6233R7965O9854L6558K3372L3190N1759O2220N6917L4948n758o0105j00111
37706B80305r0124l1063K7862L8982M694l9224o9427p9558n8926o148M2204L9100r923m8099m2233k0010j7306k6382
37688a05276k2949j2765j5894k5625k0269l939Q81l332J0963M8680P5206N9406J2731k7124l7155k2332J162K2517
37670f5114L7858M4039L6603J6982p64k84J5577K3522Q303j6224k4894j2756K539L531j3203l8991n5766m3680j659
37651h4381M3636O4100O0690N2303M2262J9283j0940k3932j3274k627p332q678J2304L4913K2044k3639n6432m4820
37633G5480q605J1118J129j8718k7247k2095j2316n743m582l398Q327L1262M5038K7386j1550l2076j4263J1073M8
37614E0268m5284p9147p0747l5649m070J6461L2620L9597K5452n988l2806l3499n63N5237J03669J09176O3748K260
37596A90735k9767k2393l369K611J179J2323M0123O5257O3065K7060k2426n4494n6572m4429l9946m5158m4939k8873
37578I987j095K6625M2177L8493K1978J1208J6293K3805J3749j2855l6320m4562m2602l8070l2910k9927l2323l4340
37560a00689k6454j2565p844j5226j8032k878K1511L6026L3569K3391J9042K5686L4031K6681k010l3837m5008l4690
37542g9296k1300j1739N508L1442M3695K8278P221J2840M2075N8363L9324L329j8055j8558j4414j1058P282M7229
37524A52166Q1393P4226K9761r897k0816k7664o0240j02357j14149r2033p0036o3896n1508j5840K7923O0644Q1687
37507a20636Q7334O1612J2830j3721P029L5997K1974k2269m0441j8358K48j3691l3733k5900J053J7232J5915J0845
37489a6680Q106N054M911J0135R193r350l2932l3475j652L9144N5419L3541j1760n1480o4436n0899k7256r166k713
37470a46296q252k2167l2649k4932K122L1788M7313M6765L5934J7732j791p385J0389L7336M6489K7572l573k4105
37452C2290k2997k026K8874N2525N1694K4415j2025l8557n2101n9584n8683l6674P185M8073N6475L1768M067n83
37434E4136J3405K5685K8797K8679K4954J0844p887j5076j0790j4911l3356m1771k1242P310R799j0994k1314q563
37416A7705M494K695K945J9691L3616K0474n937q089K4363O2474P4396N2103L915n3587r0424p6215j5956M1963N1749
37397A62375J7765j7391k5478j7210j6547k7927l6543l1519j9023j3056j8573k6455k4844j2765N72Q008J0322J0455
37379g7834J0034J3153K3371L2200K3318j517j2825J3024N7202P5249M9410M692k8583m5363n1240m1120j1658J9233
37361E0746K6956R676j2224k1908j8126p650j098j1111l7141n4973m0886o580J0381n015k6841k6068o669R061J3295
37342a56175J2665P873n381j9877k0560n668J0375J6953J8702K4903L6661M6112M1762J7079j6873l1228o181M1071
37324A2213O9894O1604L7315K4488K1319P126k3146n2012o3685n9858m9838l8083k7004k2744k9636m2042m8537m3617
37306b66243l0044r702J9590N1308O0631K4453m1373p8962m2336M6222J11961J05691N1138O910o32J0832K0392K7640
37288F7476L3795K5840m495l9763n2491l8054j8540j3603j8337j4278L875J9030J0347k0526m5365l5855N727M7323
37270h7894O0427M6802K8395J8249J0921k126j9973l6908m8357m7121k4819J2836M0437L7198J4564L916J4586K1233
37252D2366J989k7455l5115j6946L073J2951K5568M5507N0967K7514r70j709J7605J8127j3045m4409m5835k6621
37234C3562j3247j0292m389O120Q988J729k942K183P462J2k0649m2451m8402k5675K1993P0263R3392Q9175P5008
37215B41840O0317L8939J1848l307J134L928j6576m5238m6310j4777J4254J3475l837j2936j8142m0615p6912r7265
37197I820q6519o4330n6512o2621o1515l7191R877O5643J05606J05283O2801P598k5933l1832k9607l2283l2457k1825
37179a75997r130r013k0141k3933m985L1003O0594O4348M5646K5231J6585J3505N987j735Q5P815R752O486Q604J4500
37159F5207R819o142j2470M295K7168K6957m826m9158p6547o5768j9234L1370M7834K4518o596j7697j4902j4240r696
37140f0108J1158L5637L9903K6652J8651J7324L09l4238n2783l1147R402K9689K0544M709P96L446k783k2063m1365
37121b6267m2118j9999O600J4607L222o684j525R326J2146J0517J7786L4345M2091K1184k9071q2269j00332o7369
37103b03810r774K7651K7471J1954J0503K9214N4321O8575N8675K3486j6522l3621k5123j5408j7793j5532M565K2143
37085I75J1763j3257j4607J7468M9700M6865Q378l8053o2938n3039j8003J6295K9982K5904J7916Q760q215l0475
37067d581m5341m6599l7741j9224J2219M8962P0713O3448L3698K022j3591j1601j0165k9477o2012p0154k8402L9236
37049a08590Q1196P3346L5739J98j8186j9670j2805j2822k9391n1699n9116m6221k3193L423L0534M4864L5457J7277
37031e9659J3131J2789j4049n8531o8399k1594L4992M8640K9331J9403K2584Q928k2763l5025p357L6468O5723P6193
37013H0805P3449M9621j848o0917r0290p1129k2526J5763J9735J687o970P198K6802K9368J4063m104j4744j6063q811
36994B1089J565N250J433J399P880N698j1727k2504n206K4729L4123K0470J3073K7404M5807M6484K7052n425m4360
36975A94234p5948q1664n8056k0961J2891L4137L3242P424k2372k5895k530J5553O385j7299l3958l9152l4229j3972
36957a22170J7931M2091M9433N4253O3229N3503P703m5779n8950k5334J2743J8559k97j1585K394L2601N7451O0617
36939B08393M0036N147l3164o7146q7877q5227n7343j4853K6780N3242N2827K6480k508p049J0128J9902R473j582
36921I5659J553K991j2920k9729k4951q377l724o863M156K6516L4315J9753O56j2472k6045l8902m0019l5444m5981
36902i9828o8704p0321l3295J5643L8288K7192K224j6073j5819O648M0461O3449O2606M4349K2332Q015J2172L4396
36884G3735M8350K3496k9877o3505n0825j6804O353K1913M2712N2557L0155o119j6048O603K9716L0131J2431j7464
36866A77510o0502r8613r5900m5119J1099K7102P419o505Q192L4569M5998L6762J8016q92j5887k1129j3095k438p736
36847a149k8992l8776j5245K2441L2313M305k5750k5049m111P813P480J3524K9149L6069K3792K228j6618l0659l9264
36828d6499l9949l6239l2673k0527J2691N4820P0875M5473Q138J054L0151O1612O2009L0220p902k6083j8215K99Q530
36809A57785j387k1312m0203n3726n9083m9047k0516J3212K9106J8744K07k960O522J110l1967o4794n8935j6278
36791a93522K1694K7827J8999K1494L0874K7739J5734J5261K6885K9818J6602K048p713k8929o9497j03461r4560
36774b42707l9099K6337N8094M2795N907j4988q399K862l804j8688j6410N083K4132K9357K8012K0357l847l5071
36756a40077m1106j1581K0928K5919J7933K7787M9534M9669K0747q516j8171k1132l2932m2921l2701q137N701k788
36738a41844j7899j6686N880L5311N5440O0347M9147K0310j8882m4445l4260L737L7140M6946M3693L9917K7214l945
36720A47121l9093n6029n4890m9184l5731j544M0536N3636K5077j0798j4665Q298J9274k217l5449m6963k7122O835
36702g2908L4932N1914O0676N6584K8429k2386p2027r3011q0778n2937k3459J0177M9166P4943O3606J8776k2992
36685H705k8171k579J7919J1573o219q610O401J7939J3364P97r095j7303k6771l1330k2765j932K1965L7754L8331
36666A9973K9685L0741M8299N5078J8117m6195p6435m2547J0404K0802j0990l5755k9246j2373m303K017J1459J1077
36648a92k881j0912O34J8349K4061J9007J2347M117n454o395M690J1523k693l2092n6068o0965m4165r140L0868N5175
36628e0186N4735M0670K5157O990j3308k1486j0834q78j2375l3837l7522k1991j1309j2660m032K7708O1558O9930
36610E6330N3263L0662R579j5082l7627l8870j2509J9296K6863M955k4276l8256l4773k3928j0942K500P621l064
36592b8258j6288p094K3746M0216J6181k4039l3209k812K7989K4986m910l6291n7557o4739m5328N155N9061P5309
36574d7882M5066O65k4965l1553l7471m8094n1901m0909k0651R5J8666L3525L6683J8600j7668n0135n1576j5457
36556b84962L2263N4634M0625J4275K143N73j3016m2011o1981n3491k6989n167O566J8759L6413N4955P2852R0479
36538f3080R6345P3230K5488j4418j9527j197L803k3094o1386p5185n0371m988L2017M5918M0177K3988N656l091R219
36519C9504L6273N0011K9353j0380l2115k1595k123j938k2927m8240o4552o5149m4671o698L1888N8281P6980R0022
36501I1924P4989R433q2575j37238j18229n7552j2857j33Q858L2597N3252M9397L0583K3372L6322N4961O3816N7689
36483A78609L5542N70l2444m5661l9670l4992m6854o8115q0861p3613m3559L153M6082O2290N4903N2828O7628P1119
36465A06955L9260j420o295J9692K9173P029q596N905J6448j3411n8745o5861k9632L154J640j5290j6176K124J9669
36446C5623J9642K545j2659j832L5275O3489M9214N226k5421k8299l0190m7227n4838k8745J1713K9255K0451J2113
36428E5335J4936J2411k701j0652L338J9949Q348k9803n7839m8353j6935k001j6573l3470k2552R910L2431L1866
36410e2355K5421K6756K3279J968k1425k3317j1512j3104k4743j0253L9063P5068N2593l036k4661Q554M9023M8874
36392A66193J3306k5040m8462m9213j5493M2822P6370M5409k1249n4881l3100l08J410j7361k4717j3283N595K4189
36374G2187L2388J4150k6243n6179n6678n0495o2432p5133n8051k0760K506Q448K1319M0595L9307J7937J2500L5491
36356a09143N2450L8524J9269K6554M5377L8344J696l5630n3784n2544l2555K337L0584L1298J6269J7226L9727N3810
36338A29809L4995n895l9386m6714k8157R92J7091O148j7906k5892j0273M426m311k6785l7646l2323k9981m1147
36320a52955m6788j7237N1634J26558J63108J43756Q9443L5109j901k8106n5788q5609j04899r7973o1037j2023J8987
36303c5721J7386o19q236P59J2204J8514K7986M4075N2631L9666J0470j8712l8177m4238l2548p196J0334r37l4507
36284A3134o1526o3811m8365k8382p325J1077J4366j942j9549j6041O135K4551K6945J9131L816k5952o3537p9234
36266b96509n1956L12L9300M8239L7747J7951j0064l4451l2352k497K3300J9311O95j729J1312J2806k663p029J7225
36247b11052M7405N1557L0958J2022P648Q414P338J1554K6903M7626O5349P4168O4199K8068j7916l7014j2776K4325
36229B28776K8658q089n3210p7430q2615q3317q1360o9078m4621j3376J7413L8343M2469L7880M3435O0291N9758
36212D3927J7187m8437q8487p8263l9188n340J3991K9802M6561N5066M7713K9358J1722K023j939o946j4702j8546
36194d498j2670j854L826K363K69O45J95j080J987Q112O819o232k0182k3028j7303j2834j0432l711N982Q016k369
36173g7979j4730j2592J0170M1914O1147N5101L2505J3803O912M93j4405k7001k2707q532n966j9361k7873j3513
36155b2614J5938L8663M2433K8817M557k0263l3238l2342l3549n1322p2079o3354j5665L8390N8292M1069K0170K3309
36137c2788M5065O1146N5160K5957j8383o1843q2126o4667j7281L5252P1490Q4111P3781M2870l91l7429m6905k0801
36119A12218K5621O2084O7660M9726L3216K8183J7460j4786n2391o2467l8753j0126j332l981K353J6605K2034J6495
36101B69819J4880K0273J2955k1207o4125q2973p1050n5815o0815p2268n7464j2182K8163L1511Q928k148J3995L6959
36083f2564M1776K7684J1715P582J7041L1367L5445J8820j2903m5224p2241r2841r0759m4300L1642P9144N8511Q71
36065e9234k8792j1604J4277J8946J8001L2464M7038L5232M278j5726j7543k1775l7514m5361k6763J0776M7120P0692
36047C4512P5197N1810K302m8844p2766o4045l8386r079J7768K9458J1640k6646n1579l9646k961K7959L4418J5575
36029e3313j8937m8480m7388r918L8083O7802P9393Q9202R5187P8432L6272q148l1393k8478q400J0558M888l0454
36011B14908o1744m6114J2159N8464M9109n225o3063r4657r2550o6418m1509l9383m7311l0667J3039M3704L9492
35994a57766L1878N0752O9738M8618M342j0996R548K1128p15k9602l6902k7147j3032N261J9438P486l0644o0511
35976i9126n6472l2051r084J4741M3248N4214K8423j0866k3282q298j860j7247k5373n261J7080M158l6270n8398
35958b21724l8832k792J7976K8603N0609P3738O1818R091m1711n3338l9790l5425l9749k3849K0038O7060R3096R1000
35940A5819N9014N642l5008k9043R374K9219J0369j4143j5186p936j3358j6687J722K1850J0322k4341m1854k8860
35922f3085j1427r530j2589p262j344o497j5256r381J6364M6609N8648M3340J6430M248J1908J4147j0919m7356n7570
35903d0522k9495J0436L3080L8534M4755N6071N5187K6463j9063m7989l8007l437K1367K1642J1040L94k0047n4787
35885F5622q0035o9596l4066j1009j8387l7381m1713k6406l814J4815K7157L5526L8346K6349o505m6116o4191m8730
35867b80134j6518J3070L9777O4624P1205M9412K2686K1865M0360M5491K8420R869j174j6638l2615k3549J0959K9500
35849G6610L560l8664n0922l1054j4844k1085l2552k7031k212K9700N2179M9493J9586j7005l5766l5832l4948l8128
35831a48915k9480L3L3281M6520L9181L3108M4932O6703P4130N1369Q859k2714k0677M314J6196p057m5456n8454
35813H5873l4483n333k960j6404j1342J4695K5414Q95k9151k7885m968K131j2015j4822J0463L9390M5422L5987L2528
35794A33435L6498L5443K7700K0109J0111j0183l5720n0011m4534k6608j0126n342j2207j6066K270M1538P2126O5831
35776B34264K9134n158j5645r210l070m252q940j1064p283P53P135P894M631j505j3605k9645l5207j6378K2002N9517
35756B04368P8471P0798L3703k5458q0425r9412p4997l2203k603J742j2734l5007n3725n6337l6129j427K6969L0293
35738f4113P285k1025k5975R23L6174M9370L8331K6513K5898K1881L734r742M823L4935M0290K308n2431q2769p3487
35719c7077m1247j3169n910j4980j7878L162L6442M9945L1558O021O73R696J0669L813Q156K2672K1299o181l4617
35700C3047l8800k7278k3378k9062k8157j4941O01R706R668j707j8389j8897J2247N7565Q0614O7262L5361M548k2484
35681H7526m6179n9077n5891l8855r456K8508N7198N9069M6372M9167O6226N9605J4643k7919k7982o589j3265n1050
35663A32051p6285o6665m7103m3243m7033m1415k9068k0043j3378o371l526k838Q394K9534L6592J4227j7075k5302
35645b18547o511K0080M5394P2891R1675P6704K5383k6684m1330j8784P751R606j5992n2996p8911p2500k7262L5013
35627a75020P5212P2128M2087J6073L844p683k5524l8071l5005k2731r772R400M0308O6620O1953K5102j1214j2988
35609G4719K0672N8196O4460K8850k7433o9171p7239o2832n0240m9700n2326m5237k1494J9243O5830R4479Q9136
35592E9913O4053M9593N3232N3336L7324K3573L0216M0371K1932k5124o3752o3932l5396j1830j3869l3081m5310
35575A41249l4499o561J6955J9686N721n257L648L1323N6672N2866J2142m1403p1887o6701m2540j6792R477L3153
35557I7252L5442O485k9822l9354k0376j020J410n100j1829k0881k6854j4257J3886K8520J3365p970n148J3432J3539
35538D0720j4076m1578m2839k1920J811J8448K9885M1470N8910Q1868R4069P2173J5112m4096o7627n0199j8943o02
35520A52586J243j539r99p37q661k5014l7706l2586j0842Q191P057j0222k4738k6120k1334k1293k7704l4313l2989
35501a47720j6937J2523L8567L8894J1710j5795j5417R875L2376L5195K8056K6016K6658J7412l293k4162l7599m6007
35483b9648m8443l1702J4232P3391J07574R0520L5370j8507m5125n1391n7195o6514o5787m4912j0281K2022L8802
35466h7594L6909K5892K3236L7957N6668N4828K6562m591j2265L11M028j9548n3205o1025k8661J7748L6020J0567
35448F3837l3052n7344n1016l2701k2427k0897j8116j0315m96J0137K0878K3834P691k6777n9279o3441l0010K3008
35430b76486O4365P4933N9284L4304J2823J213L702J7308K6223J4981j1186l1430l6841l8615m3263l6417n389L3363
35412a37128M8106L1596J0957J2708K7718K0447k5929p9333q3899k1807N8482Q9892N7588L586l4513n7846p2118
35395a51493n8044n622M8879N9176K9984M969J959k9j0868j0546Q901K2447J2813M03J0041L3728M9610N4613N2710
35376A53631L1660j7333o8166p8293l6849K5586P0694P8763N0494M662k9696l7789l3395l5127l7896k6756q610m251
35358A329j3357j4276R99J6891K1925K1657J8671M076k1302l8090l3167j7758r511q774j797K1951O0362R6322J04615
35339B10766P6482L6927J7937J4417o641m8323o9121m3843p562r484m5134o8139n6026k9008q611P451K5136L8237
35321C5461M1190L5878J9446j2965m6575n1981k4453L038K775j0305n804J2229J1569j4894l2744j4336J9037K3881
35303i553p063l5573k7762N925K8376J9153j1461m0525m8599k5124K1001N5015M2634o590l9541j8332L3975O4213
35285A69N5676M0038M4095N1122K8829k0753n9215n7171k7314p935k1088n2868p2181o2847l5512j2131l834m293j188
35266b18401P943J1400k879k8084l9273k0278J5014L8627M2161M0825M5916N2192N6406O6328P9314P1965L0309k3385
35248B26100n4325n5751m5874l4864j9693n379l016o267L091K2109K5659N565j6396k5938l8131o2456p2593m1871
35230b00030O464J9608j5081n1005m1144O823M7045N1512L3658K2418K7484L3315K1481n419k3579j3128J7685L7969
35212b3924K5548j1421m7311o7715p5840p1639m0370K4918R7224J31096J08854N8316J9283N929Q807J6905K2980
35195A81640K0251J1347J0772K1223J9728r862m2216l8643m000J9042J2352k43n714k7695p6111j09657q4972j9471
35177a22229L0749L9394K3047R25k0359k9310j5448O179R114l059R8K7718N3393N5393M0721K0450p924m0018n5607
35158A3227m7191l1493j6177J4518N7304O6084J0283o3899p7539j8747M6305O4284M9815L5381J4443k9979p3519
35141A3100p5326m2231k1472k7979k3704J5809N5237M9494J0965j0806m11J3324J2818J3520K2648J8723o499k0879
35123c669J919L4359K9832r080l5595k6302m802N644J4731L5575N4420N3034L9665L2342K5326o15l8955n5085l0723
35104A22021O949J3765j9938n7694n8063j9448K2044L4660J9989k33j1336j0553J832J9321K4986R767q262l629J7158
35085A03336J8172j7736o3631q1478o3443k9257J320J9033K0714J0801J350j238m354j5412k7256k6338r435J4985
35067a49867L5316M1641L1588J6974J3402J7571R083j7877m1982m5542l9973m4259n4231n3445m1567l0110j9604k628
35049c75510J7830L3146M4140N2016M5555K1031K896J4799L8885L8531J6694J1493L0843L5746M442k7316j6917K3991
35031A2295M8973L6843L795k9167n2416o0239n2385l9605l0404j8645O96J4964J2547P531K1618M7004N2298K6385
35013B088n125j1845Q753L4087L9139J4616k5515n2791m9373k4041K493J9976K6453J7259l899j2906R310M2541M5850
34994G7070J2330k1620k6460j0933M479J4798J6859l88k8588l1092O761L9749J4227n3079q9006n7389M56K7268J4824
34975h9734r934k9882m0524l1204K258L5867L9837K0442J2151K7331M1620L5392K1618J8452J9446J2481Q205K1175
34957A14997L4503J6524k7248n1183k9106R640K0518j05j9952j8075m057L593l077k1494l9270l5675j732L8426M5185
34938C2412R491l3843m6456k6081K466K0444K5230J8792N033m288K265J8707K4391Q573j5789k7784k2035j0007j037
34919a9516R045K6556M3836M4970K8563J3249J2990J6941P160j0991j4897k50R779l612l2252n8056p3450p3122m6433
34900a19490J615L7491L2655K152j3930j315K1418M0816O0863P4089N6958J1609j8102J77L7320L6545j2310o2598
34882A85963p2392m5861q246K9139O0622O6492L1195k5083n9560n5465l6718k7478j9167N296L2307L0639j29k2797
34864F8757j1647J5532K7493K0306R063l276k2229l6193k3755J1928M0273L9811J8105q016l0203m0435k9096m692
34846D1726M225j6395m4121m8256k6469K736K9319N1373N6137K8956j8007m9144m4623k0798m674r07O784K8382N0940
34827B7184N0337J8480k3282m3843l7002k7403l6423n4012n6105l9489k1711j1321K104K6778N4513P2370P5700O5461
34809D2336M4437K1190P499N831N910l338k3806m8429o2282m6572K878N8554P8737N0738O248j3847r53K1121K6948
34790A73200J0443j7643m1499m9810m0523j9754J867J1120j360k6717l5675o268M6448Q3136Q2969N7577K2822j9224
34772B31109o2275q5284p8127o0171n4024n4854m5277k6626j1908J446K4597M8229M9063K6864Q372Q309J0868l77
34754g0066j6214j9236j0006m89M890O246j810j9697l0538j7454R910K4515J8651J4154K9887N3649N7988L5472M981
34735G4833j4842k5425l7041m7868m5361k6640o036L312P578K2194M6138N7536L9040k33l4478m8672m9369n0384
34717a35718n5386n6124m2275j0060L4655P7426J01590R8680P3909L9840O119k1468l4835k6357k389J3958L590k6432
34699C8723m9694m8708k8247j826K1780L3792K2121j1967m0151k8605K1156O4905N9158Q627l7599l7882j24L1322
34681A6781K6158l381k5998l0853l0224k9841j9368R44P048j5761m0980k8778J8158N3650M7233J8609K593M641R723
34662a9646J4388K3295K6265R213j5002j5915J0460L3855TK5185K5908K7086J5343K842O441J2809l086l3287m5172
34643A34837l2036j9091j5000L048M0905O2007L6760j1803m2106m9692n4522n3735l0477J95J532k5115l4416m162
34625i2871L0415K9980O574q96J6272L2895K9813J1516r218k3007k3488j1093N297J9787L4467M4650L3736j642l4674
34606I8513l6749j3977M598P405O524Q462M140r457j9928j8613j2593j1590j6929k8199m6123o2257n9249l0015J2509
34587b23528N0541P6608Q8185P9752N1490J8179l145j1761j8614k4180j4503J3746L5744K3182j3671k8925J174M0335
34569A40609L5924q640l7520k1079N654L15k4425k6717r46K0178J8202O768j296j0758k3058k7353j9966r740J132
34550A7284J8855L5886L1491K042l1902n6345p8467j01213j07013q0702l0486K4063O6223P7921M7911j818k3505L399
34532a86376M7279O8569O4467M9861K2548k0795n5443n2525k0922P379K2479L2161K4311k0243p6480q5175l0688
34515b09593L0979M5738K9562L2110N8047O5249L3536m227q743J5557L3444K6261P734k493l423n558j0451q882K636
34496A27483J4206J5095O743k396r985k1210l9551o1424p8202q0337o3213l3525o093R924J7070J8611J0244q892
34478a85452k5038k2079j106K3133M0592M7983L8526R514j8849j4134K7615O7164O2676J6933k8364l8780j4397K3786
34460I723N6360P0197N6739J9488k0928m1144l6683k2353j0099L758K3139L3907J6100k5679n8865n7431l0732r076
34442b3579o875j0685j749J9792L5812K9727L034k3990k7206J329M4090O9372N6320J4004k3599k6841J176K8899
34424A59031L1994J7859Q357Q816Q811N872P202R405M96j3587j0136J1860J9544r249n0219o3944m6616k4934j3543
34405E7019n624J853L597O460K6912O2186Q5215P5604M0313K09k8414l6792k5127o665J905k805j2955k4050l3641
34386A85200l1976j4084L123o12j5672j5268k008r331m7617q1322p7092m7007k3098j2473k020J1154K0353K7836
34368a31914L8392M3074L0525P531r619j5412j0418R750L8521M5031O778m9616p0854m1829j119J2009p57j6363k5609
34349a41899l3032l9559m3180m7560n5648n8991m2682K97O1020J15071J32857J02808M8208R044K064R428R634L503
34331C1383J360J424l378q171l839K920n624l2380n6698n4344j9719L0213O7414P2475N2893L8620M8182O2825M9522
34312B75078Q593k1866j6388K646l183l4159n2196l2615M792K3717J5488L011O787J9646J8099p952m3180o4950o7830
34293C3538o3971o1463n3114l0933q52K6148M8374O6460P0362N1134K1304L085l625j8857m4927n7295m3846k6663
34275h5141k5441k2410R296N8172Q5042P3147L9922N297k2356l1717j2657K0153L6668L2172L1643M4874M6821J9238
34257C02723j3975j6458J1555L5526K8318p116m8208p1354o6914m6793l1172k3724j3152k022j0113l6786m5900j1353
34239f6918M1076O3005M1282K268k8199m2041l6896j7016j432l943r094N317K8357L0372J3560J0324K6914K8298n689
34220G9545m4181m8125k2852l210n566j8303k5431j7610Q064L8383M4814J5082k3980l4804j3040J5971L5776M8802
34202B9335N1090K6872k1055n7081m6915J083M1710L9054P7l7097m2619j9638P258K0372J9864J2726M472L005J5531
34183D8044L3377L2596J706l9848o2567n8091l7434q433K6480N5778O3782N1913L6983K5503P439k0124m2312m8343
34165F6449m6202m3430l0822l460J5690j470m4784o8888m5127P253M9064O4059O2060N2081L0993j591l1461l9944
34147i530k2637M963K0749J6913Q513J6712M1355N7811M7730K4301J3546J6113P674j9548l7619k0132J6816L1581
34129B15311Q570k7939n0615n8014o0299n5786l7128j0895N246M102k123M749L1020O4268Q0023O0010J1561l2991
34111A49070m3747k1253O207J1413r216l7622n1509m1810k0740j2406k8625n3807o0446l9231o066J9532L1189K8719
34093a80348J0293j7270l2175j8564J0322K6396K3438K2139L4885M5059L3720J1249L717J5800K7700K6735K1364
34076F4460K0710K0233J5998J4490J5052k98l9559p4501o6997k0806J6076O981l3771o5423o7622m8274j7369K5919
34058b34701P9115J24680J39897J14801N8692o539n8125q2686q0256o0069l2735n923J5319K7505K8707J8279l363
34041D2598l2619n9023o6342m4346m344K2337J2280k2239m4414l6234j7860j4956k2165j8248o294j0078l0210l4880
34023c87037o537K9401M2535M1483N1887O6132N1346O133k6509j5118J8996L4650K3990R904M495j499j0232n671
34005g1651J9416M5701N2648M9057N9041Q1500Q4370M6135j1341m3534l0890M138K4776J6481l018m951J7277L3829
33987C68984O757n9819j10473r7126l8695J746l171j7756l118K7964L7612J9345k317j4499k5310l4392k5849L545
33969C3428L3051M3520L6285K0149k923l0697n3978o6178o8660o1014l8328m199K5707L9417L7614K4055J293k0162
33951e1620k6190k0324k2672l6983l7383l761M4970P1174O1354L2852R258O220K9125O3459P6387N0864J2700J168
33933B60598J7538K7551J2650r260j8248k0380l0766m9850o8280p8051o9352l5101R444L0319J5164m670Q535M8408
33915D6249P1019M9600P076q990K3226P5405R3933N4009j1454m7150l8757k3253l2242n0306m6237k2735p727r407
33897A22259j0210j429M505j989j5851l2795n3187o6070n3223j7909J2284K2273K8202M5957O1558N2550K3618j146
33879A19397j2693k2501l7974n1402n2774l8932j1773J9041L5905L2251K8233M6866P4229O7971J4534m4021n6495
33862A09862k0249K4528M4077L2588m825n9725j07184j13433p2913k0950O440J2018J9363K8921J9087j0780k7510
33845a40685o433L2987N0027K9220j1251m7860o9707p1650m9225o860L8917P0532P9951O9441M8525K9169J6334L721
33827F5153j4258k9334k8210j2860M9N60n632j0615j2954r542O674L3411N4992N9211M8334K7588l964m1514o6456
33808F0633o4221m2691k1432j0000o827r156j0529J481K8355M9342M5178K6310J6906J6799M926j9608k8947p693
33790B8826K2721L4868K9016J9437P139j1517k3864j5011M325J0446M863J2433L6408M3266Q285m3322o2530l4710
33772G1079P823K7100J4543j4573m0868m7681k6306J0224K8423O664l6073n8744m6304k4619k3214l7767m0573j8711
33754b49577J2020K8298K2760N963n766k613J1744K3501K3875K0814K8902M7233N5841L8834M889k1107k3227n593
33736A6791J8888M2278O0966O6793M7551J211n2175p9744o3870k2524K456j7076o7347j03514r1512l9377J4442M1001
33718b24762M2939L8296L6138L7595M9712P9068J11631J16808P9018J5353m2504p3869p4695n2753k4632m932R078
33701A17489K9642N0448M5617Q536k8886l4760j7803p149q030n916j931r694k1436j3639J0258J7123o917l6299m6838
33682C9815m6353m8278m3339k0089Q442K2162K1580J7845J2192O378J5081M1312N4301K3280l3631o4475m6122n007
33664d4906K4837L5773L2452J1263k8700o8287p8246m5178J5036O5183P1488L2765j4989l4154k4649j5094j8997
33647h4403k0624p917M277j510j4420q265K1128M9297N3943L9353K6677K8369L6792L3982R163l1193o6801p6950
33629i102n4965j4905J5695J5988r617l4042l2246l374L1734N1273M9033L5296K5020K2336J5772n597l1801l9819
33611B6679k5750j3600k0589k9261j4171J3345J3424k7808p5152q4093m7048Q688N4046P7761Q3636Q1351P6695O4827
33593A62980L8379N099j3219p570K355p925l2373l7817n924L8496M9464Q073n7228r9617r7838o6958l1836l585J5240
33574a41804J8868O403o827k807J6481L4145M3192M9560N1882L9730J7728J0180K8985N3154N5137L4432Q415j8649
33556B98205n4915r2879j05658p9229l3718k402L000j469M324K2372L6470K9081k116m0906o4459o0631l5921p285
33538a88136J3386K5447L1046K6457Q917r776p819K2017N9307P5158O0214K7656m586k4442k4715o066J8843L5778
33520A38686M4370N3462O2099N7448L3130r90k8206l5355j7948J0374J7700j5460o4228q1949o0377m0722n2410o9181
33502d9557m9904p19L4935L7086K7473K8500L2981K1841q467m3864o4327n4611j7539K0360L0872J5009j617o299
33484d7847j4175l8540o4175o5521m0942j2083P162K4738M9497O9435O3818L5584J7601L5511P0548P6289L5302j8198
33466A84004m2114l5932k8992l3199l3002j7698L792K3736M5316O2616N5552K0497j3855k1022j2681j7573l4289
33449A05156l1788K328L8479M0157P041k9159m2775l5423k2260j0015N367K4919L9450L9359K6918J3224M699q49n024
33430A69804l793M783J4338J6516R292m218j9753l0886l0823k1027j2209j0453r050j629M656P54o640n337k471j9133
33410D2721n5531q0106o4924j9893K0064L2703K2078M147n841K924K8540N1700N3267L7843K6565K5803K0145K429
33392A44634q220O415L0501K8333j0677n7947p8924o6613l7534p121K0640M4996O1072O2849M9603K7643O319q215
33374B07754j5968k0220k2755k3067k0516j5233q364l249l677p945q274j219M507k078j8269l0175l1748l1675l7276
33355h9447m0006k5424N249L0910L0178L702k4253k8010n857J8558K2283P018p712j0824r891j5977k8496l7933l5423
33336b41355j6766J4632M3995N1976L2702L120r516J0386N3514Q8307Q1576K9819k9050m9062k5337L443O083n111m60
33317D2896K1632L4671K1488p119k9434l4363k7272k5915m7486q7015j11626r1172l4852J6847L8688M5032O3008
33300b11992R4597J15242J03510O3189J7688j1548k0247j8162j5251j5010j9207k9284l8817l4079j0626J7483L3286
33283B0772L4336K5678O400k0949l6128j9132J7165L4156J4283j6804k4706p888Q411R857Q227J9874M1151N0790
33265A65493L3644j969l2386m3120m0958m0426m4507m3906k9602k95L5933N9618M8582K064m8561o7672n2204k8852
33247a29124j8729j9488j9404j1574O224K9452M3125L5692J7024O598M650n046k3554l1784k2209j1154j1061j4519
33229a74881j6456k5815l9261l0234J2050N4823O1342M1323L0842L4854K7047M286J577L9150Q4408Q8446M5449m545
33211B34405k5363j9737j4742k7175n1380p3569q4821p7979m5718N853M9604O0304M3532K6139J9925J4373M992K998
33193D1641R900R530j753l510J2743K2842Q487r165l667J2296J2271O505K4080N4822N5184J2721l7509o6017p7847
33174H3554q0317o3726l0626o295J164J7140N2219P0655M0748p320j3733L0019O7446M6439k1480p5895o8082o635
33156C5275M9326M7722N36k8960m773L5094L0337j9856n6747l9872M833K2268p597n4591p4954n1581k823L9004N4468
33137b2891M4110J7117j4711l1734j4122L1963O7534N7121Q670l4638l8454l949M1962O9624O4805L7788J3499M486
33119B98180n28j3667k5857k3156j3683j6581l0207l5396k9383l1518m9867o4312n3273k1576P517J6454L994j5377
33101i8236j8011P994M2055M6732J2888k5125k9854l221K2893K6395J1443n243r246N137K9648M5735M3185L1168
33083A36337K1964J1387j0821l6318m2442k3591j837K104l859K405K2212L1465J3959j4783k8349k6164l1514n1768
33065b9613o0983l5853N905K4226P387j8205k7443k1540r333J0220L3128L9587J8445j0839k0071p154Q236J4239
33047g9661J2168k01k6646n3910n6881k7837J5169N2054P6498Q4217O5657K3781j3727j7419R960L3354K2298j6228
33029A02646m5224l8468j0015M580n038j2087M105K2413J0248k2432l1670k407L0539L5293K4602K3402K2024n113
33011A07398m8220o5738l9903N37J9481J1736o306k1668k6470j2797J4264K8962J1705j8974k2363J1815M5750M1405
32993C0614J1712L088L0943N7545M3608J069k5714j9226l197Q09L033K0224M1966M1711J1611l0564o3842p9324p7384
32974a318o4728n4541n8208p4190r0027r2907p4077l1160K3879O5756P6841O2395L5643r67m2727o3061l6247K0180
32956c99464N4902M3638J5825R197K2548L1621K9581K5889J8426m577l7803n7759n0570k3627J0769M6085P3518Q0291
32938a11510O2636L0326m048k9518l1657j076M6074P1792N2611M676l5301m5215k6630Q413M4104O1192M9487K3274
32920A69630J1357K5785M8548N4390L8878J5957o419l4494o9245r0963p7147l4168L625J3377J0153K1226M2894M3459
32902A86843R368l3695n5612n8114n9122n5860k9207J8752N7197O3145M6636L0824K3732K1249K3163K9355K8646R192
32884B56492k1828m2965m3481l3662l0573m1846o0891o9191m8452m089K7270J2104l5902o3841l7959K0842O5798
32867a52174P0945M0039j0415n6860p0750m0109J0945M1317L3237L356k1976k8839j7411J607J2001Q135N582K0750
32849a50620M1564L8489P811j8022j3454O294J0048m952j3782l252R421K394j8460k3004O932N0239O3276K7432k7872
32830i518n8016n1197l0327j4858k952Q182R063n485k5405m0175m6486l3893J2456P9061J18380R9927N0111J6596
32812G5464Q635M59j9003l3087k9099j1283J6740N0984O6917L4875l2969q0575o9364k0031K0768L2842K4537N056
32794D1866j8895l0399j3403K2826M8392M4814K1047l475k0723l4313m4701m2657k1595O537J7639M118j1509l217
32776c7648K4301M2321L4281Q272k3092n3360p1404o3687l5477j0055J036P006R897o756m5937p6414o5170j6139
32758c78025L9511P5265P6725M0858p605j9992K3620P7842Q0084K7012k8739n0036m6921l9014k7360j2734n628k185
32740a77322J9203N9227Q2794O4435K6022N773Q471J2262R663J0803J1729q458n1628q5108p6642l4160K043M403
32722a16490j3473j6584P735L4856L5891J5651L254R341J3979K335r795j354J9532K6963J3690n107k0231l8477o1354
32703i9638p3136n9731k8889l263J890q894j5973q57L5455O9657P8109O1420L9920K6995J8237P015l645r569j3181
32684B1922j6179j6429j8976l5417o0516o4892l0550J6851L5495K1949J0007J3733O177k9312n8545l8586J8430O0218
32666a64620O5388O0325O2053M6913j825m8368m1739J5383O7746P3592M2494P710j1927j5718j0257p507j7857l2927
32648H8859k8254M196L6990L5801Q13l5191m7485m2896m0292m1936l4911j4952M111Q692N418J3982M0773O7782P0983
32629I2483M4175J735l5262n0821m0602j6617n33k905j3001j7196j9117k7570l1927j0711L4655P4736Q6222P4514
32611A42258N6730L9319K0216k713l3823p4194j05939j01323o0216j8501k235O583L5139O9192P0088L5011N686J3112
32593I4390M1800N7436M6806J9804q836k7653l2599l2982m1600n2854m6105j8727J530q953l6617m8590l4577j4557
32575a42884r607k0238l1704k7922q50M2000P7869Q6045O8110M5661L6901L9407L5387R734l5396p9271r7179q1290
32557h5227m6332j2332J3741L4615M8328M8483L6977K3819J1278j0233m2797o6298n6278j6295J9370K2174J200j1727
32539h7534n648l269k3101m4508l1081J5351M8685L5384l350k2916j3400k310o766j1723j110J5202K0304J7604K0588
32520h3598K7419K6561K0497K1247K3839R236j9715k8842M939N8333Q7783P9975N5480L0197K4l4054n3424m8587
32502A77310l9100m7291o2804n4114j3555K6742K8978r126n1226n6439j6296L8533O8567O2156L6650N975l4651q2249
32484b1940j05150p4843j2023K6768J2611k7387m9960m2168j9165K289J2392O315q743j4733n538K015m793q564J5398
32465c17219N6773P5733N3527J5918j852M322J4101J5529J2595M719k0129o2620r5764q9279m9346j5866j1942j3451
32447d24251J3086N6271P2441M9517K3676K2396K5535O421j7974j3193J4755K8181J7969J3702K9204L7956J8829o430
32429c1909n303J7745L0648J7643r018l3145m8693n1896l8198j2387P753L565k7763o5590p6788m4503J0892M9688
32411c07259N5239M7298M9811O2292P2067P6854P8570O8870M1768J2664L297J1165J3748J886j1629j8510k8493m7749
32393A81889o1257n0669k0749M071N726j2699l4312m2733l0847l357K5586L9609L0138L978j8654j9488L52K1364
32375A7948K6907J8379N663r169k9385n0272n9865n1996l0398k364K2939L4206K8436J9580K2997L1786K3693o420
32357A2665l6954m7151l7745j7092J4107M8847O0695K8732k7865o1487m5902J65M1583O2426O6043N5726L1815K662
32339A51270j6788j9581j1482l97J0574J9043K2768K6848L9897N5596N0072J1669l5365n5126m4236l1294l2833l4704
32321A05931k3694j0291m111P573L2245M4123J5741l5571o6964o7313n7228l7294J4847Q5340J12961O7516M99k1270
32303A63040l969m168l6850n7615l5122P012L2443L6689L1535J7883j469o395J5656M3646M7212K7420R419J172j3711
32284B73828m1252o1232n5849l4432j5668L06K3930M8317N0224K1579j6339l8037m1104l8256l1668j1075K3957N4683
32266A11912O1882M5732K2530P836N697P452k241l0223o1630p1185n4064l5210l7882n2127m8626j8189J8815M0888
32248h8633M6696M5150L9726L0157J8861P369o186j9511k3218j2584L755J3754J5184J2073M469q081j7264j3387k904
32229D5426n348k6682m6333m1404j7233l40k474p420J206J4488J3310k145j5785k2555l0694l6986k3916J0034L9507
32210a55344M6322M4121M9609M8598K0136j7188j9850J7243M6206K8193j7712m6621m7151m3087m7066m0901o920
32193a41412L8989N8647L4646m595j1257K6810O7317O2449J7783j9394k6391k7914m4540n4126l0132Q499K0936L188
32175b0497j3102j3689j5202k3610j7124J6344N5327P5398P8229P1505M4557r465o3835q1275o1038l6069k4447j0524
32157d8517J8801M3313L1833j6251o7461q9139p6730m7381j6932J0906L6462N3292N1463L1438Q444k172j515l040
32139h3186j1617j3331P914M4480O2565L4452k4235n8652k9104L9660P9109N3593R29j7670N889K5307J0847j1279
32121A15671m626J8957J5684k4606n9855m8840p92M0840N0388M0098L3548L4201K5453l676l8975n1597l0475O28P845
32102A19871j2217k9642k3114q313j1117k5842k3000M445K7962K4406Q896J0767L1216M5474M1204L2396L1493K6971
32084B71856J568l6781n7679m3200j0796M593j1266l7130m2331k3867r289j9357l6522k3363K7587P6536P8578L5007
32066A44144j0490k4977k0132k7441n3641p5810p4695n4215k5453R183M2803N1068J6560l5943n3294j3264M7277
32049a58320P6928O8545N4888N5185N1770K3666j9021m7368m6829k4623O247L4017M3879K5129j2698m2656m5154
32032D3585k2600J2241M9919P8925Q0219M4195j0084m8950n9828n9810o4944o5944m4984n557K8906M2113L7693K7111
32014F2206J7850J4479J9221K7456L1700L2460L5443L5706J8141j8304m8964m9237k5702q047j2598k7250l4199l4968
31996C5393m4901o8303q7939q2116m9536j1769J1802K5594M4856O4865O1013K6300r187j2373J1574L1798L6389L8992
31978B2452M2972K9133j0359n0514o3518n2842l9040k6893r889K698p213l0568k9635J3710O6052P7584M2508O649
31960a6713J2352M8692O5829L4075k3640o2865o9977o7578o9598n4612o39O7591R2595M8360k8391p8053p4934l7810
31942b15316K85J9024J6964O375J853P490J7068K7208L9138M3604K2057k3161n6394m8668j8756p298j6983j2438
31924a97948J8220M0310K7353M263P433K7495K7839N394o750M954J4212j102k5987l4543k5101j1272M478K8177N4868
31905c7707O9605O4822M5416J9876m791k2587l0625l0877k7322k4312k6292l1228k6462l782K2147K7628J3999O077
31887C585R990q83m0596p5918o4389j2473L3061M3563L1132J8692J6485K7244M6128N2199K7131j1970k5960r060k507
31868F5454l6368q3018r3355o3199l5686m1700o2023n4248l788N9010Q8752O9547K9466Q565J5837K6677K0684N983
31850h3410M70M726N843j738j1989j8387j8789j2958k749Q532K1013L6311M8273M6423L3214K4306K3986J6097q175
31831A10999l0035k9923k0851k9051m7742m0579L003M2476L2700j8703n7720m3103J2849O2300P2015N1497L3570
31814A03702L3654L6508K3796K092p561o32N543l659k3894m2569n2914n1809l4223N58M0582O5798O1576K8358j7469
31795A67437n1501n7080l8353j4806N70J4338L8492O5363O6545K5235l4012o1361l4509J4578L7139K2757q72j6326
31777A43634l4518n6691n1267L537P2897R6287O2412K2027J9682M0620M1340J2561j2232n580J8806K7345J0249j0300
31759D00809j4066q615j1462j9550j7208r341j8921m5397n4504k6247J2605K7023K1403J8831J3124j8396o4448q5967
31741I9673p4364o2797p1307p9203o6082m4784l4496l1317k5845k2356j9318J584M2013O8390N6042L0112L0172N2387
31723a51496O2867N4744N1080N5326M1636K804k8343k2680N079J8062K654k3583l7986l2377j3343N048J0367K52
31705A11j7885l5096m5001m2052k4166O57J6697J3686l308j7097j1952J1495L3603L4594J8573R957K2161M0838M5186
31686E1001L3930K0527J4168J7021K8260L6610K1027k2949o5783p2031m1469o839L228j5194m6850o3904l8440K5467
31668a22220P8052O9165O441n4979p6781o5289m0148r619J8591L4642M4015N9623P0063M7794j183l1553j9948J708
31650H374k920k1541j9436P234L5653N3525O0340M8659J7220r058m784J7283K2038l19k9431m9850o2277o5612n6441
31631e1343m1962k7310R70M7615P6325M7762j2743l4170L513L9822K1534k4762m0113j6893N732O552m66l365o924
31612a0226r983J79K5426N0871O4529O4189M4871J344n1911q2642p2899l8401r537r14l059L140K6370N4245O3961
31593A19553M8110K3866R525K516n977p622Q057K2801N133l9689o6785n1065k0977j4202k5676k5712r030O750J8680
31574a744L8016N5590M4789O642k1219j5247J954j234k0167k9548k5455k2858k1606n717K3995M4575M4364L8549
31556A33679M1351M2417K5246m873k7490l3716l1328k7346k0558j2459j3122k9486n3386o7584o2840m4975k4074j111
31538b11655K8993O1835Q0203P2304M6862K2002M692q465j5718j1330j772l936k2512m3037n1838m8209l2699k916
31520a37196K8636L3082N16l6880l7391K444M9075P0784N7278J3454m0134o6990m3941P975M5580N5927O0386O7295
31502A29900N5659J6617k2187l3636k6459k2072j9756j0346m570j7360l5591l1206j283K9848M3871M0509K2331o265
31484A08004k7098k1958m88R155j013j3213j7579k3167k9837j9597J0631L4036K8938O881j1445k6227m3299m9333
31466h6609k9824M13J2692M907J577J5477L1723L1444J2287j6930m5374o0309n1229j8861K5279O5143Q1291N8769
31448C1866R075k7231k1274P415J6646k665k2632k6013k5547l1946l4606k5387j3646m302J2568L5449M2040K5769
31430e4421J5184L1344M8684K9661j6702m4051k9384N447K9671L2976J7625j3676n4714r4421j20640j18023p3398M90
31412d08348N9594P1229N3973M9956O5477O9160M4646J1571p819j1276j691J8607L2838K1316m032r746N921P983
31394F9359j2895j5856K5392P2354P3745L8007J2311J0716P991o745j5169p618K270M929O103O471l110k2255m0512
31375B05488n7428p8920r3144p7441l4325M758J8550J6105J1691M378o529p883R951L5676M8679L8940J1308j7433
31357C2421k4166j9L0101K8095r217m1174l2879L349K9070K7496J4626J1147J8136K0377P602r280q212J2851K6356
31338A36680J1885j0250q518N489j0463o0422r6138q6925o2236n7609n5522k0086L4891N9847M1594J6910J3147J5963
31320a31763O356n319j542J0702J3023O604P673J6528J1905j6636m3831l1807K1465P1638P6901M7100K6659L4820
31302A20476M7698M1643K5024J2586n532m4801r2232j16552j04770o9443k8081O312K3895K7723L6800N9506P3193
31285A3445N2571R386k1918l0766l3262l3104j5063J7132L0871Q630k3217k7184J426L8258O1195O1758L8904K46
31267A49308l5312m9429l8176j0241K1320M0983L5523P695j9626k2672l26K4774K8165O773j7516j9555P24J6370M612
31248A23394k6694n0386m8846k2811J5885M5469M1194K818l3622l4752j2520j945o318j428Q444j4971p9004j31261
31230b27354j22043o5180r202K4999M5030M7842K1627j7012k4337K1097Q8415J22266R4755L1546q983R299N9273
31213I2038P6419L3868k5026m2775j7902L014j0661m4684o8620o6559l8407N359M3297N3199L0869o728l6151m0609
31195f0059j7740J4163K6729J2689k150N860K1555J2251k0696l8977j8994J7181L1131J1495k0649l7870l0578j1915
31177a06574j093J437J5362M8804P7897P5572M9688K8118J4201j1249m4730n4191l0204q920k2236n0662n2294k1497
31159i2571R060J5691O096l690j1085j9895k7407k7349j8735n870Q458K6677N1393P5373Q1317N9766K5359L919K356
31140A58863L670n688j8029k0038j1783j462N947N538q230k7585l1134j2516M103l973k1999j7463J0717K9121J6559
31121E4618j1428l0854l7786l6658k1796R847M0153M5185K5676N804K184P678P351k196j3857k0950k1354j6597j1662
31102b6642j1259j2956r336p33J288r192j8249p149J9726L6110K7962J3134J5986L1925L3699J1145j3197j5123j026
31083F6113M691k919l387J3474K3142n347o1461r3606o6261l199M0120L8747J4771l951j6680l3367m8322m9664m2271
31064b29377m0080m0718k7193O038M4839P2992Q3465P4029M8781K3939J3382O062k1456o4684q6570o5324k5678l802
31046b31355J987K1641O3315R7849R4108N2004k249l9908m6886k9978j0152k283j171N676J6236J7670R500O937J7454
31027D0395K8052K3004L841j5635k6063k7002k1326j2806n535m05N145J1814J7863K4987L5989M3239L1198l56k5819
31008A30580k0708N646J9777O077j6254k2312j3107q404j7645l0165l0707j4045J5155M6931O7133O1377K5383k7224
30990A77488o9786p9105n2493j1585J3500P883j8986m6365n9178n1850k6115N530K1657J1599p464o892J7252L7676
30972a37234L0887O078j0188p990j45L41l994k641P937K0206K4351K0895K1888L3695M1592K4544j2600l8351l4244
30953a4973j8436j6554k5777k7202j9286j3614p375R827K5550J4268j8044l2261j1018J5855J8813J2339K4766M7749
30935c5373M9909K8421J1166R610L833j7532l1857j4067K4831M9615M2527J7498l348j3466k0019k7182k8055j4046
30917C2465R959K4645J5261j0130k7627k3232n374J0229K0124L0083L6991K5463j2086n8019q1056o6643l0761j894
30899a11602N027o092k4346l8245l4801q233K4883L2466J701l8340m2634r61M7564N6176J9643k5533m4510l4622
30881b22459j1623J6899M8879O8218N2341M777l9458n2150l9851k1691J308L3176N5293M3595R434q662J748J2526
30863d7700L782l076J8998N6634P0517M3850m592m6736o4899n2809j8657J2950J8460j785k5986l3893k0439O636
30845h8745L1453L7494K3209P741R399J9253O793m5149j15089j53172j19488k2363P8613J20121R3233M5431K1867
30828d9399K1346J7645P29k2879n1603q3067r6962p3319k7088K94j2157m3933n9627m0354R030O3833Q9941P0670
30810b86900K7998J527M311J5908J9691K5677M8743Q1660J00949R0364N3023Q868j8255k1174j7631k7696m5452m6763
30792A4848k2096J4764M7273O5708N9551K5896j1991k1449l076R178m66o697J2538L7417L7055J6977N640P106k02
30773B87974k1182l2134j8692j916j1868m6973p4200o8015l9446k1891l1985n3106o0422n1206l8495k3541M331L9641
30755b63126N5230L6078L476p494J3260M3169N1404K6844r759k0431J0711N2517N8255K3066j2595k1448k2254l9690
30737b2787n9887n1350j1782L1193N3190M6165J3685k4182l6329j5861M283l536j8319m451K7969L8826K4377J9233
30719A0437L0995K4889j2343m2269l4188j2433j1066j6949O45K9135K7884p641m1043n1033n0442m5966k0506K9315
30701a92579P2206Q0996O8830O4391O9244O3108L8471N569k9652o7436r5005q8958m4134J4236N3284N7941L3887j00
30683A04299j9960j2517Q969J7913Q403P57O460P907j1452l5539l7740k2473j7155k7973l2998k1414j0045j0731p901
30664a13190J3452L7711L9239K1977J5494L3664N6364N6280L1002J663j4073k0063l1028m7647n0836k7306N747J5147
30646B3597q558l8880m5191k5243k96J1475Q129j982j0048j2487j0790n501O135K1107K5952J3331j944R7J4998K0966
30626a5133J3753J0320J5958J5920P128P828K1791K3704J977j2248J1639N2146N9722K0520l2176o0802n2208j4478
30608G5361K7064L8458R288k8358l5904j4636P222J8665K3901R541m1296j01775j13548n9547J1090M5391M1668K6657
30590f0758J0230j2596l7387n3120n6488m6999k2344P389J8486M102r916N69K1234J9185q735l0569k0909J1970M4473
30571b22183O7247Q6469J02815J01795P0718K0048k3328m6303o0568p6773q3909p0241m9691m2914m1096j7857K4944
30554b60827N3877M9901K8201N864j8478l9706l2421J4661P0946R3065O9125J9107l3009p0756q3264p0591m4520
30537b48825j5551J0074J8741j559l2006l1691O339L5472J6635k5798l9166j2516K3598N1020P6455R5348Q5560M6079
30519E8209J0242O005K2405K6449Q5m5289p9980p9665m8694j8771j4225k3806k0532j712J0303L132j1278j7803j4743
30500b39668p303o27n59o753o254J1179L4898M7840N3722O7394Q1502P0435L0407j1473l4871m5962n0224l4913L021
30481c8209L6505M0248K6550K4902L7608M0921K3843N20j5654k7678l9960m6511m2673l5015l0178k3665r269P611
30463g0104J6790J9055K3423K9851K7907J6632J2458K6115M0690K9127q012l8692l7596j4492K350p45j5178k5571
30445C4008k2794q439M644K195j3573k2908j3284K322O53k4668n8006p5567n8974q106M9734P6993O3889L5830J2592
30426b3459j7971o5106r7461p5147q692M9650P0025O6197N4532L1543J459j1556J883J7907J6388J3091L2068O3596
30408A18947P4314N0380J0666j8236k5373j7736j0844j5328k7387l6130m0020m5110m6721k9885N648L7034M5078
30391B9297L6428K9407K9185K6513J1786j6495m8128o2486m5735j0104J7689K8392L2852L2879J5678j5410l2916
30374E8832k2353k279Q577J7642L1641L0592k115m3287n4863l3211n582J1962K5075L6925L9939K9002M558k9580
30356A01475n5781m6557j617L6646L2463M277q072m523j2298k7216j7690J5429L2894J7092p503k2034l5136m5031
30338d3182k8572J0824K9551N556k6457l0729k1904k6188k9109n639K7882M0037M0032N6173P4063N1407r118n5604
30320E9023o2270n9430p3048p9989m9916K331L7634M5263M5684N2236N5689M4355K1406L45p686k442N117L119r334
30301B8087k4149l5017l7788k4393Q438M4343N7943M4087K1437M089j1639k5672k1434R754M6905N9840M2908J4843
30283B02582n773j1503k427J2344J6512N294m395J530P163j4542n7350p9087n0549R297N4948N8398K4181k6221p0898
30264F9504r2724q1254l6417K7901Q4410J03326P2629R669n1796q6474q7788o1439k0408J6341L4314L5946L4064
30247c0196L3139K7878J8870J3228O612j6494n5083q1091p1164l6435m785J5561L4587M9658M1931R095j9036j2077
30229g5802K3009M8414L7208j184l7377n4597n8057n5960m3346j2327K8301N6250N9031M3985K4386Q169K941J6015
30211I059L9647M9345K9823o548l7633n5947o2118m8970j4316J8924K1103o307l3076m0463l6647l0495j5521J1122
30193b09018L5543M5090M2575L3113J4991n403r171Q505K4027J6413r2N336L6865O5983O3848K4655l6169r0107
30175F6984j07277p9217l0896K650J0430O474M852J0210K7372N8671Q9472R4865O7020K4040j1245k9739l3172k8068
30157A43426k6132l5944m7674l8401l40M4936O6527N2144J4102k2951l7478k5433n320j142j6409l2722l5824l1762
30139c6397l2658l7801l6530k2477J146K4945L9652M5696N5077P2473P7518M5922q868l9756k3949O597J1446l824
30121A38212p275J703q231m4775p2347n9559j8979J6447L5352M6703N1222L7373L132l5239n8482n9402m2978j9123
30103i6246M053K4437M2537N2565M3977J7727p324j5400j5735k9057n3598o1740l6207N308L2346L7043L3179K7990
30085E855J4254q533k3854j9030m136K924L661J5988M3396O1915M7500R682j4613l372K3809L0193Q883q973J782
30066A87331K2526J3732l1010p5918r0340q2059p2610o2273m0731j5457j326R001L2814N6838M3501j2252o3365o6444
30048b48042l3502o964l107n456P95J6557M2994P8520J02455Q8836M1899l323k1281j8538j2623r936j3435l1271
30030c5422o1547q0900o4132j1100N2679R5103R4612N3752N415q767J9327N2711N1968J9249j3431k7154k7682k2826
30012I1855j2441QQ531J9731M4376O8206N6072N97n3196n4491q059L3173L2314K042k7298m7336o4772p3139n5665
29993c9492j3961K6608M6360N2142N9814O7629O0880L7302J1851m750j8268l7032n7692p1926p7594p4543n8034k7219
29975a17925N436K4283K6737K0963J2922O310Q581K1910L2115K3834N355n34Q539J0507m501j6937r656N272J0306
29956G3517J3712L1658N1608M3226L058l8932n9690o4585o2855m7621j5161J5340K0700L262j4414j8916j6638j7966
29938a00697k2724Tj3003r0q8k3300n7838p5548o0139k4670L397R125j502j2615j2243j233P383N388P796L9801R6999
29917b58525J35440J19142O6968L1320L5086N1074M3957J1626k0947l3003k5669j7917k7030m4310l5333J7762P7840
29900A27481Q3032K1371n1101p8311o3325m2162k7883j2459l455j7186m0260l7673m814K3324K5119K0955L1782M0125
29882e440J9131k1692n0212n6959n6088n0723l1544q563q411l0161l5159J254N1966P3625O2076M8039M9464N4966
29864E569N0996L9871K7426J3474J114j655K323l404k5690m6743m3186j3699K0777L9435L8306K9781L0051M1343
29846B06089M4835K0798k1393m7262l8589j6083r218j8330k3671j9421j6279j7201j5201j4017k6261m6271m6841
29829a04316j1837M3690R1392J10972R0844L1770l8300p5471o4455l6704k8134l5573l4318k0855j0233k005J8852
29812g4681M8206O0094M3601J7369n06j3841k8753l4890k3263p309p471k2814l3253k5169k573K2979M2548N2166
29794A2440N3157M8592L6321J2432j5019k7624k0096r216p220j33K8307O1733O5675L4346l085k5316l9988n2767
29776A52539m5582q621K7788K4286j3443m1285l5494j5643m573M246K3943M3403M3095K7385J6096J1179j814j9408
29758A88097j5245J9198N0308L8253j2327n5993n8968l2337r674m567j251J6470L9952M7444L5411K3884K5975K6687
29740C21317O260k6069m3472m2515m5208n5622m6423p302K1821j861n9647q9804o4547j4094K4920M7735O0376N8002
29722D3867M3372L6229M0500K8477j4085n0386l6267J2808L9235K4123Q047K1779L7107J2090m2125p2883n3898j2035
29704F5955J3812J5805J1027J0772J1399Q800O571P313O315M93l266J659O925j761j9507k1892M89K0097J616n1363
29684I1259r4402q7945l4982K5759N3993L7515J48j9260n518J7177J8441L740L921K5603L7848J5956k4744n2453
29666A2056n6777m6138k4144Q994L9831M8201L0345K473j6748j7548K33K4499L4110J8444r272k8690l5419l4740
29648e0290k2341P565L8506L9313R72m9560p7038o8344l5558k500J1395P150N336J6615K1069j654k9786k0983K1532
29629a88601M4377K1366l417K0764P5855J01795P8573L9223J1788o821j9285j5144j083n056l1476m4743j9988J7783
29611G5910L1517K3692J7615P982k7468p4423q6220n0894j4220j5793l4004k2753K0199N5569O0950N0539L7696J4291
29593G0185k0595m1496k7935L123J8338J0727J041M378J6709L0916M4408M9572L6852J2242o044j4589l1309o5669
29575I0854r7557r8027o0471j550N6617R3558R3267N8361J5330j0309j9869k8727l5252k3282N160K2013O638k7638
29557C9116m9974m5098k2306j90R008N536L05M344J5690J9623M942k3081m7630n4494m0808j4834J0964K9739M2999
29538a16149N1764N1161M1425L6479M6107N3119K8294k8736q3224j06085j00166p6771l2606K8303P1915O5848K4227
29521d5095j0348k4173l7929n5624m9354r745K5612K1025p031j9474j3339j4060k1807q361L0865O1460N8864L9590
29503g8924K6860J4939q672l0140k8402j2043n867r024J955L0061M9065M3605L0159K6968K7552K0175J4607K8846
29485A41720N8726P8111O5759K1979l4782p7942q6905o3440l0933j0232k135J044p22q097j1228k532P415M815l122
29466D7499j47N818j3099o1387j04009j06921p7160m6413k6622k330L5180O6605O7384M2086K2997L3137N9470O8552
29448A0640M3720p18l8455n3376m4339k2357o948j0658k0579j0074K3097M8808M7876M2010N7512P7949O5606K0404
29430B30118j9039l2363l9117n6672p1674o8174n4705m4649l3364j3176R506K9159N2329P5889P6533M4117M795j4776
29412G4737k6803n4942q3591p3217k2251K3816L1373J6319J2396K6879M1667M0795K2190p865m0093o5489p7942p2750
29394b34771m7436j0695J7360K6018K7681L6443M2688L0301J1575J6099M4299O2757N4090M1430M7390N5383L5964
29377B56576o204l8122m1762k7312p723J5942M0797N3107M1997J3362j4966k7198j8858O14J3755J0651M29J248J6757
29358B83090K8487J6445j5481m0570l8371j9630j5767m1183p2769p4846m1017l47J9267K2031L1312N3336O5485M3130
29340B02602p322m8613n0288k4029j1732l4255o4904o6699m3211k8106k8988j4769L0424P2242O9619L1639R59n776
29322b1207o270o912J0733M7636O8190M7754J4437J3583M4758O5437N1898K3866M206j3667m1305o2565n1920j5377
29304A73275J2002R010j1324k7736l9299n8124q3565r5161p2001j7956L2168L8625j656m3882l8689J5064P3751
29287a35498J00718R4558O8023K8743q533k0369p151m144l3776o5635n5318r787K1484J4395p626j9771k5447k9922
29269i5056k0523P383L1430L0863J4974M644K784P09k633n908j4163k3732j3513K7529P6851J02709R8947P4385K5588
29250C23268m6460j03512r6764l3667J7657O805m2552p1471n7017k3101J264P971K580l899K884K6595M7335M1049
29232a035J4571K549K2110M7949M5264J3869j6929k7923k4567j6092l264P873J160k7646n7639o5474n2239l5544
29214a73007k4442j6364j0544p864k973O988J0878j578j8346j9379q871q490j7551q256L0143O8147P1602M0596r40
29195i0251l4781n1723m4481j7702P411J5765J4110J1047l63k0599k3924J0722O0873Q2944O7990M6189L8316L3609
29177A05152J9935P035P934J7586K1543J2119j0540l9230n6306m4874j0695J9389K6259J4887K44q090l992J4685
29159I3041L5032L3380K185l6202n1301l3872J24K6140K8292R576j1203j9736k2264l1116l9380k8733j516J7962
29141b9591J8497J4543J5349P631j5980l5345l0514j1228M167K0961N0949P6897O7836K6633r203j6954j0782q619
29123A35247m818J1272L1233L8051K6421M11l4557o4470o7145l8530p863n703k2447k1166P805K8168L784n2572r1220
29104a28099p8880k7744K4286M9305M5226K8711K0416L2652O2831R4774J07333Q6263L3506l2060q5248j09486j03021
29087B0765p3890l4333O51J9342K4084K8706L7947L7639J6160j2023k0137l425J7067K4689K2896J7787N048j6290
29069A12683l3512l5389k5686j2285L848J9271K2956J3542P988J9091L7034M6156M4911L4490O935l4166n9565m8649
29051A19653k3389j7547k4677j2869J6414K5709o1l2033m2629l6039k2712K51K7087L5573K1514J1135J7750J5716
29033G8846j6382n3216n4589k0873J3278K5519J7899l456l0292m2857k7760q08J1112L835r721k6292m5023m5110o665
29014b32555M8459P2615N4065L0537L3306M9407N2718M3723L7859L5248K4591N428j2357k4506l3696m0360m3060
28997A01422m2662l7371k0317Q352L3073L7122K2235M916m588j0971k2201l7434m8869m9678l6529q937K7129N5333
28979b9975N7257L1389m68j4348r848n645j1583j8783j8940j7165j9069k0620k0103k4478l1429k1848J2006M5308
28961a18342M9797L3591K7262L7113L9586K1013m821k3076l5778m4788m0788k2922r916j4360j9285O85M0763O6086
28943a8180N2692J7003l129O279J8759L594k8774l6742o492K2737Q956l6749o8543o4154l5995K650M4904O8405M8373
28924d406K61k8072j8869m064q736j3553L385K3624J9475k48j1207j7542l5866n1746l5276O120L1828K6631J7313
28905a00948K4299L3048K7615K0217K5078K6405o2m4283o6413m4750j758K2666J3687q541j4997M089L6044O1347
28887A2743O6258M7070J4462p653k177J8404K3153J943k2299k8606k5781k9414l0331j1428J5462J9312n256l0103
28869B5759l3811k5012j9239j6137j0507o055m721J926J7653L1643L6155L9248M4159L1082j6414p3711r1203n2717
28851a21902M599L8728N1421P0912J00179J08704P6683K3714j7603l9579n5123o7985o8159n2557k9790m225K4933
28834D2950M7214M6368K8565K1111L1354L1831M614k4293k1971l18L490j3695k0029n211J796j8773m5121m6674k4047
28815C9161M18J1494M682j9875m9350n8956l7467j515K6208L8612L5162J3764j1082n526M0658Q4132P2367J0519
28797A93406m5275n6722l5355p587J7464L5948L5887J4151j1936k5173k6249k0635n934J3630J8019m289l5347m9464
28779D539m4303l1425r552K5597N3275M3558M485j9248o876Q871p730m1579n2087l4192j9077k0764j9295l225N134
28760a63894j5350m8307o0476m3793j6026J0562L8565O6248P9221O5992L1242p731l0228k2154J0248L7463L0836o811
28742d4393m3122m9699k5543J1074M1546N5026M9269L0762J0193m401p943L361K5457M2180L9246K1371M706m883
28724A54207j1744j1067J0559M9866P9497P5374M0189o260m7130p2560p8151o9733n9578n0302l2945o369J4999J9754
28706a394J1468m961l0958n7954o3286l8467m278J9818M3023P8071J06221R7037N3895J0803j1730k0282k1752j3457
28688A51817l024r887l7718o5636p3811o1254l6570j0913r56j5478l5560l2096o755J1039J1913J8129L5931L3595
28670a27234q006n3725n5737j6705K1311L5642L6434L1636J6031m376j0283J449J1703R979Q925J9172K9213K1659
28652c2912l970l3259n0886m7856k6865m223O286J3514L6084O6025O8231K9007j6605k8324j6523k5516o4651q7260
28634b19703n0347K6904Q3474Q3960M5404J664l3990o1802p1984n1351r356K3977L2276L0200L8066N1924N1694L0774
28616A784K796j7534k5355j7629R579M8245P3746O4963K7970p482j7072n395Q45j7560n1240p2103o2133k8417P945
28597h4047K9431K8260P490j6348k1421k540K0107K3699Q670q092j8643k7539l3631k6587m838J7684K8940L1849
28579d7556L3898L3506K4452Q008o259r814k745N612M274o745j2842LK7679N1839N9573N2233L7179J9552J360j7979
28559B55228l7676m7659l4403m322J2547j26j7893j2024p20k5417p7703r5502m7290K1454N1279M2727L4737L9409
28541E6646L9740L2782L0356K4959k039l8860n0874l5412l0184n4077p4665n5311p442K8267L4072K4736J7906J8326
28523d1074K5154L3874L1613P635k8503n0725m2378j1777J9637L8133M3360L8345K1338r071m4033o6701o7655n3871
28505a56699l9265l0531k5552j9622p575J4062M0116N7815O1977O2590O9200P5926P1865N7689L9747J7703p240k2777
28487B59429k3164k5677m4846n9272l5515J7099N0351M1426J8555J0258M038k2090n5736o6438m7435j4880J9950
28470B6053N1672O5615M8781J2030j9372l3328l3323k2964p615k023j3560k4347j3298R204J3971j700q603J0390
28452E7583L5392L7274J1708k2670m4322m0280j2543J9437L4495L2605L0730L5503L6272K7304J7058R506l182k0035
28434B41835k4626j3134q814k9207n5932o0648m7745m2477m4212k6364J2383L2787J1339j5337N129O4090R5960O3287
28416A58314M611k0191o008M768j0200l0043l5557l9731n7275p2734o4074l9208k1527j1380Q149L2317L3186K038
28398a64545l2362l7487j0737K7197N4323N5991L1047Rq839Q831K9968L8488M2576M8127M0585J2976j0595o970O822
28379A25405j808k6843k9782M15K9577L0089J7973J9507K6815J3264k0751m4852l9459j8224o572j2992k7020l5326
28361e84l3245k5439j9582j7661j3114J9J5613J8518J672k2629l1318j0536L1885P1651Q6570P3475M8403K9185J8551
28342B21434O435j2635k9434k9139p894K1716M0609L8936K4763J7138K6634M1826L9865J2191k5573n1938o0368n6587
28324B17979m4301k5856j2697j9413m3930o5403o7032n1651l0045m463K8032O3169Q9203R5405P6734L7186p010l7378
28306A98529n3142o9706q8222q2392l4318K7921N4451L4015N727N811K5634L3129J6866o732j8571j4490l210K934
28288C4234j353p422j794J5176K8910L1579L0358K9077J7287j1170m2474n9204o0190n0082k3929J6925M5845L6190
28270B7963K454j2425M958K0380J502l9696o9797p7343p1696n4843k2030J5201L3821L0825K7900L7164M1573K1832
28252h2257j2149l3182l1458j9894q772O046K6340L9842L5521K0363R480M447p380l2068n4964m9931k951O8995
28234a23972J21632J16029N6407j0149l9447k9397p032R392J7364J1382j2838l4739k1740K1310M3397J0013m6142
28217H1470o4157l1611P146J3747m220j9579k3253k2425k1286k0518k4723l5686m3965l8339j9378N072L3181O7388
28199a61136J00306J12148Q7385L3125k0202l8970j3152L2923N8992M2256n645n2178p0868n7213k6402M83J2527
28182C4379J5104J8006J8518M924k0224l2368j2678K3114L9901K7510J2626J9046L2146J9095k4474o8282q6789q3742
28164f4188p1211m5059J578N2677P7841O5267L2725P363N078K4101M4056L6450n152m7655n1582k0901L705J671p785
28145C8979j0010k1960n3449p5136n8878k5528j3225j5600L340M1557N7026L7940K3661L6875M1790L568m6299m8034
28127h3383O31M0793L2165j356j3973L871K4808K2649o166m8795q6084r7466p0824j6668L1645M2578J6758j1569r096
28108b29482K3832O0403Q0293Q3092P3023M8453J1675k5268n1293o1945n1577j6950K3872L6031P633k9124l5128
28091e2460j2214N890K279o861l162R653J8278J9426J8212J7365J5324R804J054m353L417K2314L1505J3495j8928
28072I0038l3723j9260K609O994n797j8826k0915j1501M350J5402Q932j2671k8203k1705l310N419O21l025L030J0888
28052c0653J2563J4055K6648N0133O9553O7312L9075Q37k2198j9349n304j136p531o983P378J7665K221l7329p6994
28033I9963r2847p7461m2014j1181r218l7224o4680n6642j2863L0865M4356L3673K2293J5824L702j0029k070L5242
28015a30311P2445P3803M2276J5716J8014L1026K2713j0079m0522m6758l1810q880J5168L2401K5290j4880o4982
27998F30q5711o5888l5326k4958k8866k0527M984K6721L3448M0236O0432P8032O4381J7393k9615m0702j2473K5726
27980G917M2587L2082J0623o845j9812l1445l6859l1003j9709j1004j998J0797J3908r471m7917o6467m9813j9849o2
27961b34340J5645M1696O7381O8107M0071K276k9081m7935m6464j9438J9268M4072M3886K6801J769k6101m4559m1324
27943a18270k4966j7434k1198j5310R296L3389L8837L2325K5318J1765j3602l1432j7998J7728M0323K9946rk6178
27925d7470l8497l8514l0910k2941k1524k4294j9357J783L3449N8149N8383L0665p110k7049j6857Q805K7511L3496
27907d2282L5944M0485M3405L9381K3902o993m6439p0283n6720j3352K8037M4439L8761K6533J9885K3213K8734J6996
27889A73646j9822n5083n1504j2340J7804J4169M664K0904M4581L6388K63k2299j7272j5556l7359n7096m3046l660
27871b2618K9099M2061M1888K9850L920k0873k1562K364K9015M5857O0309P4332P0560L6213j3912n2304o8295p1737
27853A94167p4074p6615p3653n8228k7743Q852L2896L1765J0300j7302m0092m9093l4698L27L2091L7988K6384K4732
27835e1996L5821K8674j4763o4036p3094l8995l727J583q883m111K0347M1926M2570K4279k134k7824m3872m1890
27817a80125k3242p34J4242K1523K6264K9715L0597K8550J9303n916m4386p0044n4340k325M6404O0105M6196L1436
27799b6777K4366J4030k097j0825o309j447o834j1191M433L8222O4063N7120J8872k2766l7423j9660P133J7448J0727
27780A11085K784m451k4602n3698n9823k5268J8326K4813k739j3725J9589O1478N8325N785m9079o2541l2713J1398
27762a5056M1012M5279L0531Q786j4430l9212n7715n1516j2844L7882O8912O8950M9199J7369k9798q2228j05976
27745d0855p6088j1566M0694N5462M7113L8053K8139O026k2955l8031l0153j3034l342j247K614R309J0363P82j5288
27726a4004l0088l6340k8431q788Q333J0513M897R461K4188K7699J1033k815R488L3391L3625N266j7662q520J9903
27707E1149L9380M2165L7923L0000J4488l657j2363j1222j5405l6660o6482q0687o0204j1500L2251L8755J0411j7860
27689a9518j9934n713J637m5J831O569L267k661O996K9979L8866J8300j4475l6879m7602n1155l6255O647N6158P2273
27669H286L9260j7021n4022m6586l240L8952M2282N766k9529k5983O111K6759K1615J3585J8817K1695P356o419O232
27650G3916L7166N2534L8632J6125O858P015N29j6857l7508n5041o6127o5840n3017l7585l1964l4425k9588q220
27632b03397J9970L7373L8219L2406L0918L2171K5823R073n931n885M593O670p194k1857k1524j2022o155M147L6691
27613e911P9207Q8762M5190j6241m5049l3046j1078k356m827j1287j7824j3618R663L5085L3217K865k6510l8775
27595F7467m7697n8582m7268j777M2642M3514J0646q189O217K5199J9721m316k7663m9056p6763j01623r8136n4854
27577c60518N596M4680M7074L3979L0301K8325L245l8877n7450l0940J3382M0061M9456N7843N9539M2646K4599L2986
27559B5927N8541O4669M1750J7087J0442J3932J8596K6164K8474R884k0328l1129j7334j2237l8393p5813r4314q7576
27541f1658n8785n472N7818R1821P6857M2613K6394K3073N911k2879l7501l2566k7078k8539k3742o622R263J0571N25
27522D0004o609J980K6724N0224N2594L8784L3627M0452K9380j4649n8238o2226l6945k2226k8856l5503l1110k2285
27504d878o716K1073M0942K4670j5688l5824k1323m929j3090l1154l4064j9209N193L4293N5102M9846K6261J6639
27486H7144L0710L7252J1256k7244m2300k6346N576M2350P3423P9106N0434N757l1597n6502o7484n4232k4152j5551
27468G7600m9509q7556p7065k7284K635j1667l1285j7956J4561L1423K7103K0415J9778J8071J2047P212P459J2335
27450e1683K0887K9931L3963L3132L3419L1877J2020l3786q3851j03164p8813k9185J9738N4146O8625O0208L6556
27433E4020J8494J9925L0135K9520J8499J3513J5746P530j2238j4725J6785N2300N1278K0236n11k790k2637p7236
27415B17844j27767j26520p3244k664N7864R2070Q2020K9345k3829l3219q176L863j4216l2506k8495j8602k0966
27398b7198k2294o132J2616J0678l638l945J0661J6686Q945J1739L9156O8404O7393L3900p352l6615n3437o4615
27380E4952p2760p7215p5637o2664l4731J875L3610N1321N3985M2681K0408r68n090J1183L1714L7801K4570j309
27362C3726k8223l9040j9899J8034L9488K4422m924j4501l762L741M540J6912L9421M3855J9666o051q889m65l182
27343A14869j6052k6585l4822m1826l3394j843L1095L9917L0710K3124J0742k5767p2579q8199n9280j7781O076J7112
27325a44483K8696L2325J5590q630j5131j034J0520r06l1401n7238n4698k0511K1136L7612K0657m225p328J0422
27307a68627J9702k80l3388m0397k879N0692P0376L7415j6905m7761m0804j3386J3517K9330K9371J5535J14n141k741
27288a06257j763j687L327J0297J2689J3744J8069J6850J495j3711n892K2094M5318N2844N4015M9661K7890n882
27270A93101k6606k8653l7250o5364q7653p7808m7002k1421k287K4562N3693O2310M1517M952k8130m2585l0049o2
27252a14735J9823J3641L45J0685M7335Q4524J00250R1083O1436J8800k0601l8323k9654n931J5925K0794K708k5085
27234B53020l8408l2032k8304m2518n6411m6759k5111k1764l8869m8398l4208r163J0989K6748M3986O2828P9105
27217E4731Q1917N5485L830l5070k8141M603J3899p647j7478O060K7455J0510k5125l5532j5770K748K992l555p888
27198H8024j8109l9707o2563p3170o7260m8400k3776j541J4796K7528L5736L1631J2034j3809l4042m3551l8764j6702
27180b71645J2452K7270K2422J9160L3261M8148M0449J8085P112J0009O328q607j5972p547J202J53P29J1382K0351
27161b5258J8117J6838K8597L9662K7886k746k5494k6358j9569k6180m8602o8637o4545l1042J2289L5212K5587J977
27143a32266o876Q356L2570M5380L9237K2446R382M334o055l4844o6185o0459j463P3078J05817P8768K2095k7752
27125A05563n5693n7322l1014P952K8950K0008N854J4762L8703M5818K5393j102j3348j5870k1551k7593k0524K006
27107E0992K6242L8295L6800K7406J0377j9625n9625q9483q5459m5942K169K8616K8673K1139K0703K2224J5360N254
27089C4116Q673L0626N3693N5148L0296n913l6570n4375n7906m8579l5452l0728l1546j7986J6925M5899L6701k762
27071i740l2982l5582k9091k6820j2847K1263M6665L4493K278j1116l083k541j4635j1629J6253L9693L4513J5346
27053B0438O584N789j979j3061j1851K641J5613J4010o723m1322o8097n9129j3926L0357L9737K1758N280j663p676
27034f3220m600K5844P0912Q6281N0010o641l8304l8203l4506m5583n8904n3657k9339n607J051n028n234J1106L3700
27015a09922M1131K1323j7326n0275n2707k1464J3630J1566l4212p7932o3987J1796R3801J21323Q3825K1758j7105
26998b4777j6462O681K8637M1276M7815M5324K4051j4533n1119o6588n8605l6061p959J5986K6674K7286L1610M0221
26980E9457L2847l81l4599l8147j4698N705J0645J4188K3921K7051J5556J597k830m576j6496l7156n1854m7249k2697
26961g9716N375J2299j0675m3378n9072n4381m3121l0092j3082l082j2920k7297j6104J8360M0871L7919L6673N3639
26943a87784O1791L6352K785L992L8441O5715O2584M1722K1045M422p966j4875k0997l0947l9125m1701n0389p2973
26925a27908q8064o6042j2817L4204N5044O4517P5155P1721L8991n236k5515j0290J6125K1931K069j5914k195L6255
26907F2031N6140K9633j4303k2424J2801M3339L0029j2775m9961p2600q6145p5314j9669N9461J03319P8107J1728
26890A33397m1193n3017l3191n217R490m36k3401k7175N180M5699N0116J6006j2947q077O129o897l9591n3510l5920
26871g4555j0753M320J8810L9113M6572K4226j2292k9536j3747J8420L8967L0130k554l0606k8135n838m079l8512
26853c0049o8838m3373L4144J05539J23186R2381M7851J1787j2907k4258j6810M003J7440P484j6635l1535l2808
26836A66602m1490o6198p6336l9324K3263N1110K2109j9887k7926r252L007M366J1629K2037J7245j954j8181k7888
26818g068l8406m1656k4229j62J086j9391k9392j4702M548J3275K2557L8287M0903J6579j5259k6176j3599N351J9799
26799f7655K9718L6741M2329M4658L1738o381n3227p4658o1372m0529l3444k6580k693K3930L0252K5412L8158O9824
26781F221Q7750O6963J8400k7777n2815o0782o8551q5324r8282q4878m4324n405P176K592O050K1642L1540K6930
26763b52874J9962K3686L6638N2140O9906Q9745R9975Q1691K8860l7113p9358p9163n5170m0382m2260l8179j0436
26746a32332L0506O2586P5833P0655M7210R326l0677o2478q6211j02115j00349p0654j6831M4148R1335J07081Q7328
26729B4361M9215J7432J015m703K102K4081L9367J5350m0337p4553n3579m755K7927L9214M5243M1183J6059j0171
26711A54451p538J5003K0286k875l1430m8562n6612n3619l4066j2067o797m519K5462P3195Q8698N1679O27k4546
26693A46770l1244m2631n0942l3029Q378M6996O4235N7842L1802m320l5963n6811p1046p4740n3489j0529K2680K1467
26675f4574j837j8141j6311j928K0760M5286N5715M4952K9731K7120K6552P754k1280k8985k087L7554O0047N5917
26657B56245L5665J3794l446k0922m3947o1697n1720j1120K7757K8816o801m6654o8108p5132p6343o7426m3014j2485
26639b26538O278M511j0539k3173k1340l307K5098N6371Q0683Q4370O1579K8956J4396K4552L6570L0391J4896R049
26621A92803J0985M547j1768k3702k7957m0384p1175j03693j06670o6029l582L7152L0208m822k1414L867M8993P6564
26603g6077P1858M4683J1757r137l845K0656L5014K1232l916j6170j8542k5020k5760k783K7043K3715j6556m9051
26585I101l9976q761M807q898k9406l6828k3289J0962N3316P9532P4468M6643J3546j7077m1789n1141l9967j9540
26567b4297n564m7L926P444Q331J0882J9142K5453J9553N975k3P902K1911L1126K7490N366l0457n8350n7729l6641
26547a8607k6876m4303o5654n5342r137L9841N7655M2959K1504J4323J8737K0270J5538J5836K8801M4488M5220K6619
26529A71872K758j0945j5374k3325l7897m2867k2821R545J9593q516m8074o0271m2009k5328k9561l5080j4392K8042
26511a84650O3421P5361O9787N2459J8391l0071p0909q0546n7645k0412J3135L2154K6919o227m9439o8469m6939r093
26493b72773N288j3055l5021l2077q472J0953J2190J561o993l870J0633K4084K1877P452L686K4153N2946O6020O1611
26474f9807N2375L8353J2380j2844j2066J4156L4577K9316J3394P295O931o00r884o044R846K1396J6258o872m1190
26455I6970o9579o9917l7440M908L0609L6765L6188L2559J8883n143k8327l7851k6393K194K6315J9653j5056l8559
26437b3221j9422K4926N0795M1660J7249j374r330n151J1625K8391K9326J9553J6193J4873o727m6495o9753n6711
26419A6407l0426j8655j2390J2348M8493O3141M3123J0814n877m0J9312M0733N1441L7958j883m9344p5500o6049
26401H3606l3905l282J6986L5276N1324M5530Q711l1096l6031q561J1842L842j1159p176J0815K3247K3603J3214q493
26382A88293k9225k2968J0880K9064l228n8295q0577o3775n0744n8975n4611j4808K8225L4981J9517K5431N6026
26365d4789O5988K4318m2482q0432o5715k2480Q842J2135N154J2878L6003N1394M2930K1588Q716Q647R705P603J2096
26346G2099K6062L1064O206m1648p9170q2958o5557n4867n3159l4464J1604N2472M8553P604k1491j0767J6184K6371
26328a45862K5409L8953O0914N3907N565m3923m6509k094M7216O6601N2705J6562l1422p5102r4924r0585q5437r2657
26310c40683r0657n3065O274M4936M8360M7015O8156R5638R5505O4103K9895J7314K7400M6632N6578M0353j799m5588
26292A56367o6802o8070o5580n7366k9140J1105L3490K7533J6040J6365J3452r869l6607l4215Q89L9205N3248L8483
26274C8528M264l6066o5101o8808n0658k9766k0953k2191k2724j7914j3891j8738k8338k3434J0872O1465R4326R0367
26256a18760O2693L2633N138j9152k5003K70L8185N2837L4340Q310k31P311J8169K8902L9816M3134L0518O365j5521
26237B29954k5219k2951j7046j7284k4070k5058j1937J839m622k6448l3821j3658R940J1413R56L629J5237R140j5999
26218D3995k7940r586J3527J4338R020K8946O0106N1590o687n3512l2769K4607L6675j7262o6210m4363K1032N1318
26200I6825K0840k1983k9989j0333O320J1921J4533J1716j629j2272l128J5147J2234j8163m3436l1609P482L4086
26182E8562K5602j959j9621j8937j1944p709m529m117j5321l4949l9861j3957K5265M4218L3173J1979p88m732l587
26163A6788L657J1468Q486l36Q285M1229O8457N5964R912k9690l4432j2268R194J0817n646k3450k8947k6971l2725
26144D9792m6793n0799l4586j3212n300p601n100N545J8463L3052M8173N1611L4557Q938q377j9876l5198m4795l2273
26125e3779p262L240m326o892N594J7439J9932K5765L9314M1967K4089O311Q784J9823J6148k378j9331k9087l6962
26106F8389m3285m6824n3867o4196n7825j7738L8943P3020O6110L6587J4799J5377L1000M1625L3056J4895J1746
26089A61812K7920L5727J3718k1263m3218n9977r2183j19899r5885j9624M4758M6502J1570L52K7241N6381O2975
26072C6907O0283O4034O3201M0429J657l0978m5647m6560l9555k6527j4172j4411k8152l5886j5723K8488O5302O5916
26054A28606L2157p772k6368j7671J615O870j2070l7266l7981o631K7983L2884R384j3214j6689j0426r328j2091q267
26035B3725L195J0110k94k5408m2988l0250O732L3459K8440J1454J2285K4612J9176n058j8773j2566j0424k2328
26017E099k3171L50J9458R924l779J1078L7080L3392L505j2851p595j2414l5721m3106j6949R569L241j9944k4864
25998f7698q874O442J3599J9028J9898J0249J46K702R953N207q506j5871j6848k0999k0842l71L0364L8957J4806
25979A1342j5779k6409j9213p464O543K1459K4116N945j9240l0198k3888j3639q960r387j2398j4984j0016R152M0242
25960i2776P1346Q5687O9006K4721j5882j6416K0469M6904K3056l5210p8190q0065n4209k1132J0813L3231L4907
25943B6260K1364J6327L0984M6669L9751J0879k2225m8730o6552o9441n0618j8682M597O456m591j1068n040Q185
25925h5475J9425K4033K1966J3964J701q745r918m095n576k3005m2492m0324j3405J5243K5427K2070K1112K4178
25907d3916J9321J901j7004k3155j3586J452P763M50j0078r191M091J7318K3900L0880M2036M5801L1676R831M34P253
25887A27177J3897M921j8131l9379m0702j6515J6333L0959K1282J0228J6012K4160J1847j3056k4224k0455k4412
25870G9942l7531l2631k844J7065P2l0694l6452j7615k140M995K2773M9333N5110K8761j859r350k289l401j2579
25851F8666j3593m109M864J2625K7043L9022K3373k5016p4589r1212p6131n3585l1159L687M8057P1176N1577R590
25833i714j5923j3973n465o071p080L545K0355K9692K6702J4757q41j0631m343J2923J8590l04k6193l2183j8624
25814b4781j1487k4784m1714l8880j6695L076L190j3401l0451l4669k5630j3677r078j2342j4316n538J3617L0396
25796b67164K9098P756j4858j5849N493K4551J8499r969m0072n5038m8337j7180L4517Q7694J17247J15207R7121
25779F8716Q1540O9576M8869J2022l4442p6765j03576j07933q5319l7827J6656M7801L7291q1l0314l6373k8867k0121
25761a79147o597J3669K5924J9510R675J6145K9563K5616Q853J2593M8292Q0592O7530J0238n0072p3593n1028l137
25743D626L6672M5712K7410K472j4439k1866k0111r373O13n11j024K2298O0375O5729J2738n6688p7188l8801P935
25724D6579K0258M823j1426j9378k1937j4808M307J9902J4669j820r6K9421N8756N4724K0529q093p075R446J2707
25705B11488k885j8886k2880k1589k2998k2903j6330q445m723j293N037P166q09j0702j0492j903K083p791l1494
25686A9651o0050p2994m7540J4947P9478J08075R3687N3919N603l6499n0737k7410P239J3157j5513m7167n7071m9292
25668f8517l3003p574J8827K4768O552r260k468J1434Q519m493k062K0571M3223N1061M8522M4665M1380L6756K8365
25649B57266J3096q691l1156m9035n8270m8552j1970L2774M6372J7238j5935j4604M593j884l4063m8299k6838k593
25631A9449j199m23K5719N4714M3889n485m7177m7851j8269J0708J7905k325l8944o2908m7898j735L6878L9764J4632
25612a0556j4725l5472m2644k6727J5614O3959Q5086O4316J8447k1008l0771p358L1540N5982M4054j414n7123r7081
25594C4119j03553p0973j3173L6731N0406L1995J0606M512O607O606Q501J7030K3727J9286P156o961k5664m6902
25576i944n5705m5510l2293k7295j3349K3037N2315L5344r236j8168K6797O8311N3860N780k0827j6539j3457k4762
25558b1641l2916k9396k5523k4163j5604l048P74N217L4809Q1540R8855O1771N078k1042j2367l079j2617k7689l1154
25539B7805k3224j1126L431J9498L1141L3844L0943K7349J8966m616m1951o8312n5550r973K3161R364k9085l8641
25521e6976l039M0281N6076N2599N1300M5147J7134j7670k4659r33J8075P969j5786k7985k8544l1448l6533l2304
25503A2704j8856r655j1595j6499j3273P86K0713L6062L1667j872n1763q5038p6227l1121K1871N8678P0629N6607
25485f182K1378j6671l3799k6192j3944r914J54K9695N7469M8861Q495j6808L126M2163N1079J5062l6624o7655o5831
25466a6138m2690j6179L975J8544K8540K8279J6244N863Q567R738j3975n0703n6674j6597K9401M1966L7435N2665
25448F8261P5281N3912k3541j02070j21175p6474q939M2581O3054N4006K4942r893l4766l6613j4334J0250M521l5848
25430f6845p1619o4793k6955L782K1589M9759Q2331P6881K0402l9564n3991k9749k593J5522L0158L2350J2195j0587
25412b1727p737J2763J6895l920k3619k4055j6484j5129j5344p345P333K1252K9218K6347J0442j0810k5377k9434
25394g6731k5561j4351m47J711j3702k7251j7202P404K1108K3326L4258N0509M1777K506k7613j5036K2252M3501
25376C0458L8315K6086J8130P841p579j9549k3175k4451l0905m3251n4060m9909k2547J6320M1547M2868L4986L2084
25358A3209K8285J6214Q461K1124M6186N9166M7463J5283l0084p7804j06947j01590o9955l1839P065N0252Q6996
25341a8515R7119P6673L8110j0755o3582r5804q0164k7324J8808L5987M5852O9038Q7614P3674L2701n733k4944k6795
25323B21960j4354P528K3606K2244J1643L980o916l1075n5431n7861m3427l8110m5500l9437q357K0687J9156k253
25305a1917j1163l9O846r135l5158m4856l2534j9989k7922m6307m2745m570L7670M2457R098j9613q994K9908O1396
25286a27567O7263N4413L3010O989j6091k4703j9432j7641l2124n0080m4188o922L4819M8058L3761K5706M4938O8869
25268G9078N9235J2892l3073m5113k4748M518K2353J7807r757m3338n6219m0606j7271n677J482J9275M0648M6789
25250B8275L8533L4341M0106M2522L2513J5062o040l3128n9534o7816n0874k1215O012K5410L3177K4156N257m335
25232H2422K618R937J530j5909k5256k2652j5967r348l280k615r587j2545M959M3553Q3797J00740P9393K4809l4909
25213B81690o4431n1798j9116M467J2330J5016J7439J5979R918P79j3394k9809l6122k9310k7730m3338n3600l0236
25195d1266J0131J9483j3447m4363l6185p799J803q751r659J2726M3373O3886O5265M2111q08l8217m3524k0820l82
25176f443j131j3599k0325j5758l294J1032J7665J0636o21o25P408J984k5140n3365n8458m0253j4970P392K5048
25157a72817L4358L3482L1095L6965M5493M0343J4855k0771n0524o2184n0260k1493M227J0925M824M239J2240J4287
25139i0716N243J201J5990M0241N4698N2213L5281N694k6771l7368j1135K9920M7516L4608J8810J6490J1579q767
25121A94727k5343j6348L569J054k8532n7229o4247n5484m3547l1525k1319j8082j8813j1768O105K4112L4189L8428
25103i0053L6646K3095K433p315K655J9281K5913K0559R289l255q846J103J6206R631k4723n4703m7518r906K7130
25084e2378M7217N0580L4663J938k4094k1782l864K699K844K4373O4403Q3517O1059K0822j0111l3936n7230o6281
25066A24439n0604k6084j1842m907K252K307o423m519J6067K6639J230l7557m8340l1039j6711q896J6621N3648N8681
25047E4962J7799k3937k5253n196n592k4481k5066K656K7352K3562K709j0588r807j567J4415M2152P0157P2671L8891
25028B35839o908k8019j8383p694j6129k2267L276M4637N2044P671n0589q1732q8974r5247r7155p3513k7134J3226
25010b57051L1060L7146M4061M6915L5103P781k6320n2074n1164j8818K0592L3058J5754L35P725J9791J1066r466
24992a04506j2258N576J3919n780l2412l4000r706J3113J6440P872j484j6801m4754o9891o5298k8555R667K1997
24974c36861J6933K2004M3918O4199P1314P4674P9791P0620L3829j1399k8850q608K2218L4029K4305P388j0113l0114
24956A39277m6179m1697r783L2120N4181M1306O481k3711l5484l7179m2074m7627l8426q507K7011M6091M1380K4457
24938H1637J1094M640o390l2891o5290p4795m4053O680L8618M0734L8523N0060N6968L8277J1775R557K3449J4656
24920B03249j9647l2065L958M5961L7691j2375m5917l5065p482O676J2297K2488K8547J9025P513J6467M1305N0003
24902C42629J8479m3080r7759j11585q1199l6635j2217j3442j9610j6124p949J358K1984N5414P6876O1259J9015
24885A57414j3544j8169j2250k0921m5350o4395o0457l8904k2684k6735l8505l1653j906K2212J3662j7346l3859
24868b53390j2499L7275Q6440J05395P7767J5910l6646l7087J3531O7794P7254L4840k6369o6242o7991m5939k7567
24851e7524k3978j9928J294K9942M0596K8669J9222L3855O1128O8439L8356j1308m2038l1241J777J2544j8267n9829
24833G1709o8646m1419j1822k836q179j8695l5566m8840l3383J4841O0372O6897L9117Q161q899j3779n890J5912
24815b0945L5112K7411o943l8507m1489j9083P064K2225K9706M2023O1559O8730L7889k7820q7747j02717p5204l6939
24797a25675n674K4990N6666P2696O1438L4181Q780j1223k9292l8480k6332N391L7274M9881L8487J0168k6121o1937
24779G5218q5821q5506n7844j3943K9008N8861O9016N4955K0827j3596k6975k0716j6959k8056m0945l8434k2399o389
24761a49698K674M687M28k594R136L3438M3224J7835k4502m5455l3633j4017j2594k8929m3263l5956j745M1140N9981
24742a79843M0887Q551k717R947K4584L1045L3164K1633j8792p0625q7589n1320L608L5144L8525L1517K2299J1986
24724i7996O080K196j3525l7680m0067p903K2705J2180k1607k4794J7912O7541Q8428Q3554O6319L5278m799k7342
24706A26480j5201J1362K2784K2534L4399N5264N2441J3897k6769l2878j3764q334k8557m5285l1744L389L4865M9833
24688B24716M3526Q622m6526q4836p6244l9887k0889k8634l0873r746J3996K2361K7737M0565M4208K7338J0327Q876
24670A34637N6l6722o7806m2127K8643P4798N7628J1595j3581j4195j4804j9232r691J6127L2488J4401l0134o2099
24652E9982m9994p889J5889k848l1557k5606Q224K3171K701j7051l655K6358L7928K7717J8969K1481K2729J3932K832
24633A43313k452p566k2470m2955m8536k3682J8707M3827L3151Q931P631L3812N6586N0341K1423p474k2345k3114
24615B17128j9068k3348l8531m5593k3381J7789L9015J4905m1185r5705j21512j06080n7502r340M283j0912j4936
24598c13973J0987L8652L6029J0922p693j0002m060Q315K9833N3331O9589P9481Q2224O6111K9988j945r215n100
24580A63474j3735l0915l5718l1049m0945o9209q8941p7153l9434K043K8724L4723L0521L4443M8211M9748K4017
24563a1195j2704l6704m6586m6111k0796L2174P0282N0098k912k0412J2058L7933J8917j4246k2507j7484k4894l2570
24545h7659j8226K254l70j6456j4282M145P290j0751j9172K235L6655N6965N3639L1186p26k6566l3194k3985j2051
24526f9069m94J5485K9914K9268J4909K637l132j5249l7478n0833l8108j0358L657r800l5184m4604k5533P544K8718
24507b07710K7428J5548P955O396P636J4287K5677K9545J9037Q963J5855K8037J8505j2805l2800j7130K0681M9652
24489B4757N4631M0408J7244n769k0985k5221j9324l631J7929K9847J5727j7580l9373k7057R173L8834L9687J0810
24471A40107l0603n8532n5217k8117l594R18r435k2597l4435m1216l2785o184K3888M0095L9756K7834N069k2728
24453f7776l5141j7476J3726K5220P604j6025k4219k1867k2793k3313q920J7829L2408J7673j0370j8182L233K5116
24435a23273J9818J194N658L6904N7186M1772J3794N084O939r256l7140l8265P87M6658O1022L8493j891l5863l7891
24416E1730L126N7323P1121L0405j8731l3242k8790m1681o2279n2018j3880O030q762j9878J339K8034K5206P610
24398B663J2106L4424L5586L442l0898l9559k7790j1671M011J4946J0831n045j0615M290J9146J1057j3255l1196
24380a7527l5358l0284j1468K5634O0927O2036K5156j8137l9363l8357k5952n609J5202J6592j0312m2872m9413k7242
24362a46347j447J1234J9349L3776M3609K8116j0658l9956k9178J3404M8767N4741N0451O1156P4295N6158P252k9868
24344B44854k4627P842L8647O1307P5611O2693Q336o2638j05944j05820q0245m8298j8859k706m699p246Q743K8873
24326G5824K2579n703j7899J125K4378K8445K1074R854j7339n7361p2322l6350K2510N6192N1824K6991o280l9903
24308H7639n1531k5440J7773M3605M5583L5712R272m1514q8713q8967m3987L74J9734L4126N6274O1430L0320j4282
24290H7408m0462m8211n1045m1998r489K9868M6356L7089K4368J9687J4136K722n107k908J752j009j0966k0147k0917
24271A1127j2081j989k069j1195j1891R412M2186O0293M9245J9603m317n707J0283K0813R829j1301j7553m964M639
24252A54363j397o947M491K0556J8928J472j3813k5057m3608o1596n0821j895N6024Q4665P2628L6339J33j6701o989
24233B20775J8108L6510L6425K4501J0081p197k7399m0469l8676l0222k6400k1833n166J2114p47n1871j04917j15123
24215a11506p8386k7899J1055M0211O1033N5634J2092m7084q2019p4545l6394J1197M7958N4855K8968m428j7443
24198a56701j5094k0697k9799j3591K6001M4714K0698l279K5076R1768J30146J00342K6352l9334o1982m0315k103
24181H2202J4381o742m2774n9096m5127j3421K1781M6659M3929J1889k2485l3304k8607k9873l3123k0993q82N657
24163a09929L462J3806K8408J7404j4836k8077r220Q541L659k364Q129J5634N067o73J6842L1562J4900j1980j0839
24144b0504J1356J7622K825n154J483K89j7732l2557k8948j4966r69J3704K8132L6478M0812M7381M9956L7437J6696
24125A83341N958O478L175q047j7257k2876l1111l3828j6665P593M903l1810o9481q1562p9342q1148p8135n3986
24107c93800j8277N933J6705L2767O3471R5532J05800P7423J2868n6468q4203n0343J4281N7768N8684L8322K8020
24090D483L8586O0186P7777Q1180O7360L9367M374k7025m2653l6760j7819k057L104L840P475J2740J3895O749j0068
24071B84734l0348l7158j8721R336J3894j5178m9744n9828n0350m5115m6234l2498L276L6558L9067J3011j1977j2613
24053i888M015J2187O05j3064n716J9587L7819L5460K3716J5400O940p201j8065j3588M787K8102M9718N7483L3083
24034B61380k1291o9494p8421n8956m5415m3270k8486M422L0167L6228M3798O7389Q2588N9201P366l5228m9946m7527
24016A14505m1662l7130l9086m9015n0982k5058K0202M7554L1004j7172o3652q3936p0912l1822J1908L5243L3432
23999b16579K7083L3263M2337L6781K1870J7555K4645K2287L083j0641K106K8177L4678J0255k2483l5380k3921m533
23981i417R186J9704L4846M9928M8755K5139m708k0594k3517k8352l4351k3899L810K1374J1680k551P387K7258J7661
23962A29339k3243n0993l7296q011q97j3679k0104j6479j9399k7544k0427L307J6973M477j6508k2703j6203j1148
23944a50538n159J5272M8050P3001P5061N6031K4958q793l2694l6737k6836k0068k1960k2332k0368l5391p4967
23927a63470j06253q6863k3015L1295M1674L3228M5246O9660O5417K3430j7962k6407j3436n726m266O243K4039L1869
23909g5297K5764J9022J7248J0070o798j8628j1483O546J6466J5056J7560L3458N0326M7704K1849r934k7856k6014
23891A05059j0371J0436K6719K7632R950j4729k9999l0755k1865n668J5381K6294R942k4562m4280l5484k5624m3594
23873e5518p3436p3698l6700p19O55k2086l4557j9633J3364M6673O6710O5781M4966J5714q289k2036l0564m0503
23855a63876n0452m8978k5958J0623L6055L5531K3121K2668L5779M4004L7637K2378J73l0828n3665l9777O942M0092
23837i8531K6321j0623k6531j8328j6522k8315k7971o400P101j0945l8701l5754L856M4656N1557K5823m42j05J9080
23818a40774K2433q821m8552n2516j1454L9424O4676O2691N0780L8275K7292K1814J9009M822k4868n0325n2707m1711
23800h0512l7835l6009j2045L6193P8301Q6372O1594K2262j4977l5922l1445j1644k512j5609l2697l2555k1300k0270
23782a00610l1726l4886j5720J4123L1738K6927Q593n548k271J8266M1868N0160L5014N489j8950k3933j2123k88k505
23763a6382j6416k7799k5798r925J2912K9838K5116l916l3324l1153L899L6195L4449O828j5837j9086j2069n737k517
23744g0722m125j2399k1512k2302j4609n057M215J2365J0330p937k6674k1723L402J5972j572k4017j4636K9067P6348
23725i5586J00117R5879P0151L0640q410k7015j6884O237J5540n0k4187k9547n987K8711M6661L6221Q730j7122l1729
23706A82370l6603l6841l4217k5655r056Q314J3033L048m444O590K6475K9330P448j7564k2178q344K302n818k6843
23687E1347l9841l0847j1774r384k6258k6607J7171P4306Q4942L9512q189j6809p227j5424l2772k7619K45K5263
23669D0035L9195N0609N3897L7270J2899j22j5647n9118j08654j08572n2389k039k284k1901j2045J7549K4452P253
23651i9612L172K3239L7757K8204J2910J0894J2581J530j8711l4830m2783m1942k5508O570L4827L7700J8753L257
23633c1992P702K3093L0029K1706Q050K580R847K2964K9100J8793n765l1410m6545n2191n5194n1678k8497J3373
23615a16035M8921N5149L9479K6877K3786J4513o282k0372j4561l313p756k5139l5334k9572j7250r085o384l543Q921
23596g6980L7567P1200Q1361N3253J0133j1044m314M476r30r418j0592j4158k6759l1357j2397J1574O623k7955n4251
23577c968m4278j3906K266n573j9177k2640j7711j0749k815J702q013l1538m5460k4344K7032P3285Q2613N5596K0312
23558A2634N258J6100L2247K7239j140k4522j6133J5977M0511M1404K5521k747m4622p9368o8821j1098L9108L4583
23540D2131q64q553J9950L6572J2600k3864l6115k4251m326K1827M9194N1301J3897l0439l6746q924P051r931k9395
23521D1115j8737Q813J4663j2193m2608m3694j3934J9002K7497Q759j5815k3673j3120j898m856j6585j8915m500
23503a10679J1802R572j0809k6824k3190j3483k1230m4807n6599l7276M456M8188Q0001Q8897O6449K4798k102N429
23485g407K6698K9257J2579L35k839j7876n1772p7563o5668k0197K5928M3019K7284O65r189L731J8126J4786K238
23466d7865l026r224l2696n4283l2225L1470P6521N8871Q207j7374p596M180K119K784J3693J6782J410j5186j2992
23447a6430L218J0946o115m3477p4376o5813j1651N1354P5378M8663m57l7950m4822j5415L5595O8108N1204O976
23429C4936j0675J2682L4903K2801j305j303J5698J6412m559k2228k3902k2789k9336l4531k6642p875J0805K1593
23411a5315K4416K4559K4381J6932l179k1871j5412J5411M0031L7618K0990O550j4793n1806p9184o3826j5488K1163
23393d8823K2271M971n138J528K5898O3129R3222R3067O3376K4786j2431n1902q5689r4021p5748n1961l1361R21
23375f3905M8025Q0200O6992J5543l6595n6062l6196k95J4258o259k7915n705N3162R1518P5362L2114J680j5685
23357B30237l7372n4274m3190p541K4696L5005K4503K403j4706o582K3923M1527K0874j5344k7688j5914j1283k2500
23339A46774k6964j6226j3266l3435n6405n2414j9193J8579L4182J6880k2363n6783o4290m5482j5941J4582M4828
23322a46937P0018Q1951P8168N9240K3899j9260m5487l9695k0809j7883k8934k9592j7554j6507l3753m6615m1319
23305a91069l6166m9458o6348n6676j3605L9344P2256P3387N8465N6881P8011R4794P6913L3717K32j4035k8983m6134
23287H1526l8025P10L1232K4402M114O189J9999O558m0807q7211r9333p1511j8491L1670M7310K3910q62J0899M6435
23268b1286O0892M1080J8236J6198K0482R322j2827k9096l6648m1201l8564j9675J1071L5550L9346K3540J379j2762
23250F5037j2642p10J9365M5696P0139P4885M8008Q44l9421n4760m7964l2160j7268o804j496m065j9287m3383n5366
23231a1352l4845N394K3454m55l4038l4989q531M376j1802k9275k1302M438K4687K9333K1464P659k115L73R490J1494
23211d6542M747j454p823k3344m0403l7583j4969m53q802k0347j5675n290m204j593J7594L9919M1532K5831J5379
23192h3480J6692K0053K4053L1022K6565l331l7936l8656k950L0602L6739L1020L3132L5252K5163J4735K2158M1627
23174B22460N0075L3592m675m8544o9960m5899Q860M3136K3947k3371m8670l6997j3745l014o938j9095l1755l1657
23156b250j2161J0457J2701n769k6305l9625m6274l6176k50L8675M3705J9504J1379L4676M6257J2767l1180l2732p27
23137c328J1938q938k5132j4352k082j0727j9431l30L4610N2098M5014L3683K9833K5079J2803r03j1400k3427l7844
23118H7164m1713k1032J9860N7467O7849M4996L260l3947m7581l2279r48K0886J5449q397k4643k1775j3821j4198
23100E6597j4623l761Q643P708K179J0124K1833Q487l0413o0916o3848n6524n0190k1769M2153R9935R3202K1734
23082G0551n3852q2552o7818m1951k4592j5519q057K248J2792J4030K720p880m473L605l286k0851k1117P002L7707
23063b01293M0015J4466j3146k2518j1788R297K6003K5341Q982l978K697K1995L2728K6887J7957K0835L2253L6515
23045F3248K6420J1341K956j198j2920l3381m7704m4264l0899k3089k1978j5639n43R873J100k4455m7191m5374j4024
23026b47721K5809M1934K2941r814k9595l3828l3139k2867R605N1594O7103M0801j432k6520k9841k4653j4622M658
23008b09587K7721M0781L7259K1431K735n371R372M3110P4050Q4531P5636N2555J1595m3209q5968r3692p6366n9549
22990i2966m3411o255M9408Q1711N4490j6723p6348q0936l4836J9563M3382L6667L2019N0704P4523P1587L9310L136
22972B05025k0204l3678l6190j7239J6010L2715J5252j7415l9072n0257o3823p3559o3185l8439k4002k7567k8327
22955b63955o981K7022M4834K8254j1136l8774k7263J4115M6838M7685L4676L5908M6405L9335J2744l930O811K6737
22937E9325L0279J5321m186j6611j3012J0568L7141L4492m931m5212m7328j5542J5769K8252K8801K2452L804k5462
22919A13920n3199p0993p2658m3977J8596P8854Q2883K2916m5277o3923l2810O069K2129J5134k486j8116k1373j3617
22901g7928j0655k1321l0637j9818N491K5364L5891M6024M8547K3546k2112m5925j8646L4573O2204M7097J9116J0144
22883A10955J8284K4511K6674L7805N5560N4442J7802l4672o4356n3465j6646K0984M1846L5091q24m7604p6198p7305
22865G2884p0192p1083o7218l7570J1751N1535O3683N4610L7022J4954j0801l4479m6099l5732j029M2369O5625N4860
22847I5090L0161K2891L6685M4898K5796j3193m6755n5534l8894j5164q753k5902m3895l5062n33L0225L1438L190
22829C6689l2676m6423j7869M1620Q8070Q4927M2897K155k0797m4152p9052j06117j04575q1607n8140m1622k6161
22812c62833o831J7013M1609N4336M2126J2215q539l763J4155K2740J4701j738j5555j8845r416Q663L4095P2223
22794i3644J14377J23592P1452j1061n4891l4340O446K1287J8632K6732L7407K1204k1989o2821q2006q1353o5034
22777f6010l5994m200K1825M2578N1307K9142k1270n8217m7786j2488j9j6201k5145q346J4510K3131K0326J4498Q211
22758g0148Q238K0735L3761K9523J4862J3928L0222M3157M3484M2693M2929K7714p591m1716n5704n5762n8748p0292
22740h715q1878p6094l7247K5896P4257P7490N0664K6271L190l7703p7357p0715k0210J6819J1909N072L2291O0725
22722b5335L7727k7723p5800o9334k0973L7508P9521Q8554O9275M7912M0665L2241M642k8837m2096l4180k3843j8608
22704G1316j4700j6794l1461m8352n2236m7822n0419n7872n3325l1257j676K6462M9002O0778O2248O3675O8022O1585
22686E7174L7160J0633m464j9821m4629n4662k3507K7591M8655K6367l663r880K424J4575K0656K2668K2465K3375
22668A53117K1927J093m5119q5230p7699k5265K6385M5241L9476K7351J4869Q921J6887K1450r206o8181r8679o0180
22650i2842J7675P0786P1303M0743J0675l795j856O900O043j1859l3677l9093k2292M200K0419J1662j8037m2606
22632e651l8364j4088J181K067J2903M1266N5743L1319o915j2991K1644O4860Q7368Q2764N2157j315o0446r9824
22614B13678j09879j00239p8513m3200j131K6510K6301J0164j71j334j0434l7576o4761o1673k2881K1663M0875L7072
22596a55529L2645L1768J8799o391j8467j211L0008N1542N6812M7101K0771j0229j5641J6447N3953N6917K7191k038
22578B34448j3811j6942j8137j5748j7412l3348n1597m8321k4934p693p904j1490j2280k3040m2708m5891k3501l922
22560a84231r233j6297P017M5583N3974K2983p144l871J8421K7665J7744O128M389R575J6418K1645J9122M618j4036
22541D0470k1915j3980R1Q808R197L119q324k2597l4165l9036l5737j9847J3386N5082Q0953P3779M1575M168l0141
22522A04886o1341q0287p5102n2653l2368j7566M320K9579L3994J3096o06J7621M4231L9145M093k0600j1189J6655
22504d4092L9578N2955N9108N3098L2719Q270q264j5186j6572j4076p843M30P411P403m101j9356j8780N251L1862
22485A49815L4096J2010j3338l1804m8083n8174m8776k2518J524J7311L6361N6613N4988K3643j2356k9645l5017
22468H6650m2101m4490l4689k6589l0545k5125J2514O0435P2828M3239J0934K161J724o632p744J4319L9727L7232
22450A63848J1523l684L979J0524l606k2799k1291j993J0003M923k712k724m357j4065j8686p477M264m055k2422
22431G9193k0260Q657L5644L5520J3518j2320l3533m6147m4235l2332k7346l4624l7565k3691m284N657R133J2871
22413a16144J0719O90j038J2527J6615j0315m3866m0746j6L8237N0692M9440M3466K3330o518j9846j0157m882j6923
22394b4735j5244K6534P7977Q4148L7296j6639l7874l0077j8181j5773k1951l2131m1931m8770n3936n7264n0449
22377b39000k4572J4668M7367N7659M7065K9272J6267J0388O761K191J290J1399L0999M6766M3634J6412k6092o3989
22359B8485p7384o3471m0603k6110j3861J2447M6602O0686M2591J2965l401m309K099J5650L3050L5923J2432j9559
22341E4232l3134k9467l2566n0187o1794m6697n888M5651Q9907J05406P5984J2733m3558n5301k2408K0732L9428
22324F3073K6478r6k0215k8951l1731k9791j9147k018J2106J9010K1865J7957j793l3242n4691n2771l8120k3474l347
22305a78898K7609N3107N5287M4198M2485N0005M9453L9233L2185K6296P298k0364l5445l3714k8895j8771J3064
22288A24133N4671O5392L5149O288J1667K5216O174l5858n8773n2221m3219m5659m3455k6487j1159j6373m0004o5719
22270a10237p8198o9729m5103j9374L8K2269N1090O7302N5426L6280M2404O5866O5042K6237j6531l3188l4370l8595
22252a3371l5234q614K3593K9040O633j6517k8347m1567n8190n3743j0892M8950Q3268P0841K6980j6976l9462l7582
22234g1190k1181k544J0851J6798J4372K899j3629k4389j9447j762J1879O573j3936l0126k6934o447K0361M5843
22216a02009O3463O2366L7363J626k4346l6822m7298n4679l8345Q502N4277N8151J8599k5673m2225l4266k1429j0846
22198a33591K106J8597L6169N5593P4251P8525N7846K4103Q71q536k6314o6408j09022j19950q7035k7792L0497O5975
22180a34115O5908L3862n882k5458j8985k669Q603J2126P552m626j1256N940M0699N8428L6505o420l6449m4446m1109
22161f1792k7222L332L7186M7547K9914P754k654j0731k7477m4490m8862m1786k9746j2049R880K4040K3546K1022
22143a02588L3021N6717P3793P1010M7135Q690k8378m1180k0570J3263K9722K1580Q392O802R191m409l9036p3126
22125G0029p5721l9614M912K0386O464k486J1642K5203J2565j2624k1655j8370k8831n1988n7446l4309q038j37j789
22106b01807R0p91j0299j4180J737K8521M7812N2344L8935K134m5594o8104m5924p690N394n788q112Q555J9708R554
22086a93505n624n379P862J8792J8358O500q905j2793K273K2317K9839L0771L9890M4872J9930k1603k9686J1430
22068b4661N4326N6191L7901L9325M8915K8460j1020j6275K4413N8077M2824K164j9308j7638j6931k2382k1172j5734
22050B27475k1745l5985l5054j0788J4049J3123j3680m3896n6154m5139k0621K503J6271K4139L1561L4023K1128o162
22032I5048l0059l4242k4175k0266k8518k7715L063M8235O4407L2207j6001l5176k3700k0562n0856r5472j16636
22015b80418r3790l1460M5834R8839R7598N5729K2945K7918M5820L8698P521k0067l5594n0723o1841m9683j5307
21998a97981J5765L0962M2245N2385M2215Q570j4269K642L7795M5274J5502j7087k2866p537Q643J9373K9989M0427
21980A32047M1750K5768n658l7313m7423k6286Q942K5248N515l2089m9725k5871K3496N9826N9676L5588J4788J862
21962B10141k2157n9868p7612m5354J4607M5406K3826j3424k1315l138K886j9145m2552l5613j038K9909L2905J1434
21944B9898j3402k5054k1289p080J4367L9072N5284M8951J9575j6508m3120n7498o1020m6925j0931L0435M8833L4476
21926A8064N319j6513k4283j9250q58K4484L8637L0747J2424K89p182j8629k5165j0324J7673K8789J1469j1876j7502
21907C6313q148J534O631N012j1877m2523o4795o2121m7734m1581l5202o246L9193O8674O8472N8204N4963N0304
21889F9073L4298J7420J0920M543j5361l7901l9544j8617J169J167j3199k4957k3996r727J3183L4691M1500K7520
21871G2182J863j9147k9189l6398m6991n0551l2585o61J7645J0147j811N735K3892K6370J0821q67m93l337j6010
21852f9385k3054j6692j3837k7051m1349l9757l1730l1664k5199J2820P2459J09360R4662M4733j537j8281k852L2227
21834B3873O8601R0654R0797O7710K6722j3876k9436j4248R058J8043J6984J8731J4477j2301m9592o5600n4479m3545
21816A62573m8842n2614l6871j2571K084J0542K4598L8059L4806J3216j4694l9178n2474m3834j3573J6640K7044
21799A4911K6250L3960M3867K9642j1827m9632n8634m6661l1133j1757J4494K9382J1124k9725n6749n1705l1304
21782a75497j5708j773K0078L9802L8212J6324m246r191m410M95P142K1417M1930O0805O8842N8123K9553l4j1504
21763A80360r438k0212n4775q7756q7629n5621j7442J3598M3270P0548P9995O4923L8485J3836j0599l6643n1911
21746G2989m3624j9189o34j224j5419k8816l0858j9888k449J1261J4170O079p570j8351j8798r325p63m408j8647
21727a35464k9390k3148L161M0496O9353O9623M1026J0886P989K9060M4492L6683J5578o143l1689o2135p7678n6895
21709e4195q588L2279M0133J9836o911k5555l5854m1152l7595j9009P063J7462j773l3154m4161k4900N657L0123
21691a80294M9017O2618O0769M3983L2575L5231K7082j5898p3599j01907r0092o7700n3465k9604K0423P5492J00077
21674a05292Q8935O5853M4768J6056k4842n5871n0562j3476K3003L7131L7191L6205K4935j0919n6022p4178n4691
21657g1776k5610j1434j861K0222M1745L7436J2144m596k415M15o292o774J1106L1378L1347J2996k970n747k815l967
21637E2532q944j0592k990J3642L2014M1601L4910J0294k7593o4952p9930n6971l723N0697P5807N7856O506m6419
21619G3745o2119k6166L2818O7631N6619J3865l7587q1514r9557p6489k6978P166M809q120J340K5815L5023K4922
21601g4777J7890K0607J5318l790j5895n498J4846K5801K5895K3489K2789K9474M9828O8409M8376k0511q9105r5311
21583E7835l9292J6970K6677N107q995q223j0044j5589o208K0484L6873J8583k1574m5404l2318j109J4595O933M97
21564A5798J6100L9247L7664N189k9698m1599l5825k9284k1586k215K4084L8168K9626N160k2088l8835l3520q073
21546e1687J6466K2554J9254K3340K3347r103o9040j09504r6866n0868j2488O829K2179L7860M0601K6826J4923K5679
21528a19698N9570R3545R7474O2111J5365k273J3979K6202O472k4474l1978k1159k4753m7745n9356m0790r046J3873
21510G319K7445L7560L9028K7474J0802m757k5506n5181q1580q9162p4675m3412l774K7335L1883J6394J3305L9617
21492i9885O8513O2481K3513j3211k8969l7766n1619n7051l8734o502J8714L4123N1103O7468O5149M0470J8540K3262
21474A39599M2350L9543Q60m7033o9156n9207l6553j8516p584J905J6694L8428N3378L6359j9605q2834j09720q9927
21456a71019m9085j1280J8732L6691L0966N190j3543m965K0722M1936N2349N4318M2665J5247j1313j7792r108o815
21438B3896j7976k7319j8697Q421M0565N7143M2307M465k2557j4595J1931K2393J1399L751R218N574k2698n3874
21420F3347n5363k4867J2855L8745N0143M6668K6959P00j3121o322R579J8914J8303J2751K738j5928m0220n5695
21402I0186m9942k8842j2504j0895r537J0592M1670N2939L1739M008j906P67k4641p6753j02969o3993J0166N3893
21384h6022M5262K3899L0629N8215P3253O3942M6099L3212K0183n149m6062q9402j06727p3014J402O5388P2543L0979
21366A58630q694j3545K996J3910J5521J8378J9271L138l1487o4238p1949m9172j0409K2986L8507L8046K9174J5596
21348A26659J485j934J1247K4504J2847k1310m5184l8790k2894k8138n1429o3611n0806k5765k855J5267K6373K7161
21330a07173K7696M5339P4577Q2571M9425k354l5848m4669m8414n1806l7643m930J5203J04k8102l1860j1870j772
21312a11526j2843j8469k403J2196M498k092K5920P2854Q8190N6487J5815J994Q865J3801R978k219k5661m7662l7705
21293E0018R688N0463L8330j7394o7890q5647p9810o2187l4956j2553j9477n2814p2641m7306O226M1855L6019R512
21275c10564J700K8123O1905N9820J3256l3149k7768K6075P2768P1614M1502K7775M1332N0235K7227j3974l7400
21258A00477k9557j2790j3918l1617m3919l9644k6265q706J8589N0290O0781L3478j1764l7821l0672p131R495O391
21240a4303j7072m6019n3821k8025J0493L1030L0903L1143L9310L9983K2906j531j8978k4854j8688l224Q333L201
21222i213j0423j3670r878k3115n7553q3358p4434l8158M400M4515P6126Q3958O5272M7098N5238P4679O5880J7485
21204B14849l8613o5224n4659k3960P295K7621L3612K8421J7693M037j2653k9594l8808l2231j0830R793P845k1363
21186B3231n1521m7651p846K8524K4435j0003k8410k502M5191O7251M3746J018k1339j2347R174K5393L2375K4460
21168A43179o242m2930m5235k347L7831K6623j4963k5324O882L0406J4740n954O454L3832L4889P052j9486k8578
21150A50829k7290k4131k6425m5363p6560q8325n6428q22L6966M2632L1729J6762M37p752J141J5568J7931J4317
21132b4784K2566L6382L3069J5350J0654K3510K3335p066m1377m7797l3498k7090l1797k2871J0639M3227M0220j877
21114B0795n1352p5447o9354m6693j2092L8678R2955J19562J04618P0713M6609L5020K5455J8108J2442q076m9788
21097B72153q2103p0864k9370j267N73n93K141j2872m6013n7815k1417L8363P9276Q8327P5108M5706P112k3053l4790
21078B28602l8748m4241m2658k9965k4037l6987m9422l7483r555R468J5316J7625J0483j6147m2418l2644J2682M9404
21060f0725M3011N869k6869l6795k7984j2599l196o228j3353r900K428N473o011j1885M140K7825L4041K2546J4155
21041e6057J6144J3360l098j8013j3261O061J9384J7408Q735L096K74l239o507p052n898o629j2309k2563k9960k3289
21021a23413k630J3270P809p503n869J3879K1128j720l0090l0373m417K0456L0678L0325J7992q690l0086j9134J7493
21002i0895M2720M0284L3301M0898M6273K6867q206l4480m8050n9483o3474m2605l59L2999L4974J7793J2317L0446
20984A1320N0822M3991Q701k4806l1084j8892j4554k7410m8627p3303r7925j02216o6837j2338J4511M041j359K7626
20966c58339O2407O3069L8738K7329L7380M6383M2255L0742J1375j9362m5976m6765k6422q771k024R61m552k8306
20948a79878n3356m6660n465L7178N6431N5346L9384O699k9449m4173l7900l5871l9225j5343M3066Q7690P4120K2285
20930f5121j5284k1023j2833K306L2555O6378P3246M3406p15l5330n3483n2601l0712j157J1624N70j4825j3926K780
20911h4145J9223J9118l904l6746m8664k0489K6972N2387M3242K5142J9732J9628J4756J5415K8995L6019J6165j5220
20893A27626k4379o449J0991R937J210j689k521o102l188J3503L2385L7052K7905J7002R563L089k704q428k0838
20874B13965m1030n1881l5127j70K2296J8432N541K032Q97j4301m0188n6029m8766k2378J2134M2114N2957L9219
20856I9717J7984J6517M0445O3856N7050J7126l3672p2345r1037r4235q9278p9990o5016m1357j0531K0052M2177
20839b02537N0690M2296J6894j5881l6901l2716j0701P120P426j338j326J3449L2106M0518L4751K1054P773j09k136
20820b9568k073n054j1997j8313k0747k2579k6752k5899p178L0877P2352R7751R9016P8754M1946m828m9346p6452
20802A19910p6632n1174j1494K5216M4555M3611K9055N713k5971n7723o9810n2205k3970j6280l5034n4066m9068
20785b55367k4680p90J3668J9250R263k3062n9729o2949j8748L7385N5991L0443J892P482M0103O4926O0743L4277
20767f9902M437j4199j7577j3762j5706k4463k5135q688J0071R383j1071l3596m8045n5264m9714k2557J5179L4790
20749c35819K2473p285l3888m6178l4308N861N0890O1895L5587J6336L6514P0528P3785M2766N256k6554n3705n7627
20731a73473j7156M3242O7230L8158P16l55K9247N7740P0496O8864N0237J3429k8370n7581o7979o3005n0142m1754
20713f0456m4662m2650r700M9020Q9900P9030L0406j7986m7913o2835o3037m3154q477K4899M3941M2874K2860n50
20695a8490j677K6052N3326M5858P673k4109k5864j2048j1327l1826n5318n8821l7877j0116M198L016j752n421j2380
20676a66903j5466N288N0742Q7010Q0138L6109j0341l6660m4122l7853j8556P027K7027L8448M6182M8270L7241J6990
20658A50571L414M367J0290P843o368k6305m0690l6332q940K6141M3467L1985M227k0098l2620l6767l7209l4270
20640B706k7622k2275k6697m0712m8884l5787p126J7321L2398N0358O9253O2659J8722l0413m2554j6384J5881L5097
20622E941M5938M8899L5721J4999J0514K4770L0670J1283j5237k3936j6194r696j2217k1572l8576o3205q5180r1628
20604a48706p9439n2773j6573J9935M3448N0196N1497N7194O1447N3392L3878J2867k355q001j228J2966J8881N553
20586A12179j7796l0183k0905K104K1971K5920J3156m859j4617j3224p492l237m878k1553n4398p5149m2676M2690
20568i2947J20752J30911P9556K5419N548L200j1453l9042o1667p2299p3214n8264k0473K3904L9906J1948l4357
20551b2572o0134n6549m6442m5213l9642j4972J5094K6468K3988L5837O6471Q2461N8755J6974k985N183J4462Q693
20533F5877M05L160R648O722m048j2760j7702k2723k3140p942K0871M0922L1251N48j7725n830J2128L29l6336n2440
20513h785k1805K5311M1581K1425k604j0015j0085j2468j0139J162J0528R788N033o2j3707l5297m2592j8188K1433
20494d9486M1269K7238l228k4140k1218N214M2266O9860P4127N4417J3140m9247j17123j51946j25324n6014P231
20477b62964L7870M5891M4861L4910K2684K5017L7693L0172o923l5579k0159J7882K9590Q775o423L058J3585M654
20459B4594j0271j3630j2156j5644j3986K173J9273K2412K0730K7142K9737J0823j8627l3865l6744m8297o4470n5560
20441a66366j6453J6148J2236j2088k2724j4350o974j0110j5115j7717k5216l7982m0585k0125J3797L4736K5390l348
20423c06846k0599o079K6755M2672K2644j3997k9593q303K8177M5925L6297K2754K7695M0233L0341n104k9698j2660
20405a09386K9240N3662M5451K4642R223j516o550K757J8359J3923j5733l7558k4177M265P441j9130m3185m4390
20387i2662l5167l0889k6233j2711l49m253j7368j3813J7415N2334N5167K1125j3503j0828K5405N6587N4853K7132
20369E2242n322l1422m6629m2997j7930J6164M2713N4644N0896L1159K980j9373l3772n2982p5599p3419k9827K4298
20351a54176M1635J8310n685l428J1188J6418J4353J7215K3415K2585J2284j146r106k800J9191L9805L3794k279
20333I1573m1276n4936m2554k3439j1249m822L201J7013L2031L4837J6764q644j2996J3635M5600M8537J9177j0637
20315A11815q624K4404N4885M8463L758m5202o2287m2253p470J9138K6157P963l0484o2574n8223k2601M135j221
20297d0221j2899N570M7818P3703O2297K9732k582k9646m7378m2101j2290J5644J4002r886k2651j0193L972o568
20279A6323l2878m3345k8890j5460k6061m7864n1280l0249m564J2949K9341M8107N4847L9283J6477R045J6239J8125
20261a9855P858J847J2778K6760J9281j0800l5485k9886k989J2448j53k0948j8892J0071L9547M4969K9254J4463
20243H0268J4825K1452J1912k4077o7429q4555o4294l1235j3186o596R259L3231M2051K7538Q198p62l351p93J8335
20224b9209N0355O5178M5908J8259J2944J6525o058n0028p1060m9651j8081r986j4897n306J4588J6964k810j7315
20206c3680p818R595R222q602k1653j7768p248m265r748j6553k0029j6958m273J2591K0004J6093K0074M5443P2114
20187C6541O6873K8357j2142l5332n1829o8268o5751l1252J1997K9600J8305K737J286J4072L3277M4739K9691j3240
20169C9661n5656p0240o4969o3291o0110k8556L1299Q2766R8352Q8306P4376N9994L9884J8810M081p959k4025m0534
20151A22189m7662m0471k1405K39R621j017j7692j5638R870L5210L6159J3437j3671k8958l0796l1080m3744o5211
20133a30620p0056m0434M907L1092L3249L6580N0060N1937L0374O062l536j2738l6047n3140l6434J908K1278L166
20115a12392l4784o7198p8281n8444j2316L0712L9961K0574O273J3787K6416K6148J8846J8164K3429K5986K4647
20098h8472K2986K0274J6715K2590N0541R5410J26235J05877K7117o9936j26783j20263q0621n1373m3047l6583j8434
20081a47767N897K5270L1178J8264m360p163L1997R3555J30014J16185O7546R229m8286r5965j14342r2545m6728o265
20063c4286J1221O091r254j6035k229K1928L3059K4328J1238K904j1693l6711m9977l0882O737L1573L4604K9441
20045B2057K1123J648k3235k9894r699J3496J2771p302k0479j6436j1640k0430k9015j0553L6649P8953Q2696N2470
20027A43180K3709K0087L1069L3058J8999l73j4045j9094j7202j2557j1702j9446l5131n3577o6041o2081m0298j7692
20009i9137j5035k8191k8627j275L2263M1367K5688J1117J4207K6832L2608K4917J0525M892J8872M1662M7129K9116
19991A88930J6768L4821O0811N0022j343m9408o3204o0605p0063q3515p0173k2354L3913O6465N9704J7469l9065
19974F9173p9109q3208n9754l3915k1296j8326j4627n793O011J7420K7956M0028N3519O1094N4791L8358K5139K0650
19956I8111J6211N213m140j481Q125J0825L972k614m052o739j4384j8105p902J0922K0531J0097j2178k8068k6322
19937E8022q079J9188M4736N3997L8096Q554r677q026n437j9320l9320m6246m2694m0757l1466l15L0761J8098l6899
19918a6784p5470n7633j5984m107k0431k1288R583M6519O8888Q2144R0913Q6378O7014M2617J1798l5621q5626r9820
19900G3090o4533j6776k534k5207n1125n1627k3848J7481N0995N8285L7820P585j2917j7690q024J5173M2731N3356
19882H2235L3979j343k5484k8010k1413k1776l3149m8238n5190m4634j7618J2945L2370L4814K3272M641j2269j9301
19864a04169j3688K153K3494L9102K9448j3549o3159p4971l8166P138J7131o455k9942l4427k6628j4470N82R425J63
19845b90988j8522k1274l00K4061L5141M1975N5771O2350L9425o110l8907l4301k283K9927M6169M6815L6682J8104
19827B3735o233l0387m6068m4871k3599Q001K8851K4783N032q583j0510j7569l9972n9299n0104j6182J1989J4369q46
19808b37463j6742k5635k2291P9L3102M7512K2633k4548n4612m6655j2241K6361N6580P4241P6948O6212M9561L4102
19790D7144J8941k220k8942m6004l5450l082J6269l443l9253l9111J1989O8473P9757M8117J1759j0437k9155n0137
19772A5215o1440n7139m8293m3393l6644k2122l922J4099L4983N8397P4173P2443N3804K7269L668j0842k1114l7762
19754A1380n7692n9339l0251J1147L8773N2025O2389N9783K7089j5473k1742J5185M6381L2122j0144m2653n8351
19737F0629o6661n7992k0795K2221L2936P704k1265k9565j8651L718L1277M8729M2275K3234J6419K3314K1970M617
19719A24114j3197k5134m3875o7934p1691m7615k8203l8284m9837j9484M3165Q2841P1081L4034K481k8298o9301
19702a45137r8755q5165l7897l028n647j9929o508L6554P3475P3610M1931Q682j530J1558K9246L3653K3536J2422
19684e8929J1856J8342J8721P035p426r982L451K2271L2678L0561K0875P432r438k4128k5348j3147p887k7342n7594
19665f7999o3584l1202J6701M9633N6757L9532J750l6801l9893M021N3384N5940J2636l1175n3172p4486j06257
19648b14215j16917p7929j4562K0578J1703j0121j4270j105J5768L4037N8364Q3297R2409P4620L7801L930j1021
19631b7633j0309n753J753K0354M6442N9597M3970N451l5941o0705n5932k3483J0992J3984j8473n1775n2385k4562
19613a64408L443J4558Q509j2995m3810o2808m8477n134M0017O4663O4694M7393K9208L4239P0859J07858R7513L2876
19595B78198l4930m9680j0083L4832M2839J7596p920j3535q710j1915k5972m0855n1853o0525o0445m0455o746J6261
19577c3898J6311P848M845j970k2567l9626k9098K78J4955J261k1816l2917k6605j418M1539P9681P5654K0882m3504
19558I835o6134l7694O589K6932J1322k2708m5749l9812j2911J1170K0231K3884L2642L7461K0899j6597n2984o7044
19540a60668n6260l2050o426J1835J6159R513J2063M5767J01446J33884J08687M8520J0013J3300K0279p833n7424
19523B10805q5299p3683l9853o792J0507O84l4982p2820q7117p6778n6324l2446j0659r894l8375o2801l7099L6709
19505d66217J06535J30420J09803O4618J2274k2122j3315K8061N4646L5251j1972m9687o1076m9628k6168r159j2665
19488a80401k1541n362L0911M2966J2507j7941m270L4592M7046K3575K961J3257M0598N5255M2657Q379k8630m8194
19470D8365m6367l5896k2936Q67L2550M7141L2921J6230K5449M7721M9765K6689m29k2891m6618o4195n9980m1572
19452a3186l3556l8071l1742n564K0730L0430K9768K7679J9272Q01j6606j9491p768O808R003j0434m0119m7477j1802
19433a31325M3986P4197O2555L4022J6311J3147J7861K8008L7671L5935K3091J1933N130j1426m3007o9415o6713
19416H1961l6633n046L645j3248l5987m0633k2961o17J4074L1528O0707Q1237O5166K0631j4174k0565j5708j7360
19398A36017k0963j8387j1556K096L0639O1966O4024K7511j4847k9701k2929j9378k2892j9452n530R345J8675J8761
19380A83399K518k7427m7962l7163k174K9435M0194L1749J2731o127j2539n528k394j7164l8287m4616l7275l5297
19362a3927m1906l6972p405L2252N6572N4683L4526J3047O752K0624L9294L7207M780m0412p2924q4043q1430p0232
19344a49514m4849j143M9976Q6595R3119P2303M1992K2234K2427L4899M0503K6819K766j1149r033o828j9060m0129
19326B11928n7836p2524q7007q7905n9682j5233J0756M112j1659p670J6885M1609N0899M3014K4308N323l608o03O926
19307A2033J1396R708O89j2183j7173n756J2856K1624J8417J3669Q480m008j5400n206K6347N1645N0074K7394n908
19288A98698m8503q8409r8292p0802l5025j6683m799J8433L8723L2269R320m32M098k160k3670l5531k5360j2147
19270a60272j2885j5778j180K7383M7388M4395K5843J1380J2831K1900J9851J243j9462k8871k9974k8316j8277K576
19252a00225J9755K1507K0610L5204N7230O3232M9975L5024K5966J4230j336r428o975k904J167J2854K8745L2934
19234B97565J9619j575k4856n2093p4299p1817m0757j136K7546M1739M1047K0977j3042m1772n1529m5062l0477j5291
19216a5213j1723k5797l7083j3931M1680Q6238Q2292L5157k4331o9795q3147n6995j0426K1500L1089M5830P5130
19199G0475Q1288L5031k7270m4931j7232p01k4050n0766l8037M057L3088K8948N323j8477l5363m4738m4921l3486
19181a21762j0387J8336L9562M1812K7517J1351M692O832J1803J6405J9145J7767J1595K609p799k0123l3930m5683
19163a0258m8456l3436J351L8694M7917J5865l1962n5909m6751k9876k3760j5533J0559L9117M0621J5961M66J8787
19145f6603N3389O7529M7635J1574j6118k3290r571J5811L2738K2566q923l1367k3756j350L862j5059l2985k8198
19127b116r589j409j1579k5301k5261r418R985J8801J2225k482j3708j6607j5499j5521j5637j0974J519K1283M3957
19108f7331O0962O2875M6186J5203k1856n3709o4367m1768M855M3750M7774K1858m508j1636q050j3078l0469m5868
19090e9177m4958k6083K459K8644M0109L1187J0743m395p771o386j443J8598N2114O7157L6437j6834l9965k1766q660
19071E0010l4974p0490o5751k4946K692q072l4706m8452m5047l0153m595K6451N1414O5994P0717N5669J3271l2051
19053f3019l8346r07L5832L5227J1027l305j553J369Q98K121J636n712j1850q421n656j8127l9067m8107l8431j8889
19033b13280L999K8127M5720M9072M2938L6319K6843P397j8338m1735o2933q2331q7169o6456l3389j2053m955O111
19015c76113K9150N1762O0709N2613K7180r158l3211k2079J5107M2768M1184K4059R685k724j8321k9416k7767j8703
18997a83275q903O734L1267N0301M7442K8307J2703O375l514k4408m4850m9812l8170j7206J0940M4622O7795N7230
18979f422J3172l0213m1018k9162k9735m8993n3838k4261J0985J2745j4188l2322k5200r929p74Q765K3857L5842
18961b40689M0743M7908O0094O4205N2653L6311K4436Q689j8435m3438m7042k9916o962J6425M4244O9025P0237L9079
18943A87567q042m8010p3226q6037q0121m6276Q14K3288M999j8880m410L4773L9177j0398n7391m5088N101K8836R839
18924a43485j0122k425J6067K5480L2244M2102M2236K8902K0551K3901J6733j2498l4686j7473K5798N0781L3748
18907A37854j1895n7832p9781o6749l1529l036O804J6373M0772O2768N7527L0880R449L781L539n70j1818l4189o1391
18888A0957o8332l7434J2737M5515M4701J6661k9275p4246q0535k9544L5834M9743R033k0820K528M1459L7105p492
18870d1405l5415j0131M7634R0382Q8860M9354L813j5515q44K9285N1452N3475L2016q432m8441o3000m9404l2345
18852A41339k9629k7019l225L1332M1848J3967k6021m1094k4473m851j2935m6120p0012n7090j6912K0934M5691O7588
18834C318Q3242O6932J0383n0558p0697m5948j0883M701j377j4679j7194M474M1947O0136L2882j7064l8429j4456
18816B6730K0357L3034L2361M0355N0871M3518K1249L495r358l2668n9255n6518j2841L7246M9854J8943k4843m8154
18798A34376l6538J762L7044L5547o315n3126p0968o4999n7785m5491q257M0935N7126K4394j6741k2276R26J7138
18780c3248J6845K0318L6936N0509M4780K2001n202k4360k6387j3126O7L187Q582L2248O2219O7016L7428j37j7511
18761B82165j5603j5048k9649n5425p5704p3823m9936k4294j2317j889K5567N6106N4304J8402o817J0674M3732M2884
18743A73329K307l6995m0382j1831K2634M1757L8631K0786M335j700n197j8138l8693n4595n8058m8294k7565n713
18725d3382J943m103J58K8921N6400M7247J1507m229J5109L0019Q676k0519r908L4061N7130L3279k872j0495J232
18706B30174n400l6309n5861l6620M519K9144K1470k430k1307l0959m0297n4735o6482n8805k2409K8368O1061N5390
18688a488K5314J849k919k698r983j8404j6476n360M062J906j6495m4123n6344k9442K5108O2937N7878L4073K8636
18669C8031L8718L2187P99k8181l3120k2109j0391P1Q298M771j0533j8281n632R659o58l5897o2492n0654o098L6428
18649a15084M7082K7620M851j950r47r334k4496k9337k1699j6777j7694q016J6110L0035J5745n826k248K2146L3258
18630e6561J9094O580K0775N1001O9612O6626M9639K0882k5021p9947j15058j04892n5115K16K9032K5412N171j3879
18612h6433k1931j5145M131K4942L6163L9704M5933N4461N1907L3708J4106N720K996j579Q82J8260L1336J0218m2482
18593B06897q6891r0204n8837k0884N557J6518J0909q869l2008m7574n3722n0391l0105J1227N7202P8204N9929J8550
18575a4492j4947k1762p124Q823R478n166j9857j7925M322L3683M8468L4294j864l2670l3040o335J7317J4660k904
18556g041l750K2186M5870L0471k3462p3238p7770m0059R83J7256J7727K5243M1559M8858L8651K2007J0762L983k026
18537I8210l135N814K2573M1309N6016N6097L1960o523l0855k6814j4981k1244l6307k8101P326L3288J9690j7981
18519A86342m1919m0287l3885m0847n3420n2927l4574j0091P776J5714J6390J1584K159q523j6426k1703k5524k1118
18501a61279K003L7523N6177L6180l260j7806P862M0002M1009J8659J1662L5067O2514O3806L9983J3143l396j2352
18483B67497j8597k1209j7478n964J3028L2180L3761K655n1957r5063r5138n5556j1521N598l663j6679k0399k3909
18465h2414l8399n4805n1498k2913R277J8997N547o203L840K6255L3829J7348N61J1227M2379N7372L6890M266q824
18446B732o578j5022l0807j8263L1297O8874M4248k4505p0393o0286k5365o922o702o072m013q965j1348M540K7683
18427a15867K8491K262j9758j0697J8639L6342K6026j992k4989k4532J591L4626M8738L7487K0494J7990K7388L2843
18409A35082K8327J8941O047j3738l5454m4933l4940j4799j435m662j9677k8795j4619J9579M5375L6635J860k2709
18391E6085j4993R830K3583K0105J4736J6305J4544l042l2144n4685n6004l4627J185L9657O7590P3598N6324K7460r8
18372B25409k5907n4868p7056p0233l1215R792K2679J5526J7918L1272K3413k0921p0252q3369n7572k1448M946J9421
18354a42465J8197l047k7387k3429J4997N5391O5941N2796M2325L9275K5209m290k4419j2674J9124L7503K5254n009
18336A53292l0434l7266k1777J0829M1171M4470J9079l254O527L3239L3252o541m8882n5609l5674k4958l3953m1180
18318B331l2562j9592j3061k447K4692N6724O6474M0432r466n7331p8090n8134n138N1901Q2462P8623N5706K9823
18300B13347L060k5626m4394l6579o111J7128P616k4488m3580k9985R09K3691L2249L3916K7467N575k4992m4296
18282H4907m2701k8552r885J5071M1998N1293K8912j1733m1933m8098l9710l0242k1549q866O563J4844P877p101p695
18263d6600K1407O4454Q2943N4637k452n0807o9065n9578l2661O17K5799L3413L0885L1712L1926J3453k4609n4499
18245E0975n0206j8401J2151K3360J6946k996l8209q1749j07873q9847k9294L8324P1986N9221K1563j1130k6811
18228a61990l1835l3654l0871j9065l47J4541J3252m797j9741n065L9902P8333P2436L0170j614N935L1345L6247
18210A3182J4888m827JK3758M3981M3275K0492j0116l1057l8281m1589m4210l3188j750K9451L2125P384j5483j6236
18191h200j356J6015L3091M8103N2441M2061K3948M482j4980k5912j5060J0994K4051J3094N761K8465N9854N3074o88
18172C49238n9346q2771p3340n7256m8432m3912l8923l0896j5992O426K8529L9569L4953J8535L40q384m904J89n260
18153H363j9670l1219l1901j8132J3709N3121O4237J9243n2229q0184l8246J7809K1386j7756l2527O731N5650N8189
18135c426J2212m1665p2322p8207o7962m3937q235K7753M9156N2891N1507N6700O2379N3749L2237J5977J0151l685
18117A05273l3448n0291k3148K9033N0606J8049l1021m6421k0304J7906M0819M0200J9343j1813l7912m7539m0418
18100b1086k1348N073K8696L5173K3208J0437J0332J2073l421l4572o0560o6513n3271k6938M186K4113J9620M97p039
18081a21340O171K0983K1711K2527M3826P2599P1088K7451k3536m0423k0367P481J9835J3281q607l8648n8643n2657
18063c7268l2183k6598m2028n2071l9110j9440j1018l153J5765K4356j852m1530m9098j9406J0153K1851L7371O6090
18045a99169P8788N4643J7118l964j5364l5716n4088m6864j8100Q988K7205M1351M0903J0115l8230o7577n6511j4224
18027b70696L5943O8258O1206J9291j8263j6582J2880L4247M0670N3237P2968P2508L9875l512l5204n1428m9208
18010F6190k2268J5589L5162L1289K6739K6756P068l5616o0545l8780M37J2148j907q336L148J8370L4167N3334N4937
17991B17882J3643n2321r2400q6678o1875m1257j8433P949J5115m052j5375J0597M9025N1422J3765k0314k1297n960
17973d0564j495o904p116n687j9712m8223o7069n9180l5257j6802r244k555Q051J6300K0349L1074N7006Q7110R6172
17954c746O6696M000o5731j10274j12171q2255m9221k9953j4290J4384M9473O4496M6623J5333J505J4598L7228M8486
17936a04819M4862L7520L5808L9161M3193M6239M6021L5386R722k1588l9390l4412j7784q382j4419l1205n0992o6809
17918e1888o9055m8768r169L1447N4508N7612N1343M0881K0178r866k7627j1600K5359M2059J8761j5519k1378j371
17900G5907Q236r218l2328l8050l0642k5191k4126k3591k5839l0079k4372k539K0389K4563J0803k554k403R608K3308
17881i8118K6252J1027j4638l2877l7537l8962l9592k3672J2873M1610L5450J0370N163K6745M5058L9360J8568n530
17863a8450l1225m3983j6297M7323R2150P0736N832l3213j3911K4659K4567k2903p1424p1366j8741M3013O4375L4960
17845F6102r113k3176J131L2020L7264J8880J599n047j5966l8561n1280l2206J567Q193k4577o2728p0819n1167k6182
17826b44066l310K2824M8499O2821O2882M9995K1347j6755l9580l0263o241K715o734j8471k9959m6608n2276k4603
17808b47783J9599L3817N126k7759l0181r197J7381N0039Q2849Q6278M6487m467k8915l1919l9104m8662m1272k0848
17790a88531p239O96J6658K8882J0567l1838n8640m9501k1202J1011N0092Q3517P5335J8443l7891m6182k3233j7752
17772a86808l2122k1902K6940O7424N8772K8112K9788O2062O7256J6683m4637n7730k4849M708O212M51P248J6138
17754B3746J4390J2833K3339L1844J7245j3909l1851j7988J8038M9941N4623K9630j319j2018q368j9897m8278n3559
17736F8442j3886K9849K4870j7820m1004k4051j927k030r962j0200j6608l9153n5038m1769j4846m159r602p074J2031
17717a73937L1838L7679L1711K4465K2594K1990P723k9097o8953p4860l6693J2829M0866N3597P1172Q2617N8927M494
17699A18962l9487m8814m3781n0127n7400l8602J460K2787j509m9606p3830n3161j2174J2830J4228J0336J2052J1565
17681b64271N678R627L5000O6764P6840N4032J0552l1895n1328l3661R020L6442J9709j8175k4774J4472N4733M9097
17663A7862P604j9655o588K3642L5266K1271R79r117q477j956Q669J8522J6244l335k8251m1560m1699l9226l5651
17644h5456k2671n843p923l4764n5200l6864P558L4380K6315J0337J4629L3406M6513N1483N5609N0113J8059l2468
17626F7213o4117m8342J543M2653M3853J1041k4642l8472l1783k3363k4781k7128j3777J5224L6034K3976j4816m1817
17608a11501k6072J5929L4733P685l1457l6106n430K3259L0970L3443L8386K2730k6849p8291q8198n5814j4441J8145
17590b48879M7514O7897N9589K7825Q072J6725K6317R168k1483l8372m4396n8744p5159o8362l4818M669L8386O7749
17572b16302Q1045O0414K0557L480K1602L9776L0389J2050J0277J3215m68j7236j2752j445j6840n0784n8565k6731
17554a08318P604J5077J1408J9123K7187J3677j5367l4239k9198m181K9486N3732N1443K9540J7175K5872L2199J8332
17536A60552N080J7182L7753L3115Q933J644J8996K8867J0212k1844m8962p1555q5752p4207m0032j8445k8363l8186
17518a05012j0397L9382O3117M8026K4965J2100q597m6691p1595n1563k635L0093K9624J7976J3985R888k531q856
17500a8721N809K7240K7259L017j9474k1055r756k196l192j1416k6759l8557k2935K6679P4156P0041R874n4932p1724
17481e6642l8737M912K7785L0492K8283K7529K4807J7714O306j1181l3185m7709m4494l6201m8703p9435q5922l9171
17463c53552K6797N2086L1199J5841L3666N1450L9571K5807M5360P4230O4747K5237O380J6652J1943k4856n3528
17446H9030m6138l2953m5465n7549k7667K7821N0347J7587l2095n1109k8706J3434M5724M8158K2974o331j9671k0950
17428e3559k3587k4944j2531J0423K5195K2415J1038K963K226Q050J5559J4950K379r900o454J0172K2785K1711J1225
17409E0116l894k4081m5566n7095n0450k8665k401J8980L4732N2017P1529P4625L9711k2918p0316p2635m4323j8099
17391i8733p439j0985k9965n3394m6493Q878P3402Q9665N8857L8095N9015R0484R2449O6568L4913L757k7004m6337
17373B95733n0175n5934p4841q8489p6011m6844k2595l838J7996L1146J8209p366j1848J1582L4199L3997K1956J8429
17355D5306K3596K2143M889k2705m5882n0808l6790j9113j2220j1633k476J6212K8514K3500P915n161r310m210O831
17336d1402J4624Q793j0215k9757l8162l3962k2293r867l703n551n910P193L1259N0353N5613N4135N2594M3342J6729
17317A33813j9915m6846n3223m4965l2697k1478j4405j6393k6332l0129j2521K1842M8751N3370N1011O5599R0169
17300A45651Q7750L9668k2899n1150l3413j123J4068Q857o014k5530m4709m9768l1988l497J5352K0859K4063K4875
17282A11052N703l9821q3497q4467l5232K6192N5334M4015J7521j538j2281k1483k8488l1122l2740l2065j6360K0511
17264a38766N8932O9038M5840J5193L051J1639K8496M3163M6119K6143j4389m8099m5412j1809J2833N60k9810l6943
17246C5779j0440J7168J5406m814j1762j743m030l4915o9443p2136m0503j066K7652M7573O0150N4881K5260j7454
17228A5563n2742o4998m9008j4644J1905Q432j3402j3672K7941Q2308J04000Q4580N4648L8853L1354J8113Q82j2682
17210B57431k6363m5563n8656m6978j2894J8397K8775K4436J6699J773k4579m3141k6397J9802N1755L7543l870k8850
17192A39320k3972j5196k5787m6467n3436l9661j6975L567K1293L8221N0475M9518L0500J021j8924j1908J8137M6016
17174A45742M8681K7263L383m466J210R51k1458o1721r6835j04050p7332k7364K6713O2132O0877K7353o753j1563
17156g237O074J2031p778k7103j5229K2427N3568N8457M4821K9758K2335K2105K1923J1711j1108l5982n2267o4250
17138H4256q1231r4946q2157l4117K8035P3359Q8338P9280N7710L3268J6014J3427K1219K3034N619k4843m5145l7399
17120A23721p955J9960L1229K9557K2963R781j3410l8764n3138n2682m1803k2872J047J7914J6907N868K221N299l291
17101E2552k6202l7964j9876R792J9893R936P147K3376L7978K9176M627j0107l468J2132J7671P127q730j4189n314
17082A05557M924J655j2993k3308k3121k5468m3183o7568p4960n0853j090N5840R8847J11143R0074N2007J7947q120
17064B07330l6871o6820p3460l7380K3888O7217O8156M1997J7437J927j6328l9773n1826m0071j6335k036J090J0748
17046E8890L2232M2431J8491k6286n3347m5846k6692k2595k7774j9231L835J8914J7455J9637M1366O3021M8880o381
17028A37000o5184q4030n4969p065K7512M1858M8723N4679N1328L4723K0361K4352L5343K4819j1223m0389l4930r030
17010A93878J464j4251l4626l9464l0157j6876o288o186k2127m0145l1060J2571N6065N6994J4643l0159m1822k2439
16992A5J114O818r460l6996n7491n5706l0459N524L7181N5320N6595M4658L1791K8473K8290J4475j3350l1883k3458
16973E1451j259P986k385j8353l0684m0908m4563l1277o170R843J0285J4567L6149N6191M7345J3894j0440j414L2236
16954I2494O0077N4149Q973m9935q4266q2140p0379p4012p7942n2805q234J2597p590l7922m3763k3992O515M1295
16936c36880P0958P4150M4898J1313L446J5851K3184J8446J1740L666j2063k6063k0554K225K2083L0120L4219L7320
16918H059L3750K6648K4429J7798j2775n9129q0551n0577R939N8896P5163O2550L0461r571l8533m1651k5432j1344
16900A8130j2343k2559k8289k3092j1995l788q15J56l562k0258m2872m1141N154P0815J06346R4164O0376L0406K538
16881A77371k5858l7473k1170L440R987j663j5306k4952l0750k4259k718J3168K005k3154k6605M451M5686O5602
16863H7802N3105J8400j7313l5426l6451l7581m3309l3313K105L2947K5664m296j2432P953J9392L366j2777n922N012
16844A6926n101k4780k6567q555J1011K3372K8090J7562r783l0824k0057J2924L1890J9517m910j3136L681L3897
16826E5157N6649N3620K3980j0578k6585k3717j9169k1690k4837k2242j3552K844K5277L6462J5547l1051o7666o7798
16808e9349m1721j6619j667J4309L8112N9123O0196L4033r247m5235n0420k3683P704J1216j9113n6973o9706m6765
16790b15805m345L1173M2012K7789L095j3660j4184n486M25R26J938K656q864l7033o2849o0040k6706J1368L1292
16771b96298L4926L5956L8082L5742K7822K0038J8239K6355M4992O5254P1294N7058L2962R146j5594l7150l4269M549
16753A39104N1308O1885K9013j1129k7056k2823j6321j2831j2371k1011l8395n0970n3268n9123p3939p3175l3790
16736b24892K3379N0725L1434n096k6406k9597k3231k199L9587Q4518J00641P5813L0038p399k4301k7029k4159j6200
16718B5626j60K2399M4796N8542N3499K0800l4203q4129r8700p6723m7655l4970l0349j3530J5695M0645N2642N3473
16700c2302L9444O151l0145l8979j2334K2185L4852K7159K1406K9022M2025M8138M0642J6167k4477o8778r1669p0423
16682d1916q367N4466O6220J3035o0024r3418p6836n0753m5626m5646k3171J5657M0188L5159J1702j0573j5436M028
16664b31311L2014L4085k901m4563m7373j5637P896L007r406j0078n344J715K6252O5908Q2570N1139M649m091K6349
16645c5120M7935L1543o87j4746n710J1578K7682L8510L6537J8494o010k3766k9480k3498r049K631j899j8434k4416
16626B2095r239Q702R598K655Q554K2746K2283M357j1064j8679l6240o4728p1304l3775K1595N3372N7915N8776N7351
16607A04970L2944r602l2815j9652m69p498k8926l2845j7442q312j5331k0267p312J5815L1494L2013K1998J1004N567
16588E5334K234r087k8445l8879k5795K633K4519K7348J2262j4339l9384m4009k4037j130N456P193K2144L4299J1607
16569b0076l8565p0113n9908l1564p868J9650N3841O5124L5299p47M763M8163Q4393Q6864O3374K5752j7539m4332
16551A96511l4230m543L820j7212l2036j5506J3184K4742K0135J6986J6081M064k1125m6541o1587o5933o2165m9723
16533a15078k7105J919K4109K4044K200k0426k6020k1166k1247k4204k0926k2047m3224o5531m8335P496M5809K6628
16515c23104j8479l1445n654J5401N898j1020j460L5984P2101P6560M1739j0827m5196m0604p431K8907N2373N9342
16497a06915N0451L2665J9885J7195J2740j452j1792m195Q085J191k0055k4901N2L2460M3507K7701M57j7212r690
16478E0177J9101L9413K2719k0289m7562l7030r914M430M070J646k874j6627l4968m8187n8146p0535p7970o8744
16460c51290m7045k7121j1328Q306K9103L8381L7015M2156N8231O2359L2861j7320n0362m3663q907K6825M6226M6142
16442a29431L0788J1848Q231L0162O0721O5953L2516j1905k6735l861K6181L2931J8187M342R11o101l2374p0389
16424D1975r0604o8656j1785M4251O7534N7499L7409K5100J9998J5874J2774J1760Q554P4q846j1736r276o824p495
16405A27580j2116k1368l2519l7180k8033p609J1464J4632l816l3350n2579m9318l4401k7451l1032l0396j7817j597
16387b66906J1113K2498K9207J9307m288j6643l718J4527J4130M279Q079J7966L793l4572n5263k5971L5534Q4265
16369a42663R3719O8543K9343j245r679k599n96j3092k7078k5611o987J9580M4634N8117N2560L5682K5485K2426L014
16350B23553m2995q4604q1567l6530P481J8781M834j0895j7299j4931o143L459N684J81n094r414k3739n1165p3169
16331a93572o7139l3153O617L2961M5716N5330O5601O8166N2725K1388r421k4395k5017k4188k6012k0224k38K2686
16313e2169L1741K5783J8657J9258K1632J6407M618l552K2J3773K6551K3108o092n4536r7952j07154o9234j509N5383
16294a35265O5678K8517j9307l6820j7769Q570J6553J4511K7180N5366O9777M8188M599k8047l4414k4117q882J1587
16276D5905L8418O0596O1629L7040J766k1070k2222j8552l4766o7020p7228l9493J7937M2106K3811N777J5165K3726
16258I3525q46l3825k3073L2773P6982O7931K4394j1609k5690k8375k7227k4205k5033k9522k2815L853L1418L2939
16240A11595J2051L33J3995L2911L0916J0552o602j3998k5330m5385n4504l4441L19J4413n048l2338l5388j0837
16222c6786K1097M2469M4684K2007k1228o0375o6939l7677N562M2689O6666P1835N3493K2906K688M82L199k4q345
16203A68403k3869m9377o4989l8373K5958P7222Q0130N8998N3303N5938L1990j9755o5216q5312q7842p3980l5245
16186G984J2654L3579J9575J316j533o342k9143n4906o7239p5630q5430o9676q188O2900Q2237M1093n890j2456Q734
16167a46361K0191J7031K5971N8474R0573R3751O8207L3281m499n2907j01700j13321o6064O208M4039L0807O653
16150A0334J0540L4422M5829L1661J897l0747n2752m5776o102L8031N1644L4649J8766K2698K9961J6924j3221l4885
16132A63873l1211j3194q770l3777p1966q7100n9964j0625K1634J8264l615j2967M367L4621N1240M2245K3247J8392
16114D4694L0159L9509L6898L4791M0461L5962M091l8488n6562l9083p039J6628K4972J8846L696m925M949J8805Q553
16095B16917k5449m7921l5277p448L198l449l977N724K714k6220o0665o8929m2954j724L3000N3357N8699M4667R042
16076A03305l3877n6750m4220r925J7463K1423N459j8914l9586m1491j3047L7396Q0534R1158P2055M7889L7366L6334
16058B92572K8151O786j3311j1275J6997N1429O3312L6963k0364q1932j14552r9627m9507J712K8761L1982K3151P498
16040A98746j2851l1415m6290o4976q4876q0265l0526M3183R1098Q4793L7033k3606p3473q9358n4689J3304O2677
16023f1491N3831J465m1762l7987N976N3146P2059O0929M0682K5209P464j7178k9338j1593J3130L493l6728n3742
16005D7565j7245L5164N0459K8148N626j341p049j7887k3564k3627k9829l9884l7997k6395k8737n1789o6143l9473
15987b43998K4008Q7311J14324R4512M5386k528k9714l9932m4799m2590k4990O71J4721J0881J023o141j1484r517
15969f2856R329L3238L1906K76k3453m564L9470N9495L2393k2821p5238j02789q9837l4722L4938P8141Q1033O5961
15951D9900N5682M6995K7063l089l3140n5968o3349m4464m489K8096L0517J3106N53m038j4086k5957j8704R772L2441
15932B6841K8064N512j6508l3401m5427m3816k3662K819K1752L3580L9469K8719L6k0804j1060J2333J5579J80o51
15913A9555K3598M4808M1287K5523J4690L971j3085k4271k0133j4028j8498k0608n384J2103O012j8378l0398j8971
15895G793o557j5084l7697n0201l8181r038J5564K0007J3107K0074M9120P6485P6223N3386L1650J8288K117j8955
15877B08101k9706j8082J0135L5634L4660n589o3980r0268n7538j607J9746J115r449J7098N3800O1025L1534k1298
15859A75331q4516j32339j24398n1363L5131P0564M7438J2308K212J1261J6215Q220n023r960L192K7997M0195K3037
15841F5502p951k1961j2761l363j0598k5424l3258l3760k9591j1766K7976P7471J10023J08855P9515M1284J1630l060
15823C28763n923m92J2234K3036R925l8273r4840j13326q1071l5085j2131m227J4961L8806L7059R798o403N897J8008
15804A06716K065k3851k4159J99J7090J2548L489K008l760k5136n0627n9486m5430k0235k897o388k3436k6008N839
15785a61459N3748P6336N6456J5890j7538l4726l3298r363K4531L7670J7558r477j2509N047J8591J7931R456j929
15767E2915j1556r729L65n061l4888n5270k9052K7477O1985N5755M0381M3492N3255M6279K1483o821k7989l6456
15749A86565l0817j8015m385J6082M6089O3734M4817M195j8261j6028k4370o1211r6051r4011n8190j0214L7876O9252
15731C7057N3291j4428q3328r2493l5525M0195Q5566Q2097M0636p015k7237j6724m483q199j0228L738J0502j4011
15713C9411m6739m5371j0408J9408K4197J6629N513j2396k5136j2609J2453J0251k7080n6576l9929J0860N7642P8811
15695a069P2562M3983Q408j2006j2664j1761j9272k1095p940L349j789o459J1681L8500L7388J817l2719l4391j2875
15676D3648k775k1178n1410o4527m9583k1660l309k824j1410j3970L484M6707R7901J14075O4750k4115q5546q1177
15658f2919l7376k473Q974J0710O411j0791k8761k0804J4333M3120L8570J1256j1757j9656j4166R057N0345Q4126
15640F8199P4513K0220l4787m6753j6766J9754L6045L1621J4840j1441m2560o4594o3715l9254m315K2899K8903J3105
15622E914j1186k7587k8661j6763l67N539j1408l8260l7536O745N5585N8251K1714k310J328p230m5662o7957l4626
15603a74477K1279M4488L8327M2000N5148M6928K4798K7746N1817M6950j125m5111m9642l5209k6163r489K2229L5662
15585A16156O089l5099m4046k6478j6559k0837k5165l4265n8499p6028n4140k435L5764M2479L9279M4610N3151N9264
15567C241O6459O7454M5363L501l0867m0549l5310k9577k4361j6960q693L073K2173L7436K7165j3335o2850r6846
15549h3483j05055q6004m3303O134L6563L6250J8438O072J1696K9470L8118J8010k2483m7125l4564q668k286m392
15531b36612K0224O3581P2554K6030k8103l6939r526R926Q541P339J2656N082k1934m3755l5484l300K5285L3394
15513a31041K9625L3437M8652N4766L0559j5130m7728m4915j8360O420J7273J5566N171o428q244P35Q064O989N653
15494h936P404K19j8079k3087L745L9896M7181K4249M751O686J4406J2940Q945P917j283k3433m0192l4593j7120
15475A1616j0185j7646k5229k2273r019R275K1445J1853k0809n1015m9378j6947J8174L7002M5387N1109M5253J9164
15457D7777j3137k7236j9027o573j53J1860L7401N5228L4361k3307p8060r4786p5774m4681j4508J4186L5944M1788
15439a18697L4147K3108J0593m297q429J2351M0927L7721n436m4765l7588L053K9782K2322J076j1181j1358k204
15421b8875J3450J9420m386m7428o7655m1999J493K1581J8527K6448N7949Q2373O4269N761n7502r1856q9254o3268
15403a80952l1839n296J2955J9821J3153K93k397J3099L3287L6569J8812l244j3906j3075o178P844K8125L9556K4322
15384i051j3110m5743n4462m7983m3574l9174k1336N249J9823K0785L2947O4446Q0165M5294j9019n6522m7367k4259
15366a52891j4641n031K2013M9782N1818L0452N432j5241k6701j1158L4353O8750M5873k0912p0355p0883m9674l9027
15348a68041l2816j3069J2932K5988K4187J7342Q126l343r505n151N722K4435O1359J09861J35607J13747O3835K6016
15330C97232J2926P623L96Q69J3399K3845J8264L27j6580k5695k9967l3684l5490l1790k7615l6247n7127o2276k7331
15311I1079K4788M0900P227k9469k7603n043o48j3403j9046k2957m6715p3374n9107k621M5388N2999M3551M5404
15293E1350M6818K5746q511l1646l8222l4042j5950J5157L9032L8412K1839K786k4878o3378q1220m4524K6671O9551
15275e009N2621J0461n407J2955L3341L0457J0273p992j7286k4219l2749l6970l2097k2787j1640J1141M9463P7960
15257I2516O2558J0009k9222k1432J0291K4424J5755N949L15j0224j4435J2206O2810R5121Q1758L8709l612l1716
15239D01780m2701l4812k0293k4217n1779p4942o9075m4573k3750o830J3498K1829q86l5302l7925k057K8008J5435
15221A1408k4184n2603n9137n7811n1838l0066N486L4259M3027L9131L3801K8258K2119K1062K7110L1447K5523J2080
15203E9072j402j2334j9973k1754j9800k0945k1724n900K9121N5855M7029J4711m621q67J829q975j2148P657K7409
15184I2240J8357p909j6596k657N497n921j6223p127P302L901j4617k6382k1778j0631k556M771J6480K9161L1223
15165G6535J2513k3480n4826n6149k5590R044J9336O476o819q236m910k125Q224K9779M6910M2449K3594J4939K5305
15146A32969L5127K2952m586j9238n525K0215K8925J1698j3237k5809k7121l0251l4745k5502n95J4963k734m1668
15128C5838o3874n0832k3721j2952k0827k5230j2646N836J1471J859o084N565L7160P2041R3395R4863P3354K4547
15110B39763m1458q9888r0221n5685k9748k7615j8816J8100N3633M8283J3987j697J6752L7561L3780J5949N363L926
15092A31969K066n878k3313m7731n8870l4593J3079M3503M0782L4405N0058O7384N1661O451l3462m7590m1475k3574
15074A24872K120K5229L4087K9842J8442m623m2511p7215q3452n8890k1943J4946M9089P0470O5394L7612N451k1788
15056A67132m5797o0943n6734l8571k3895j6653o957M452N921K36L314J3152Q671j1756j9235M525M0804O4185P3706
15037A05557P4446N2950j191o4353r6677q4579m7013r310J0813M073j9150k6874m7L5866L9549J1275p296N959K3454
15018G452J1950j9260l5746k6144p480Q499K5836L8932K5223j9658n7870m7201N49K5319q124o3883p8590l6628J9782
14999b37042M7102M1299K2225M277o499o165R16J315r789j9838j7283p395M98Q281J7520J5787n400k6446j6351K5953
14979a67035O6183P4889N6830L4486J8372N968n16P187K5789L4514J6007k0974m9117n3699m6495m3910m2452k8435
14961a12408m025J4795K4066L5008M8020M5904K3499M106J0112L2273M5364M1774L0233J1566k1234o1249q5924p9249
14943B631m3870N665M8784O3329M2150N800j5260j1721J700J0020J0631N517l999j5740l1305n6399q3390q4605m5209
14924a95271N272K2133M008p282J3033M4525O0720O2404N6354L2691j1956n1463n6278k7956J1715M8395P0775N8899
14906A40718P665m8949o7451m4312j1487R970K3620L0515K1968L250n814k652p370k6003l4525j5282J2848J9557J040
14887G306k6187n3523p8636q5896n5740M524N9678Q2560P8515P0126O9281P0040O0535L5160r67l4990n5184n8013
14869H8589m5859k1775P586K7180K3019L89j5526m698K4689M3274K9749r686m8454o2337m7163j9759k876n487j5520
14850e4665j3558N198K5084K7684J2265n812j5038j8977k5787l4302l7738l6845l9189m4411m0130j8191J1300K9864
14832b73248L2077L0212L7917N4999O9413O9479N2557K5630P5j6539k5626l3651m2156m3496k8424J939L1913M0415
14814a6514J8643j7896l8529k5786M876J9897L828k5465l9750l0435j0210P007J7198K0928J9070J6174J9274K9219
14796b8471L8290L9030L0569J5110n196k4723l4971l3903k8935k4992j5989L689K5061L4013L2988L8722N4196N6791
14778A71279K5892k5214n8793n3302k3396K167J1378J2014J3013J3571Q855j775j3427j8192r506J0666K9052L0864
14760A25146J4263p798j9317j1686J3234M1188M8384J9772l0319o6360o7451m6646k9224k3952k5851l3857m7448
14743a47922n3293l6479m835J6723J8462J5054J9163K4673K4037K4159L2201L9043L1815J4175K86n408r601j4774
14725a2521j3953k45K4806N0463O0972M6948J7541o482j6866k5215l9853m8942l9051j8944q771j3712k4640l7741
14707a06206n4725o7703o3579m3192j8897O448L9457P3746Q7277O8980L3448L455r252k944J7178L3983K6545n380
14689A8639l5896m1318k4668m224J0984K3186L1749K9946J4859o365k0020j5248N689K6952L5042L3036L0367K4208
14671A36918P049j0462p551J0781J0174k7265p2909q4639n6150j6671P016J1074N779L881J3849L1881M3521M0179
14653D6455K5900L087l1680o6249o8334k5104K6868L8015N759k6177k4099L975L0474L7249K0643r042k7556j4848
14635e4664K0759M9837N4561M0720K1188O322P679K7809M5574L5488L797j9852k9017m7512q0498r2580n6371L031
14617f3729L8299L7108K4271J9750K0051J4728k93k3294m5301n1848l8151j6292K047J9186L8041N0766N5009O3381
14599A43729P7655P2811L3255j2624k8149k6133m9697r7813j15279o9103M018M6761M7150L3161K7324L2626M4441
14582A64133M9900K8535k1716o8948q0549o3634n0151n0554m7811l2385j5166m507L676Q608K402p610J063L1901
14564a52813N7620N7280M4000L7010K6931l861m0301m7016j9052J0935K0017J9617K2793J6772j1322m3989n4567
14547e9946m4991l5565k6972l372K8335L5880R232j6626n301L2774N5213L8691m009m8085p5842p5367m3335M162
14529b35124L8195M2644K7262J3751J6827L8329O7602Q3776O8257K2499l1059o7441p2934m4236R863O0825P2336
14512A11372L6164j1811k7095m894K0134J8862m246k9323m8102o1350o2268m0182K51L7137N2927M9991M0710K8909
14494A07186Q184k3952n6701p1663n5774j1520M0279P0435O3609L3913J0978O138P34k3993n3606n2515r712M2222
14476B4242O1540M1515J1234j815J241Q29j3410l0605l1998j2656J2254K4046K1658K1100L1882M0705K6557r422
14458B18897l8222l2051M571L7730L7813O760k8552m5292m2284l1118j9323q624l961j2242k9092l5722j6502K2305
14440a4909N6280O5022M8697K3826M936q409k4380l9142l3506K50L4435K8456j9465o1412n3771q537K5183K0148p744
14421C5958k9365l0830j3866R615K0559J1201L168K4377O3343P4058L8312n821j7439o976q460k2521k5989k2092
14403I7232l3835n0555l1610K4475O1852M3247N037K722L1881M4119K2145n779j9351l0193m7070n4396l8569q613
14385A2739K1139M4874N1298K2904l3337p6925p6704m6512j8847j101J7168K8447J2095k7348n6984n6438l8060j9628
14367b41220o94K1473L2757J7553j7281m9229o3714n8863l6121k058K6457L6514L7172M6200N8779M9463J2256k1228
14349a51784j9676N375J5904J034q948J3185N3451P5344O4137L7610J9440J7434K6700L9409M6343L8786J6389r938
14331B80195k6563k7505j7309p818j0858k7825m5364m6079k4470R661L9375M7161K1973k6810o7026p2450n3581m1614
14313i6907m1971k9218M477K6506J1230j5027q974K3585L3377k775n2576p4480o2378l2535N237M2682N9343L9344
14295a71060l211l2409k3504J8818O7710R1691P3844K5139k3985n0083n0352l1553j684K2509K0631l664j7632j751
14277i0546J8343P782k1208k2279J6471N2684N0381K8732K7081M4708M7347K3817J474K63K232j4822l4675k1731
14259A16054K2892N3282L5471j0158m0002m4326m8494o3614o5884l4489J2705L8873L1928J2265L873J2764L0412
14242F3552M4783M7576L9963L0997K4610J2545j2097l9948n4370n1153l8796k3707p285N864J0405R143O582l308
14224F5356k6815m9300m3882o413L4888N1652M2809K3938O084m654k621O912L934k3070n5903o3580l7425K472L1909
14205d3709M1290L3124J5731J898J989J3091K0715J3999m726k5370l9455m3755m0153l3607k7262j9095n711J1214
14187a29792K4722K8116K0193P638J454N384Q383j850j7165j5914K610J0315p649k2660j572L7348M4288J2319r970
14168c802O357K4459P60m2810m9207j1745J9485J5207K757J0919K2115P145k3368l6162k5380j1997l636J1496L3221
14149e4186M3764L7992L2158L4417L0626J1104q515p233J4559L9563N2167M3756J4918j6182k3333m389J0237l383
14131B48040k9179l4877j6111N194J5472J6381L493l1280p2568q4380n0600O077N3111P7049P6117M7296j681m2619
14113A84935n0088k9861j0274q883j9236k7013k6526j9944r837K226J2610J5580R173K16j869J376k196j5496k2599
14094a7706j1353K847o235l8558o6422o9973n4590l1246j140L3816O4562Q6375R9079R1421M9118j1971m7323l5931
14076C4770q471l106j4454j1888Q837K2690J5806J010n171J07R209Q064j5651n1098o1976k7675K3592M8214M3921
14057A6730M3303N8071O5745N2630L3525K0050K690k2378l8139l4676k7173k9191l0613j9434m207L170O621R000k479
14038A03245k9981m3670j6815K9254M6706K3633m511o848P934J6045J3076Q986M531r514l4435n7904o7523o3747
14020h1538n6907n3651n0022m0407k9724k8260l3464k7648l17L5708N8093N7578L9717J4761k359O854M3414P5045
14002g3127O3731J3097l1149l6092j8797j5861l1749l8182j8186J2421L1027L6292L9334L9986K7428K05k8264m4724
13984g2610m6310l5046j3508R746K1001J5449L978r65l53k544q524j1903r354k748N777J4073J9635K4743L4347M1829
13964a3287K9370l747k6169r024L2153N4339M1822J7550O14j6050l8437n3645n4402n4132n9391n2873k5369n7K092
13945b28643l90K0583N1943N6587L2845J6716K3741K7976R824r859k835K3679L8059K2690j4392n2343o7488m4784
13927i6091L472L9967L9105J4222m343q023j0295j7158j9161j2288o671q979j0901k515J3347K6401K9761K0307j653
13908a1496k5137l0408j0414J4485J5497j2695m9684p5707q4803p2309l1914K3086N5330M2115Q692k24K2756M4639
13890a78191M4909M0723M9180N4436L4845J440j8088k0412k2192k2639l819K9754M4779K5221k093o368L914M62j6288
13871C9573j7416P151K8889J8818j2981l1583k2507o892j1303l4472n0008l6928j979K7247K8405M751j8051j6179
13853a05465R672L7017M7155M3419M0698M2858L9208K1616m237k6226l7406l8913l7657m1214m7415m0097p026L6404
13835f7609N5943L7392L357j7936k6425l8399n2799n0671k6465QQ995N390R333K8775M9814N4826M5808M3782O1006
13816A24125P9384O8755K7158j2437k2906j5696k0574m5079p0358p9020o9353m6367j6812P019J4240Q313J944o02
13798f8266m855j1136j0673K103K2893M2621N1533M2998K3054R951J2169J4675J794j5715j6760n009k387j1421j2978
13779F4591l161j661j5077k1431n425J6504K2671J4648J731j9655m7799n7042k6686K2222M7309L7941K2839K5717
13761G8236L7279L5855J6208j0522l2223m2312l7887j8485J3514N0003P3646O5538K5913j7513l4224k4465j8283
13744A60278l8407p1810q3751n7672j5768M053q391k2914p128K9847M7304K5215j3070l6212m2064m4916m3187k2857
13726b41450J3371M2067M5763K9320Q768l937m540L222Q980P200Q275K7539O0204P7614N5908L850m4610o4945o4124
13707c1525o5644p5921p4379m1246J2881N5795O7042N0175J7496j7200l1312o180M0448N8317K1866l1347m1276M696
13689h7314O2608Q5501O5585K6772l775j4179j2157j3869k2803k5976j7910j3794k3323k6977k172L8294O1706O1309
13671A37526N5102M3936J0147l7051n7001l6713j7742l7133p1575p3659m1292j2322k799P527K8903M1093L0526J5042
13653a7485J3134J3213m260l0940m0879k7143n743J1372K4079K6337N983l0747n6856n8750n3366n5297m5824K62
13635c32910O7825J10848J08029Q1991N9380L9654J4546p607j6057j7821k3257k4624r347J4878K7891K3393J0204
13618A27016n301j9538k1627m598J5899J4605j1701m3159o5168p7246p4938m8807r363J0092q749m1486m5628o946
13600c16643M8028Q0789P4558M1928N774k2516m2074m5467k0586K2428M6408K9369l383j4373q223j7257l9527l3239
13582b14006J8251P4353Q9399O6967M0973K8455K5717K9895L6507K9349o88l4757m5982l3317j6500n631L634J1134
13564A03753R737k48j1173j9999k6099k3162r300J415l791j2488j079K8886M9208M1708J7534l961j8158l0050l9814
13545E2919m1885l1473r088J4807K1401J183k9519m1542k5286o38P760l704j9151k2988j4963q093r986o223K5513
13526a40956P7197J03134P0647O874l0516k4082r059j4735k7267k3724j2614j5974k9304k6086L731M0464N9464N5210
13508F2404M0236K8761K2384J0174j3594l5147l7113k7242l0400m6520m2396j623M1404M3292J0163j5656j5965r814
13490a6652j0477o045J0175K2292J8767J1363J1838J1089k085j9907l0705l9194n3326o4077n7338l5922j1710J4835
13472b47079M8535Q0035R1547P8611N1327J9846o986j7863j2295r053k1278l2785k3313o714j1708l0584k6570M269
13454g2058K1198K885j8095q872J2921J5040O769J8192M3177M7123K3393P62m816p432j4805j0050J6587M4249M5435
13435A61603J7101k1551m7416m4611j5156J4492J4395j3982l8711l8441k5492k1206k6450k7747j8795m455O995P571
13417a21856n286k1841k7018j6280N439L7389P7493J04287Q9730L8129r872k3609j3444n687q253j5367k5550l6687
13399B1717l9050l0139k2229k0943j3214P563K3304J7827M038K680J0351J2451J2012J8724K3120J1690k854J913
13381C8961J8649J9717J753j2941j7434k5989l6076k4118R025K6498J0667k462K6372P6726Q9607M3511k0317n0523
13363A71626m0747k3189k1422k5200j4158M984J664l3649o5408n1829K355N4167P7168Q0080P1033L8514j6638n9412
13345A49939n6953k1372O547O171j0943k8311m0208m2291k7917J150L2872N6699O8310O3192L6577p199n1710p7310
13327E7243p2478m2140r330j45j7023l2655k1317R105K9577K9882K7868L6349L9514J4740l2144o7493o5081l2384o58
13308a48570O842m582r982P306L7750N6136M6882J5061k3595n3774o1456l8149N638M0023M2835K4209J1572J3421
13290c2433J4873Q975Q776J7586J1415k5424o3346n7478j0026K9458L0006J2629N454j446k9214o0908n5175m561
13272b00839N0031O8202N1924L1616K6696K9942K2885j378k9698m2201l3692j6972m272M172R232N137p474j4827r243
13253f0759o92N605K4471O0894Q2875N7382L936k4429j2047M438m772k7104m1604m9709n3196l6592J871L0127K3372
13234a5933L303M833K1470J9161n932k0606m714K4977M5653N3450M8128K0500k6711o3753o1344k7156J654R91j7740
13215B31k8631k3151j4317j5292k3183k5607j7300o060l998j4316k4855j6591J3953M1477L4816j243k3256j763L7995
13196a11091M7919J8421j6819l0720k8627k4377k0576j9673k7992l8572l3581j3733k166r114j6973j0753M284K7699
13178c06444P2464J26110J37512P7753r382n5485m9446l2747k6421q855L2208O8233O5662K6498j9935m7034m4581
13161F110j9915N551J2958M451k676J808J4617K8683L6141K9293J4027J1986K9651L7375O111m4337o6548n0803l2360
13142B2123l1455k6847k605J7435P143j8272k4841p684J1337K1667L2326M5539M5049J5481l7840r0450j15665j03867
13124b41426o9837l6445r504K1890N8179P7964O4143L0489R551J9156M9496P7974Q8144P7294N3312K5252l228k9900
13106B62504m8635n5908n7607n7432m3619m714M3006O5494N2730K9703J8127R042j3389m0549n1057m1843k8883k2662
13088A4308j7183q51K9604O1372O8935L7082j4129m2593l1247n767N647J0612L1285O0867O8156M0826J095k2748
13070B95271k3426j2557n924j2120k4642k5618o853J6077K1160O626j2279k7966m4754n8985n3852k2899J2438J9955
13052C9652r423m9323o1652l4189O777K5675J6601L236K084M105o65p20J7706M2461M6817K3639p105k1085r109J7745
13032E3227L1610R545l3238m7191o281N2962P5950N8385L6191J9897j3958o3925q7101o2027k6274k1479l3800k5154
13014h2661K47K546l0083o3323o3874l4006N690M1310O4524O8305N6042M1148K8432Q282k1720m1787k9779Q948M2562
12995H03M3486J2634k5131m4058l6373j3615O593J4184R292l506j8971l0744l2652k2908n121J5695L5833M9918M7483
12976B842J8263l3357p9944q7560n0440l948J1354j384J64L7590P6753P1085K5203j1773j1938K496J963q986j1418
12957e3035r659k1516m2251m7418l0372j1064l477J767J3619K2087J8334J4443K2697K8478R247k3756l0068O285
12939a35659M8460M7169j107n0445n6062j6551L4192O5443P2193O4011M4803J3427k0953m0657m2731m5875o1079
12922h1421o7314l6627K1938O7065P5804O6199O2440O1667N0151L1023J3766q955m7525q5330q9992n7479k2621j7565
12904f4776l5306m2685j8421K8440O8502P4096L9598j3054n1507n7716l4686L616L8035M6376J9353k2252m3282l3201
12886i8870j4583p254l382J0125K4341K4532K0086L1985N4538N5952K2362k0167l7715k6972j0149l543n122o890n490
12867C784m28Q304J7945K3126K0267J0238k566j2255j4795j2046j1114j7720l1545m7818n9405n7791m0454k0600
12849b44873j8876l5926m2392j1232M3707P8364O8952L5533J1083N085P974J4290K3002K4991J1498o637o912J4627
12831b7742L5663L4600J3586r698k2538k4021k0431j9919k5582k9538j9514N728L3075M8568M8506L8087K7854L0064
12813A16748M5422N2088K3272l7528r1903j04761p6493l1641R507L8019M9838M7552M1039L5041K3404L588j4928
12796A28264k6200l6788m6165l5931Q81L4409K7834j4952n5528o8001n5215k6410R452K9825J3314k3419l3998J2
12778a78616M5570O4464N7309M6151L8696L0931K4945K0861N921k5836n4609n7512m1457l2470l8654m4179l6098
12761a74583j8344n25J1475J5093J3958J7906K8548L1753J8969P753K0888M8776N4747K0508l1891o7534p1779n1345
12743a25627j8570J6209M6072O8233P8098O3528J7251m3032q1195p7176m6038j6338J962K0511M9125P7237P9623
12726A09873M1548j8737n7477m5654r25L2006L3390K6339L7780N7224M9366J869n4453p7277n7989k9457k7225m6797
12708b6596m8500q813M4371O1384K9549j5984l9149l9614l6181l5411l2082k5349j5486N736M1631P2907P4315M9499
12690E6227K9819L3468M2748L0970k426l6179n6292o4958o4843n2012k8399p259K869R915K2280K7450L299m7310
12672a00633q8668q7567m6220Q165N4257Q3429Q7958O6040L7213K8829L9820L8060M602l7464n3719m3259l3265l7319
12654g9741m0066k1872J7662O0438Q0657N8401K94n3136o0141k3288J3654J8999N007j795l19n587j4627p593J9456
12635c3597M5140M9967L6167J5738m708j8586j4248R415L0349K3821m059j7332R394N9981R2496Q0594L3870j6828
12617C77574m4765m1033j6916J333r795m7452q0472q1780o0517m9043n7769o0412l2885J0108L5345L7404M0890N7665
12599b2520O7613N1640K2557P149J1931K3963L3354L4325J3959l2649p7134p7371l1913R788O759k4820m1458l2167
12581e6994k1020k0414j4008J0810M0791N7172N7452M6006K1706j1097l5072m0106l8864m5344m9997l7662k0551
12564a57192k4575m3255l6554J2286O4603P0908L0383j5736l7587l8564l0661j6940l358l158j6765k4013r740J5288
12546b64630L1705L7561M0667L4503M154m3169p3669o2103k0262J8067L2849L0367K5369K1037R614j0709k5038j3912
12528b27599K1492N3093N3654K8411R235J7113M0515N3116M2206J4922j3256k7687j9840O015L2512M1912K9587M508
12510A59909j8775k7908k0749r852j1260k4295l1197k2593j2619j8926l6481m3646k8906n75K5156L5143K4222J852
12492f1500j0329L49K2342L5620L4542K2097o260m9915q1272o6110q981M7496P3810P7366O7889L2536l2033q8047
12474I600q8837l4434K8053N4321L6283n095l9072m1962j5421J1629J3327l488j2492m141P975J1682Q422L531K443
12455e7676J4057L8733N5019M0637Q403j974K5999O4430P7288N7591J9788k2963n9180p4596o5625m7156l3798k4036
12437A4941j3711r217j1029m2L5893P1407O6787K1206k1307k3469P817M1267N8336N9205M7798K7280L528k0170m8433
12418C08087q2673j07148r9176n7517j1922L589j5067l9824m1528j7023J5355L8028M3929L1250L602k3243l0306
12401h1587j9516j6400l6387n8903n2381j9217O353P579Q602L5196P0981P6438M5002J4688J7932M0730M5905K3406
12383A08421k112q604l02R343J8124K5971J9807j3734o4089j00340r9563o2856q190L9558N6603L7906Q817J090J3803
12364b0347J7149m57j3608j130J8461J5363o160j8451j4729j1678j2937l494J4827J4038j9559n9839p4098o4513
12346b41162n6834n9449n5215l0582O038L8552O2877Q4764J02990J02937P1545J7670k9776m9611m8396m3741l4256
12329a61649k673N1234R9842J17771J07669Q5415N3319M051n5177r8903j06302q0117m2338j5697p892r031l932J2787
12311e1623L4863N2812N6600L5327r673n1218n5682k3997N285N825k595J1925M2748N4630L6009J2603P766J4840
12293A76445J5851O091j0111l0421m8494n0613l2855j2831r751j8067j5315M986K2793J8459j424j4933j5404j7682
12275c3276l1792m3298l0429N283L7432M2418J9006j6997m4387m4573j5870J6274K1725N898Q450M9820R8144J07029
12257A50857P0386J9885j7852l7987m2900l7789l5680m2313m0331j2279K5789M0149K5288N934l324q423p413J0014
12239F2011K9057J7056k1824l9458j2269K2006K3715R870J6134L2399K3306p086k1670j3681j4407l4036l9334m677
12221B7112M7939P6549O3971K2808k3736n4183n8289m5226l3180k9330l1120m0100n3529m9084q494M4055O2097M2411
12203c9329L2948N9892Q5182O4241J3726j5055q965M99p582k1362k7456k8528k4762q722J2726J8801Q700J0220L8194
12184A63368O5299N6398J9806K56K1717N5658N2207o336q7199j36076j21215n5398J6956N2708L7750o900m2784m4677
12166D1538k1212l428r364k5227k7400j4462l413J878J8288N2790Q0948P1363K5129k2826m1135l1167j8062k0568
12148E3670l3952m0598l4051k7953l6868n2518n1369k8441q563j3023k7105j8725J5849M5235M4024K1954M566Q96
12130a86972L156P457J8064L2562L5983J5417k1918m7297l1203K6484Q6544J01936O5714J8873M427K3801M6730N0797
12112B50555L5760R042k1665m3596m6320l6640l1319l4261l6091l5525m1049m7963l5841R26L8837N4046M9678M1598
12094G0172L2997J9884Q406O834Q602K308p397p830l010j0277l1751m7824m3683k7671j6939j5699j4790p120K132O48
12074h2008j4685k7693j7848J0936K8567J5598r981j7158k954R158N524l521m608J781P652P464J346k530N090J5044
12054g4826J665l6950n8311k6774K7021L9124J319k9245j6707O699J192j9666k2054q698k257J897K4236N8719Q0467
12035e3149Q4252Q0365O3742K4107k1871m6181n1970o2791p3514n3761l208L8336M6207L8486L5620K8991P818j5172
12017F6307k5828k8862k6178l471L7428N9353L3357j6942m4265l7044k1460j5869j3774o753L869J7440L3048L9804
11999E0160K9336J5528J9349L5969M0307K4843O601n412k1107l9113l4928J470L6951K8360k4623p8903r5188p0737
11981h1137l0452k359j296k1019l7401k8815J436K7582K8393P812j1794j2053O890K9347L8455L0158J5928J1796
11963b8529K4164M5700O2293O1702L8870J60l5649m7433l0315l406P011o552k7663l7105l2212k1894j1258p55M821
11944c8050J84p474l230J3478K4236J5890k857j7841k8614l7459l2586l475L3747M9933M0746K7616J9852L533k3023
11925C4606l1668k305M2791O5995N9908M1734J6881k0518n7712o8598n2955m0466m6766n2439l8499j8021j4660k8064
11907b10756l8882l4322j3341J8545M3360L6456m14k6271o449L9276O0812M2425J3812P80j622l039J331J1206J1003
11888e6090m254j5783j0635l657j1417k3077j7580N738L3708O0888Q2613Q1725M8876O026j7127k1976k9023l5823
11870G3132k1748O483J2239j7264m7350m2558j0643J7774K9403K7305J1288j4392k7790j1459J8212K8167J2752j339
11852D2212N666K3631L3364L1910K7406K0801L989k6890o1710p9579o3710j8766K7382M5990L3433J1398K313R611
11834F8451K1066K4521J7704O526k963j0026j6341k0345j9790j8658k2430k5124j3026J2416K7836J5243j2873k7937
11816D250j7234J0668M3269O9912P6719N6694K5039O031K625m270k5045m8654o3417o9482o3826l5785Q463L6562
11798A2519K4567j1511l6565l8019k7728j2662J1629M0193N5198M9210L4818K4879J7720Q676K171K580M205J778K247
11779A65905J2590K0852N504l3523o6552o5380l5152n253O703Q389R276P6l1248p1086q5248n5222J919N2509P4364
11760i0577O3557K8664j0631k9591j8092P696K3095K2381K0091K7747L8420L4153L046m7412q7995q5951l7803J9648
11742a19554M4175L2311J6114J8395K8825K7621J4327K374j699o55L930J1717J6292Q096j4541m1855n9480n7968
11724g1575m0222k1327j5093j8476j5648J706K7690N6602Q8308J11809J01362M7254j9099n1043l5948k584J8015
11707A61731J9864Q438j7746n7803r2927r7341o4766j5370K4250M3082M7834M8543M6667L8462K6472K0101K2268
11690A61759K2914J2441m590j8088k8843m3830n8512n9587m6651l5195l3211l0630k0221j2871j7915k1200k394L1138
11672b05486M7965L2183K873j1684o236L241L933j687m372K86R434J7399K1149K2444K4143K4654J8785M633j3453
11653i796k9164l7154l1580r934J6990K7654J3210o192k536K2338L6426K1737K157J0728L9769M6852J1132l8638
11635H3999o0834m7266j9510N119K3647L2052K3309K932j1858j4119j4005j7837j5006L933K7582L5956K6901J7146
11617H2141J7921K0989J1702j2326m0156n9954o6296n6568k7823J6097N6255O7182M0810k087l1617l7771l2307k4783
11599g8591r596J9059N0003O2353M7313J7111p077j4485j3638k1790m2989n9399m9734j3456L0027O0952O6867L7809
11581H0739k4280q7965j07480p0113j4545J2285N455m007O259K9502M8161N4578N2580M9288M5679L0561q660o1261
11563C6776q9867o6467o001M8953P1089O3107L8853R486j4124k4312k4809k4036k1386j1677J641J2473K6046M8817
11545G4562O7857O0521K5375j3931l5678l5406j9148j773o502m0051p1278o4982l6286l4510o6648p8996l4086L3321
11527b77639O6242N9313M7323M4303L4423J1414j0742k3688l2070l7050l6196l5142l7326k9598j858K7902L5052
11510a95337K6531K7641L7572L2299R668m410K192J4856K5626M2163N4471L3496j8729n5607m7627k4114k4522l9969
11492a03800l9630k8231l1813m2209k5547J5914L7902J9956l616L990L2227M8482M7380M7557N4852N5955M3194K4163
11474A56726P764l510q569q117q869j6103k4364k6624k8063l6143m1172k6920j674M545j6942l5473k3220L013N854
11455a27861j8419l7818l3426k0631j5927j0039J1608M2034O2945O7480N8294L7181J2426K167J1351J7645J595k0765
11437C9840k1379o897q987k8913k9099P783M4805L9538L246j7297m311J4327J0645p934j6241o221P897J0576J46
11418C1524j5034k7479l4608l5361k8110j3752K778J7090K8003L2416K3375J74k5090m0291m7480n3211n0871k9179
11400b65106M123K6060K7495J9823J0765m482k1317j9035R688M1554N0131L5347J3120n599j0810R179M4841O0618
11382B6395L9880J6035K6657N2340M1456j1434n6307o0160m4624l7404k7750L844M2572N7297M3413K0495L40j7522
11364A15523k8682k7361k1947k5165l1934k7250j4424j4863l6455n8678n5198k1299K3725N2523M7658J4313k2203
11347a31717l8646l3971k1533o418J6244M1609N0656L2792J817j9143k1255j1310K591J5671K0619J0641p110j0182
11329a08645J7291O2028Q9013P5668L4005o029k9665m3500n1560m2932j3138J5309J2020k3237n6928n9152l2354J343
11311a60463K7920M6038N3226M2994J6261j5650m2812o3097p2250n7082j0560M7892Q0292O5608K1306j7369l4014
11294g1760l7286l5355k1594P138L1782K7040n865l5801l5194q963J4563J5298k485k2372l4870m0304l8127k2778
11276c16933O145L5530M8262M0259K1794K796j4190k5079k0349J530K5078L3181K7618K4348L2051M6025N9506O6392
11258I3964N3709J0749m6445p6734n5414m722L2517M2380M4383N0130M2673P743l4529m9882l4457j8770k6779m8611
11240a8095n9333m9201k5206N210L6938N9281O0446M1094J3684j1677l1500m0271l0382n165J7250J8652m499m0038
11222f2812o5644n9014j8561K3531K7599n191k7886m307M5134P1511N7533K7581P111j005p27J0107K9265M5100M9702
11203A49027M3770K6332l288l0811l5801k2409j8910l4236l7813l009M6961O2619K9723j7093l9648l2872j4388J956
11185G0110J3614K2854L1115L4880K5427q14l1317m4627l1045k558J6836Q303k7052o2490o1916j5249M4349O9970
11167F0390M6810l72l9723n7479n4643l8282j9963p492O006L0863N7131O0528L7550J4518J1453J6367R959k612m559
11148A26450K411M093M18J531K565j1798l7859n3423n0631m2382k9927N444O1740R5421P0484J2394j8581j616K7787
11129A64521L4183K2479J2480L730j4340l8075n7552p3831q6122p5718l1351J6529J9996k3489o1602n0999n622L1815
11111b12968M2074L4455K1575J4117K5162N2033O3128L1114k5373o0534n9161m5760l6133j6131J9203M0497K3802
11094h8900q010j3445J0285K6594J1911j6650k8441j4272J2137L3956M4133M3792L3490R191k7767n8091n6130k2069
11076a08286J0544J2946l486n448J7451M4776N7324N6987N3982N1170M3585K2127j9561o8250q7829n4339P595M6782
11058G8070M4912K9017K2961J9355J1464J7370M5763O4985M1019r502l9811l7553l1794l7343l2243k513K5387J9551
11040B29095j1904l4374l3298k5688l1493n1522p1531p5089n4774k1054L973J1202J6121L4007N2391M7203K1527M151
11022H943O126M386j8434l9968k6781J5007M2958L0618n359l3397m1797l6300k0172O964L7110N4872N0969K8760K24
11003F4729j8921j5851P147K8274K4071n469l5615m2444k4496J933K2016L1983L3783K7311J0581j3913l5885m3444
10985A5790l4021j7298n210p74J260N095R329J0980J0051Q853Q304N555l764j7929k3898o396L2617O8559P5834N3606
10965A96543K4138P750O357R651P414o202l1265n9499p8497q3029p8483p0217n4531k4902J5713N3406P3604P1272
10947b0777N2801K9590R132p326j7652j4171O703L2546M3545L5797K5322K2734J4986j5168n7596p8986o1174k2593
10929b2287N221J3323J8032L3250N2115N7851M3843J7935p681k5576l6230m7462o6369q4727p8004l2110K9069N9129
10911g0678L9370P12j4791k014J2435J2536P140L465q211l2098m7447l0829P977K9427P179m1458p2801o0347j7279
10892b77712K1203L0926J2449j8643m2543l8825J760N8324Q6527O1843J0943j5911j030K7278L4402J4512j4848l4476
10874h3821l4592j9690q040j3002k2199j1850J5065K7052R956q522K267L0815L9573J5085j9866l7839l0523n013
10856a55144K3858L7414K6189J889j4802j7791j5811j2104Q38K3677M0609L4890R635j0809j591L5819O7379N7494
10838A31639J0900k9645l5582k5740l2152n0230m8787k0030J0686K5101L3323M7622N9446N4984L6592J6704K655m246
10820A83240o006j0308k2963l3301k2493P088K7856K2049M205l154Q81N920J3210K5693K7069q62m1848n4227k4394
10801I7655J1704J4910o615j3652N756J9297j758l7153l8855P026N8463O4897K4330j9412l0982k0007k0178m4267
10783G1159p0730p1968m5843j5002L2J8r15N773J8035L1105L9485L3490Q154k1226k6801M00L8243O0979O5804O0524
10763A80716M0189k739n2131p5630o1045k9103p185l440q473r599JJ6765K9619L3351L4906L8499L4124J5490p16M490
10743A78089J7861O018l5971p2145o8341k8484J6379L7182K2563j3825l7969k7987m276m040k5302k8019J981K6728
10725c9558J1757k4538m1406k8476k094K5787M5132L6127n006m1792l2612J6809O3085P8580O8273M4229J5115m476
10707A84936n852n759k5491n2869n4808k6717K045J3216J6493J6149k965m1351o8607o2404m0028k9444k8244j4773
10689b26473J3494L6923M2743L6409K6016J3072O52l206L640J0488M436j2958k3766j1405K0993N3788P0841O8111
10671A23798M3173p345p0301j11377j05183o2065j0673L4950P2121Q6479O2120J3508k0766k1917p849l285j4219
10654A169l3811m9793m2712l450M1498N0367K1474j237Q722K4344J4436k566J1161M8533O2628L0899j8853m8536
10636A14273m9132l4684j8759o978j382m257j9234m4910o3896n0148J57N4174P4081N6992K9233R758j679o715k594
10617C4300M822L273o743j2736j3500k2552m2273n3853m4086k6170k0280k5621k6714j8441q491J11J1731K3091K1827
10598b22305N823q811q316n41j129n962N753L7510O1092M9128J3199p169P313L3999L9585K0121r8k261O520P172n314
10577B5309j6607j3755m410o266j8247j6893R828L9268M1530K0298M259K988k123k1560m0678m7705n1800n9106n5614
10558b11284l2210n097R617K1728M3528N8968M4817R712j7099k5980k6279j5497J4541M3632L5139r393m2441l2191
10540a35789k689O091o685j0834Q222L5199N0229M8895L7707K2314L532j6638k5120k388M9821R1980Q1128K4357
10522B59332k5476l4337k2520k4283l9230m5297l8378l1333k6543j7244r970j9649m3136n8869n4015l4950j1518
10505b77416J2634L3969M8047N3939M8059K0870k2605m7429k0935L9067P5046N5563O889k8664m0490m2227m0536
10488a26219l2408j8386J139L1623O9653R4646R2545P4783N4964K3249k8074o7408n2031N992M2502K3083j3492j5889
10470A60272O832O336k9507o1127n5752k8693j6326k8226l8298j5652L9971Q9816Q9295L9444n443oL2430L0187k0681
10451A94872o7090o5054l7215k9498m0601l1867P100M1781M2209J7632n642j7022k2069k7123l3676l7546k8764k834
10433a42407K5210L0969R631j6254k1738k007L1410O2942P7400O6041L5205n65l5890p1596r4495q2937m2062j0818
10415a81961j5769l5354l1262j282K4249K9379K6830K6746K0901N989l086J986M586j1009k8218j5332K8687O6063
10397h7857O3174K7462o491j7187j1584o810j0551k0569l0890l2135j4734J9115N1771O6184O0740M1425R769k6230
10379G4602l8034K63O9661J10541Q3051Q966n7573q5773q2193o6545n4187n3032n7306m8374j7319J8818L7303L7568
10361a19563L2753K5551J4579J3080L1318M6601K6001j9576m1058k0204L793o030l2916l9812k5019j2414p256L765
10343a26407K0917L2712M1011N4292O1104M0841o15l4933n0286n6846n3167k2048K9781O0269L9904j0144m5112m5074
10325f3801k2024L922J8259J5248L713N23P510P005r944k7735l2230l3945m5684n3760l6585q83K7646M3078O0669
10306a39018Q0966Q1091M8076j483m1908n9739n0011j3990K8335M3325J7444k4970m9573m7443l2629j6796j324J2625
10288a67022K1446K4877K4055J5794j663j8549j8396M899L9622O6557P3702O1454L7463R540j5270k7456j9504P39
10270A12288Q964j1508m7192o8036o2216m4604l1926k5661k0731j2732Q300N0803R9035J18253R7527O8803O4294
10253C03661P0715N0110m207n9044q5159q4657p3207n7911l9619j9781K669K8587M7579M2157R318l1072n4176n0291
10235d328k7429l541M016p503k1577k1359j1375p767j0270k727J7138L0016K4946J6701K0458K6642J8411J417m539
10216C7330K590M417p967j9854j5787l538l557j9424l0968j9863O406K4742K6473K4486K8726L0334K0417J0078J3886
10197A08927K2782J5548o572k1202k2060k8648m9719o1637m0357J157K5429J2604k1384m1213k0210L5552Q4007Q3200
10179G6204M0039N630R954K1789n946o7931j09694r1515k6153M2526P8143P2084M3827K0501N506k3377p2305j05699
10161h6417q6858l0306J6808L5927M4749M9665L3989J491j0228J9193N9089O7545M1469O650j9205l0379k0362P529
10143A00349K9246K4496L481j1793k2095m2402o6375o7136l4862R048L9685N2590N5011M8658K9372l861m3470p2947
10125B6995p5502n1758k5429k0872l6383m7846l4561O907O5161J14933J23981Q1416J8884j7158j6691r648j6337
10108H6092k1028p011Q000l897l5173m8669k7272M020J0464j2877m0436m6314k9672j3889k1430m7223o1458m4993
10090c52766j4651k2l7J6358O1391J02361J00371O0218K0670L962j41k240M573J9956K0831p277m0794m5465k2643
10071g5345j265R439K6476N0340N2113J9192j6470k0059q39J0408J2257K6331M9903N2987K5305q066k6773m0141
10053A45793n8406o7596n3646k9509j5220p905M889J6683J4083P088J7027L7780M0928K3677J9862M9412Q3405Q0098
10035C08443L7147j4436n4103q3055r9108r1139o4972m9473o1104p6974n9548j513O7220J11840J18866R4744N5727
10018A38562K2158P129K460j2903m1559n6190l3980N532J7623j1512m6474m9711k8071j4081j3286J929M2865P5403
10000E894N9657O115l1255j9292J6449K7578K592k5908k8790j5352j3158k7115l4732j9289P973K4600K5084K1712
9982a7237K2001J8811O810k111P975L0999M0338K3144J956P408L3939M2159J0451l4839n4696m7704m3646n5364o3866
9963g3472n3408l4503k0045j169L3240O7270P1317M0994M701p668Q859L7067N4209M7595K5458J0740J3445J4220r915
9944B28935m8413o6267n1019k8537k4609l1915k8869j4789p585j4387k1878j4845P383L3413N1240N6680N3557M4505
9926A22600K3903j1143m3055m2284j969M7524O8799N3093J7600j9628m7967n8457m9233l3845k8249k9590k0152Q047
9908d4006M2620O3315N7860L0609L454r37J2280J0116k3685n6904m5536O075M9357N2676K8902J210k5055m6507m9823
9889F6021l4428k2729k7525k8919m708L2390M9993L7140J0259j2250k2289j6411L397K6074M0506M3603L3443Q055
9871A81622j9997k6583q606O225J441J194K9843O2449N2677o45n2582p2014o4896m2024p729J4640q056o7167j07898
9852a28106r6044n5946k3622N66K6523L8481K2228J938R083L1666L4153J5875Q260J9501K3626Q240m019Q737L9986
9833a8874P1941R3752R4355O5099K1680j973L210P105j4730m4344n0830l7668l3620m5967n0736l0809j888P344j0798
9814B2249l6082m2447k3590K413J4263J1432J0822K0677L0086K7997J8056O157j0650k7908k2018K0938P1501P9524
9796A73420L4259k1407m4303l7454l1454l8918m6513m0895k2529K080K4944L5427L0389K5025L6949N7220N4925J8630
9778B09795k2529l2513j2294N605M10j6210k2464j3442n32M440k388j6649k7574k5474j2113L45K518n962k2689m3190
9758e2910n3266l7272l501J5299K910j3287J084L3731L8277N49l8372l5844J284L4796M3352L3804K0916J6661K7730
9739C5941M2921L3358j2058n9395o3646k7099K635n073l0358l9384k8326j4738m228J3153M0908O6392P1292M5218
9721F7513m531n1072o5926m6853j8804j202J1892K9702M0974L1949J5910J9576M2746N5406L8904R742o058o138o759
9702A56971j3758j3143O792L0848K3631l1143j00400j25693q5178j8532K1156K5407K2439K6972K7760J9628J4077
9685a2166J1764n123l9660o4084n3078j4859K4431M8576N0832K7634q455k8021j7041O330K4739M8855Q5413J00816
9667A86903N7121k3651p1819n1360K829L4869K6041n180l3695m4990m1279m1447o0389q4201q3539n3468j8329N007
9649c00577K1862L2906K4263k745k2413k2600k2485l1708k3289K1916P0052P2352L2986K46j638O281K098q577j3754
9630a64824j2745m755J3264K9587K3995k91j5277q450k5p917j9674j6896p130r860k4124l1550k4295j1613k541K752
9610b92369O537J0151J5047J8551J2698l711j6729j1383Q441K3533K1152N828q992j1987J877K9648O0655Q2030Q5030
9591C6007O7292L4803L924p003M495K0057K0132M724j1623k0563k6759l5995m5378m7155l7407k0274o622p205k2620
9572i7170l9362l8726j1761L1859O6706O6192K3390l8688q2687q6535n5716r219L6149O6601P1811N5393L6704L1033
9554B5974L2004K1294q973n0098q5911r9622q0205l4943R062K8529K6701K2374K2113J7933Q093J438N26J15P055
9535a36541L9884R5211J32498J13913N1964l468k4053k7668l9556n2126m2231j4909k807k0210m1936l9527j8420q74
9517c0856J1386L0383M7367L9525J4221J0128L8294N4372J6341n3656r6293q7564n1686j4843J5203K8364J4070q915
9499b4159l764K8388L9377K452m1823l7616J1113N0304M6320J3693k0505m6214o0566n6774l5133r807N294R370J0626
9480a19424J7070L1257M5077M2036J6459j1273j2888J3046L8664M2297L2307K8909L4805L4603J6924j2147l5411
9463B02311l9345k5587j1185j3808l3344n1740n3391m0790k6186j3489L644K6880M4744M4039K6365O607n524j5028
9445B5173k7513l3616k0018O932K5319K8397L2563M4916M3125Q121l7275n0050k3452N625Q782o84L882K4453M3442
9426A08122M8443L5058K69m7123p9025p1713l4075K788K0080K0926J1710n851k3538k7065j4292K32M486J285j861
9407e1144j816N770K4768M1783K7977k4473p7673q1503l1190K6075M4500K3436o626k4005k8974k8858k7367k6492
9389b15812k4659j0950K7112Q3356J26642J22596O4454j6701p2242p2409l0347R617J3600j0513k5814p221L6657
9372b634P8043R3729P4407K6344k7389n8168n5470l4824j6554m534P092J6805J7654R210m968k5396m8647n7703l8400
9353e1403l975J4933P772l792M635L2322N9365O7258M8880J1273k4869m0235l7890l8757n2009o3576n9879m6356
9335a76303l1823j1062K0244M5995M6052K7062J6916K7602L9916K9935p35k7452l0119j3602m25l239q661K988K3967
9316b2744K1651j8501o9107r2622q2053n3442j3674L8034Q4235R5758O8817L1488O126j2851l4778m8553l8363p644
9298a48223K8790O3512R0340R1654N5429K176k7971k0470j670j588j7250k5864k2301k3739l9190n4550n5108m6265
9280a52288l8489k4341Q940M8710O2454L9293N779r854j1078j6376k5400k2923q330P59o379k1788l2772l3363k1678
9261b59124L18K2880L5296L6437K8891Q102k6989n6457n3543j9381J4330K2070Q025r684j8715j0128K2257O6516
9243a88899R2690Q3842N6828L9503L7071L3998K0259J183j3919k0542j8745j3050j0001r987o319K327N577n285k3508
9224F3023l3414k6135m363K1914L9673M0383K8777J7375R422k978k0718l1314k7568j9014j5300j0404N945L1986
9206F7290N8414P6765P4421L8443k0173o2266o1313l6953k6076l1191k4342K484K1968J3593l753L381L8776P1261
9188B00729O9540L4180m681j8747r191J45m592j2295q900q79m857k2934m1221m6783l5255r393J8472L0696K2841R114
9168A65989j187j8509m8922p1413o2421l1543p289L808J6846L3772L8853K7726J3040M58j5029k9196l2528l3425
9150e0970m7076o0622m4403l900J6757m012l5467m2566k9898j6527L54K8390N2441N4501M3434L7914L5796K6116
9132c9738J5793J7361K3476K0717J7187K8034M2302L3699J574k5184k6037r878K088k089j8951l0870j8527J4111
9114D5068L5287K0286k0124o0927r5007j20871j17565o8069K58L6565K8942J2423J2284J5598Q524N929K3713M7481
9096a90205N1144L1027M140j5364k4558k7495l2815m5517n4972m4356j6890M614J1586K3096N2857Q1226P8114M2697
9078g1671M001j1649k510J2520J1511r191k6146j2654K4913N1600N1099M5929N6292O3275L8814l980k2826m981J5029
9059B09375J956l7007o4350n5084k0090P500O926p444l298K6765N2312M4635J4332p563j2383j4252j6819q610Q235
9040A25136J1892r308m1192o3305o6143m7394j3589J1355O055j2464k460L9245N9917K1361l9897n6764j7684K8655
9022f6584M4981M1610L9507L5460J8578n094k1299k5025j8214m364O312J309j6446k9528l1158l2519l7244k8988J756
9003a26950L6408N1337M7887M1496L4028J7679l505j7634k4117k8605k5430p320J2551J3568J450K097J8287K0650
8985F3877p663m3323n6838n3094n5754o4979n6412k0004K1622L9953L3299K4489L0496M2549M0128K0145N65q897
8967d9841k3849n6179p9965n4990J4025P0424P0039L0408J048M545K5545M1585M2620K9041J0537K350Q393J4319Q694
8948A08749j4l34L172M977J5537L8646M7558J6755l0392m2695j1032J8921J1707j4919k7142k3530k3337k9724l1232
8929C1671k6622k4271k3697j6656k383J2800K5962L5290L3717J7605l792j9549l1751m6818n8803n5387l6293j2268
8911b01245J0239K9789L9451L1812J3718Q59k589l675m06J8317M6813N7695L6583N317p004l215o295j7866j7528l567
8891B7203r65j5820j5219J8986M3099L385p3914r7515k9879N6765P4246K9857m56J5905L9165L3627J4188J670j7061
8872A07267n3666q0315o5450k5758n210j4201k3941j4989K663J7966L4558N0252M8308K2737o745j7387o357J7183
8854a3085M4741O1025M3356j0364o4919q1833o4769m9037m9250m3847j6432J4931K5488J9546J6803J8151J1363K045
8836a36087Q615K5994K4834m120l2347l4133j9467q343K545K1698L3689K2490R445K8624O9238Q3664N6247K3482
8818A76068J4392J1260r280l2340l1843j4130j785N184J7645K3399L464k6572l1602j2871r347l5695n6772m0983o678
8799e8486R479O354J0647K9564M3357M2340M0928M6741M0467L845m6714p5173o9841n2507m1732k8145J223L1219
8781f6434L3813R407j1050p877N838J2564J7603L1937M5822M1397K0947ok1012n2961q6157q8191m4316J6725N0073
8762i1878L9685Q058j2066q490M926R501O853J5755L9132M8508K0614j8889j7419L4559Q4571Q3248M1921K682k5522
8743B65749o5081j13094j27888q4511j4581K9345L1790J6723N182l940j3270j3253J9J0146k29k2537l0371j3679Q764
8724a34716J4481K973j0974k0118k8643l6668l4450j6244Q803K5885L0067K7098K2840J8612J4346Q114o794l3739
8706a49127n8121n2779q967M5092P0960O2935M8607M5770L8864Q551l3219n6623n2007l3612j0954J9401N1344O2910
8688i75M4619J7415P488J3175J1447q309l1214l7271k4427q880q133k5838m9665o0989m7703j2232K7857M9161M2314
8669a02160K5387K5919M3512M5350J1354l2837m8997l7954k9539l1050k2308r91P667l316n255K0156N0848O1126
8651b3088N6882N0695L3406k91k6646k6231j7351k1494k1380N771L7220L6036J5448J6457L1344J1932m2478o9354
8633D6878l4247J8620L5196K1501R321m284l6807o7985n7510n288M5878O4963N8700M4514K6866N629j3467k4796
8615A33682k8046k4258j3804K108K2146M2752N2892M1229J3677r040j9286l2978o0099q0543o9200l5805j7337l0826
8597a12736n1756m4917n690L5991M8642L1119R464L373M763j836p521J1883N4919Q6015P7523M1995J0465n855j7714
8578A68127l3526m7959m8868k7464R985L6256K4816j3850l5493j5559J7641K0894q052l4514l5694k0655n685N792
8560d3808J4176J2154p873l9322n8431l9816J5748O9258P5454L3793r081j7173n685q306k5024k8613j1111M357l182
8541g2485k8117m6545l4845J3520P3278R7678O4185N073k7185k0354p400j5116l1980k9834J541M4967O7086M0843
8523I4310k6426q8598j01769o9756l4457k5236l5443m3829l6675j0369K4877M3430K9386M566O960L8147N8629M2993
8505a29260J3017K624J2961J9892J0039q117j9639j6852m192M466J530k06J6597M2575M6513J8055j5238k3870r470
8486c8575J0604L0384M8174M9899K3824j6381m3651m7442l5408j3099J7493M2151L9065M581l8872o4737o2481l5921
8468a30392M347M1444N7610N0117L6950L7161M7149M5343K1715p092j8815j4339j3311k3696l1546k5635j6335j7941
8450D2734k3631j3971J4142M0524M2068J1745l7091p5813p7467m1012O672M1328O2323P2915O0165J8717k2109k8067
8432I4172q708j676j2365q112K3323M9145L9034L804k8906m7620m9517l0180j268P672j3218l6382l5156j7112j429
8413g4499J1178K4349K8033J9859K0197L8131M5761J7516k5814m6152m2758m1597m5472l4641r021Q586Q233o87j3187
8394a11985k6200k0317J7957O0446O4482L5499K0011L2126L2733m761n0596o2358l8734p665J0710Q974j1967l0622
8376h2267j4592L4143O7535M9774M842k1103k3358l1414n2513n9683l4510R405N0160Q0514R9581J00219P6014L3353
8358B86100j0655m1355n7911p0675q2056p3572k7111L9495P9625P0712L8667J5766j021k5517m0593j9470K2409L9301
8340A42139K0642L913J2060J8587k827k9260k3516N105J5693J384k988J6455K3960j0240n6599o1375j9798K0998
8322G4333K9392K3768K9426L4247J2953k5430m7461m5613m5714o0056o4159l5593P329K7040J3353j1999k8235l1481
8304a43900k2601k228J8880K4094J3398P080J8214L3851L4554K2850J7739K4872K7217Q910k1661l8995k6989N284
8286E69L1475K9939K562k4933k6168k660J5364M026k2561k7798K38L1885L2511K555l0360m7685n1336m5647k9356
8267a57380q051M141L674N500K2644M6803N7870M6596K1744O41l142R864K2796J9332O609R403L4369N3763L7751p692
8247B27235n0399p1152p4706o6525m1739l124K8332L3920J9793Q205J0174J5917J1544k632j4198j5297j1490j2384
8229h526j8500k2800k1859j7221p476R342K3956K0145l305k7772l8980m0959l5873r664M1394Q5952Q9084O1686M5778
8210A24402M9935L5685j8295p2441p4481l0893J946q975l9036m8590l4410k3978l2032m2124l3870j5155j2932l1566
8192c06810l7335l61N7034P8646M4880K35l960K6762M6581L6293K3822L7122O3015O4921K7581k7679o5818o9225
8174d296n0436l7520m3285m9803l1390Q216L5469K9879J3254K1039N1511O3887L1943j9139m5379m1633m1402n8969
8156a68054o3563l0655Q040L223l4637m2664K992M9445M4511J0533K627K4647L6607K8359K9600M7238M8124J8042
8138A4415j0683j2916r391k2825l2880j2161K0939K6753M260j3386j2789j0979j7087k0216j5991j1805l688J9457
8120a20973M4578M1506J0622r756J702J8068Q750j2204j0700J2872K5102R023j5334k1035m534J8288L1629K9900
8102E7504J7516L689n381r868j1445j0001p888j0612j8518k4162k3050j9914j9171j7248j0725k894N391K0337L9513
8083d6927M2202J2189l4847o3115n4918k3961P129K6587L0119J5283j2184l6541m4731l6603k0110k516J1691K1270
8065b09983K8872L5293L3203J6171m680n581K0767N0334N2588K5986o02o83K2923M3891L9158Q851k5471l9192k3350
8046F8495J0572M0798M9987L5051R087o832j116J4923J5378j3413n6464q4952q5576o9272n1004k9588N083M8756
8028a00087P8003P3863M4093J4803L329O507J1852Q400j3087n4381r6297j05490o9956j9906L113o141j6791p075
8010b45248J2255K4589L3806M7630N1746K5357k1183m7210k6720K1270N3694M4538N19n1263q0441o7676j8558L5017
7992b07878N8189M3035J1871q498r262L271K2160M4058O3832P3027O5083M1333J3723N7Q539K4411K1608n818l3725
7973B29016l9827l5434m7838p5759q5144n4937p468J8808J3383k820p871K094J8339K9080K5324R821L08J2012L5132
7954C6219M0865J5470k0053l2046j2166J5423K5683K2044K4835L4986K7168j1998n4999o3238l7910j5289j1604m060
7936b0670K1554L6486J0004l6007m8091j0392L8206N5914L8974P261k2582l8056k8445J83K0021P685k9750o3657
7918f1362p2993n8016l2568j1095J67N353J1496J8790K2155K0970K0317K2997K6660K6665J5639j2757m7846n7925
7900a63353k1751L8250P4573O6651L4572L059k0165k6720l079L9384O0009L8428M840m713M39q617k3437r041L5306
7881A14635O8319O3309L5616O059k5488n4721n6388j9583K4581L8515K5241J3327Q774p130l7896o1819o4979n6365
7863A4007m2168j1659L5984P2038O7282K9127j0123l4146n1065o6073o9537n5824l2914o107K8876O5995Q0863N9940
7845G4496K5082R599J6877K1658P860j4935l2050m0402m0026k6436k36K6526M0173L4226Q013l1512o5307p4055n8641
7826a19090l6221j5087R031K9790K8950R242K280K2677L6773O434n0081p5322m7158k695J6835J3064Q925Q071Pj0180
7806a63755m184J9634L9620L7792J9205J04j0179q507Q257L4818M9677L3463l294k7260k3318j2088j5408k2466j1022
7787e8911J1147J5592r5p437N576J5053L620q239L248K3741K4066R097J0611L7301O1970N9447L3098J643j9989k5064
7767A95475j9280k1294m0805n7748m5101j1577N261o244j2718J4440N4494O4185L3679o623k7547k8626k4876k3037
7749D2058j7594l816J1102J2744k715j9296j8010j129J1497J1269J2229K7784M8577N3710L6665J1157m097K52J9992
7730B32379M0627M7440L6863J6352o307k7217m0267l7187j8438L436J5401J3164j830k4564m2647m1548k0150O545
7712A52052K4146K9792K4291O402j8957l9163m8542n3161n4078m0244r340J8999K6357K0371J9278K2559J8028J0535
7694A09325J8006L9105M9761L7680J7994N408p895l1828n4098n6711m4930l7087l1753j0982K2511L9057K5416J0167
7676I9146K2954M4511K8497k9783p8616p3880l1617m3J7j5062k5493k4900j0854J4207L2025K2096r506l3129l0713
7657a00143j1344Q611K1168K1041O728q266p371J816j891j0629J0226O2052R1713N8606o953m7121n3471n8481o8573
7638i2282n7082k1996L80p975j8730n018J8234K6153K6956M2560O4658O2566K9122p683k0431j1277j957p883k7094
7619h779m7718o0488o2576n0513j7953K9301O2609N4108J3303j9288k1723j3655j9117k8270j6183J6888M7874O3350
7601g8830O5440N2869K3405n807p687J8438M2198M1463K5893J2084l087k8027n1931n6165m2864l2696l4992l5535
7583i5831j7313J6881M6529N3267L7469J8174J5549L0399M2982L4093L701l2328n6269n6262l1369J494J5146J92
7565B6504j9955j6263P570K0035L894k4313l9864l6712k1467J521K4544K8614J68m6367p6814o9748l3146R913M2491
7546b19395N9452O1179M9291K9829J7823L0873O8160R6630P3791m200q5748j10188p0077j5251N635n934j4080j282
7528c3492J1166k140k9656l2581M174M8012N7929L5649J7344K0306K4727J3387O23M515J3629O355j1980j9428j6310
7509A12229k3835m4400n1750k8444R138L3173L4961K3187N734j4717l3811m3002l3640n032K8039M3669L8210L3366
7491H3075M3117M6031J5539l0409m3106q908L1481L8436J6817r247l3393n7528p1827o9871o4779o6130n7910k3689
7473b62301K1856N2479O7486Q1732R0552P6355M4949K4229K5207L0437K3759Q264q259k3829l4458l5640l4529m1267
7455A07022m6384k8970Q646L7322L9792L0644K7760K6229J5233Q89o849j4815l3000n0805m9722l5176l2808n0787
7437e5779o5294n0422p692M1408P7510Q7137N9715K001n0262o0050l3632j5522k8189l9563j0952M2627P1832O2433
7419B7306M7015M5282L3770p133n0461n6044k6088P39j536k6440n3271o2658m3715p257J6644J3848Q117K7300O0409
7400e4173P3768N9080L7409K3312J4133R893J4305J8649J1844K242J598m691l6682p5774q2421n6632l5364k6098M280
7381a01322N8801Q3272M2446k0571m1140j7515J492j2151m7238q6093j13071j02400m0175M2151Q9662Q2165M7966
7364a33721K4095K5650M7524P0275O8470L7107M786k050K152j2232l6160l2137L323K9426K3465J4459L4101O5088
7346B33621O5300K4465k8216o0717o0832l2520O999K9412J5619k1477m7009m1480j9779r590j8587k9723k5967j1458
7328c1939m050j1678k4017k7947k2437j3427j482J7498M2115O2184O4731M3086O254k0745j8078L164J1443q87k887
7309G0901K7830O0798M3949k6604r6197j13164p6888k0978K5979N2012N5494M4593L3085K5585J4478k346j2256n012
7291A01259J0488J5954L738j8887l7781l9567k0996K703P547j4485m7700p2429q0024o4554j9154M3988Q5716P5126
7273f9058K8117r192j4025m965o332j7388k5876l1903m0667m3503k7104K333K4706L7285N8702R1998J04438O4850
7255A22416j0081o9899q6295p1812m6022j3919J5298K1844Q264J0491M7442Q1800O6294J4071j7393o281J3041J1906
7237I1165M555Q752J0807m931k3935k7104k2902k5083k1261L770L1406L0876N878j4523k2085l0323l5411j7666J4486
7218d3529K3040l345k6739j3004K1732M0473L7080L1321K8553J4570j3647l6494l5202j3820M636j119k9796n3502
7200f8792m3624n649K4633K6189J6077J5449J3763r321m2340n3554l7779k0380j4186l932J9319L8226L7671K8425
7182g9805K4634J7861o005l9013o1185o7256o3003m4473m763M1711O5786N9094M4929M6366N6991N2264K2123j5232
7164E1024k9347n631L8519O5876N3374J4649j5495j6901J289J7321J7293k79k7829n1551n9364n2571m5788n0755
7146i6166o1822o0184l2710J2403M8562N3525L1208N896n870p285k053J8785N5411P9966O3751J8258j6330k2889
7128H2456k0866k4692j9045J0372M6799O3389N6059L5338J964m4548q3075q3742m4224N601L5695L7548J6731j6789
7110E4971m7868o2057n8600m7644l2726p923K5222N1622N9698N3957M4460L4206K5345K8135M9812P6898Q1727N1749
7092C80984N767k4860k8248j9834k0199l3090m8080n6569n7122n0549m1063m0255n6675p9110q3500o2184l4000j7327
7074c65914n740J6206M2527M9464K8686N56j0597l020P334J0283J0696J6638K6815L3187L1553K4701J7320J3944
7056e5361K0041L4751M1150J9003k3944m9427l4431n549l374k2738k1681J0189L0146L468m6084o9711n3968k2792
7038b50312K800J9835K8861K9871K8592K7843J7924p400l2238l4240j4135P560J9385K8086M0997N3692N5096L6583
7020E8800k52l8584n6475m7314k1121J4429N4744P8104N6112j059m1769l8028k3055l5978o0569n6428k4155M265
7002a78333J8601K7950K4267j003j9136J257L1888J7667l1503m7247p508L1942K7544M339m110j0203k9990m0153
6984a83731k0402M423O830K782J3338J7315j0881m6826m8662k1162L2Q846K5253M5067M2371J8512N847J9517L8312
6965h3219L7067J4714q790o832L2332Q1579R0519M6227l842j5683q781k7364o7575q7839p3126m1251J94N1315Q3635
6946A3280O3197J1519j1010R070K1096q084m6882n4760l8437k4021j2087O862K2265K2118K0638L6863O0132O2327
6928A54086L4358p838m1860m8967k1948J9459L5978J0616k8706m5344l9953m1171o1207q2436q3904o2039k5685J3809
6910c22752M5309O1371O2107N1597L2694J0194m745j197J9379M0485M1873J6196k2740n0843n6200m6677l2501j1529
6892a67979J7900L9886L4215L377k9143m4895m0052j4347K8372O8226P9720O0880L6265K5669K3922J5592m639l0921
6874A02048n2834n9540m8853l3804k9668l6138m3691n1222o0647o1182m1178j1000R883K3902M5628O5346N7200K5742
6856b00008O803J3340J8566O838J666K0173L6050J9087j5315k8614j1820J3160K8333K9137J4892m797r090N138J1510
6837d4951m171j3095J3368N1815N9517M2623M2192N8139M3221j5453o1387m4097Q782L1753J0434r572M849L0405
6819B04372K4953j6169n7997o8679m8877k1926q938j6596l6971n0344l6495M807M8088O6987O0210M2554K0612k980
6801A06611j0649J4248N1749N8477K5578q551j6852k0001m1615o1094m5657m763K5694L7246M8055N8799M9321J7186
6783B83782j5980l8389n7572p4099p4844n5944k7546M423L5947M8418K6471p921j4530P291J6199o876l0633k6528
6765h331j3345k1979m3709m4559j4931K2035M1564L5882J1319j4577k0865l464J9208L0554L3668L5504L0902J8207
6747I3083J3368K7198M1053K8221p728l7239m2469l1138j6496l025Q487J8611L2545N1466O1163M3603J060m3127
6729B38636o8628p3504o7399n9994n4893m5567k0217K0052N2881N6650L6257J4286K310k715R59K0052M4562M7813
6711A41541J8230k3412m6997m2030j8383P573J9539P975j8160l5594l2174j8819p879P515L7990P1052P7974M7215
6693A93156j383l6372m0675k0807N75L640q749j3550K629K3742K6227J2166K313R05r111l3048n0702m6170l1624
6674b6838k6130k5211r199K6171O2920Q0933P3929M9624K2903M568q917k7625m7063m9198l1826j8258k3428k9674
6656b319j7268o94n410k1164j3418K2418N2908N5463M2760L2200K2729J2382R656J4583J4490R635J4953K4483O939
6637B75326m3936q6329q2527m6371j2849J0102K7147K2034j8097o2828o8551m0119k0260k2130j5657J7012N4213
6620a13820P1401O9058N3759K5053n679j3939L691J8081N151k5213m8434n1650l0574J4996O6071Q4941M9630k2217
6602A50306r1887j27855j13081n0160K7261P0626O1897K8398K136j5054l3185m5474l9333j7837J0417M6132Q2874
6585e3819R3909O2733J5037p390J992J5028J4680J0961J0531N75k5184m6302l9023r386J3013J1638n20n385q910
6566E4178k9946o1422o5945k6224J9214K0342j3445k3821J2862N3259N3016K4926M380p701k9009m7544l3709R338
6548h7251M7099O1444O1636N1103K1047j8930l9612l2463k2957l2109m8723n0950l3966n575K5608M6644M4307K5424
6530A1776J7463L6773O9305R2188R9402R4817P4328L1272k6229p5145r3959p7689m3415k1223k8735n2060o1872m8310
6512a313k7618j5801j2896j4013j5825q670J5983M3933M7625K6376J1612J8113J8222j2012m6784m4210j0400P896
6494a9782r955l5630m0357l2386l1712l3652j8554J6015N1555P0819P0271N4744L1147O496j5085l3205m6624n2893
6476f8788n6063o6245q2106q0613l9455K8908Q0111Q2483M9259J7750O667P945J2400K0609K6601J5375j1075k6324
6458h2561j6633p307k6365n5730n2554j5084J0990k17j8657q503J8276K6635J2142l303j2532k3134k5560j321L4599
6439b46819L7623o972n8303o9978m1530k570L0159N4961O2391M2263R428n282O291K1639K3796K4362L8211N2244
6421b8086L9258k414m1753n0901l4563j5953l033J7920N5497R2035R7088N8565m595n8170p6188n3459o359L5177
6403B0066M5624K4410j329j387K6834N4292M9081Q562l8266n9465m8610k3943l552J1175K5437L3174K0098j5298
6385A26903n3196p0014o0124l6427j4281m27N685P207P787R612J1718J1619P866j051j7636l9660n4086m3975o085
6366b08565M0857O8854O1832K5781j6793m0504l2138n30K9227L8333L2773L3714M7454N2509K4611k8621o8444o3973
6348c623k3581J7496L4133K7777J1645n638j8440j9796r134K460M651N38k163n694j3642j2517J7269O7981J02050
6329A71772R4210O0356L1197J2671p960k8475l0714j2616L413J290q651j0026m889m757q209k746J4000K6823J9210
6310C15899p102l1205l4259k3244k6001n3972p9113o6160k3119N492j757j9092j9540j3108j6117j1538K3717O8781
6292a1438P7661M3806O488j0103k5078n7122q9377r7652q3920n9509k1745K6191N6463N0722L5715M7896P3443O5620
6274B8061K1018o738J6672N6508O1546L4937J7628K0701J4953j5714m8272n6515m4100k8587j5707n254k873o691J835
6255D3408L0753N2748L4473j3609m5128l8688k2485k7274m1517l4571o427J1979J921k2598l7744l5089k0449j556
6237a71853J6772L1905M1385M0445K6498J0299J2380L6750N6785M3340J445l8284n9757p0678p2461m8517N397O0082
6219g8067P9678N9537K4893J113l420O115J7805K0025J1168L88n190p550q463l368Q364J6906J4573O753J737k300
6199A60697j2056k8985n1205p4119q1408n1558J1263O6673P8105N3365K5448M760k1479m8936n1578k5323l621j1345
6181f1302k8032k0284P183K0357O784j0597j0499J929J4885L1776N7649P8874P6540N4569L5336K7750J8867J803q650
6162B94938j927M429j0318l0326j6366L8227R0100R5486N7957J3629j3861k6259l2249l7803m9947p1102q9371q7631
6144A27606o2646k6911M117J7997P317j9926l8238k8882l094J2635R073l124j5785k7480k9896j4496O088P637r383
6125h7391j5925M706L2893M0668K5719N372q448j6214k4202l9293n8990o2828l1366K0402N0265M0416J9506J8291
6107h6419K6816J8126n175j6202m387J6008L1142L6847K8028L667j9279j9862j442J3038J2732O583J568n174j2422
6088B4193j4310j5029k3311l1402k2530j962M826q332j6635l190J6127K3095K8358M8414O8595N7117J0257m0564
6070A03717o5964o3276m3250j2029K4800N2464N3629K4633j9046n4842p1246p3973p2892o5780m2080l895K5941K5107
6052b77982n25j6999N121N6148Q8765O3857k021m7566l4478R272K9589J4723k780k740M82m878o668J586M201l179
6032a26072M296L7636O1091L7185j4942m3351l2885j4076j0238j3239j0346%K0635N0661O6149M0906q303l3261j9686
6013g840l477p980o157K8953P1661P6976M2603J691k8822n5239p3068o5506l6727j3102m873N523K7676M0497K0045
5994A2834k5612o3654p0382m8941j9976k179J560K819J0894J9902J8834J0385P626J1612N804k0735n3343o2593l2933
5975b98078K0818O1856N8625J3630l3432m1671j2550J1953j1l2624m5975k7019J120J8866L6801P0480J04507J03945
5957A1241N9772K558l4913n0459n6846n1493k3883J4895L5006K2902n175k7789l8105l5467j8361M285J3425M373m233
5938a78267J700J1121J0030P779K0920M2807N1206L9172J8395j588j7246k0479o889P916K696j7867k6297q926J8758
5919d5059L4695L0691J0295j4521k3983r102Q155l935m0140n6581k6130K5390N1571L6999L066k3162l1070k6346
5901i9167k0555j7464q347J1195K5313J7603K491Q546K8553K2357j7330m0715j0284L8422M3689L475k8808k3106k331
5882f6463P135J0934J9673K2028O640j2261j4193m338n170k1010k8805q022K9745M9245L0906m227j8066k511J2850
5863D090O140m090R821L6566L8596Q809j6355p519J9825L1305J7364n583k3669l6267m4132m3480l3131j7818k495
5844f2023J1357K2407K5802J5590p029k7709k6869M19L5271N2417M5076K6651J1283J485o775j6428k7666l7319m0556
5825d616l8372l8725m2928l8547j7972L853P852J932J1901M1260O3181N7361L1904R28l3667o3147o0499j4775L8256
5806i4820M9751J7532j4102j4041K262N408o320j3224o102O953J8734L0065L8285L3039R781k0692m2661n0349m6123
5787i6624k8473P908N8039J00918J14538R4650N5439J3961k2010n1521p0397o8206l9658P47K4426J8306K767O042
5769A20852K4185K6280J596k3233k5607k0280k9729m1865k7624J0356L8898M0916L0430K0386O486j0598j6294p043
5751A18112N54k383l036O155J0023l260j9799k3046k0989k9030m0622l7772k0649n729k051p789k1968l9928m4003
5732a87210j9485K2601N5022O3411N2436L1200R982L263J4600K2807M889l0216n2918n5357n6632o4193n9121l0092
5714b75013M069K2261L0846M5442N8368M7730J2479k3130l9157l5770j8299J3360N0568O6629M0198j4735n7499o2556
5696a34209m1200j7923k61J6617K9060K8836K1923K1560K3866J3739l312l149J5304K1242J713j0810J2461M7228
5678D2685N1521L0080K0836K9135K3118n969k7006k2363j3553j6920j5535Q10N870k0957n3652n6808m0015l6635
5660a05358m6203m0002j4631L360O636J9756N3427Q1153P6671M7611J6596p170k1222j7293L331J8387J0741n130m083
5641G6577J0599J2066q745k8778k3629M464L4263M6716L3282k352m1705o1793n8559n2450o0829p1680n6424n598
5623b54575N8228J00415R8850N5857Q82k2364P261N8515P3019L0275k8221n1494l7708k0927j5278l205K3478M3531
5605A16539L8570K0790J1584J0049J791j2986k1248k0935k2121k4671j4578J1452L3624L1565R368j2609k5152l7744
5587I3288n9318q1408q4885n9243j2547L4137N9406N3557K5289l209j3558n988N853J3419J9046K2308J2777j3891
5569E033m0602m3421j9856R526K7576L5873M1302M0936K7914L732k2388l9850l8011j1042K9713N6162M8745K0059
5551A31401L724J7781M4193M6406O181n6248r8734r6321o2462k7801m341J6863L6984M0808K4563J1061K0440M0134
5533I4632M2295K0086j2182m4131p0981p8039n1933p640K2530L1053L9950N7141N8227K7683r060j9075p734l464
5515H9358j0228o464J3334K7863K5468K4156M1424O2623N6987J7740k7326m4025k3774J0706K7118J2508j6716l3662
5497B47090k8323j3676q449k0707m6089p2603q5880p8561n8135l9518k7499j2371J5338N1906Q3773R8201R0211O6012
5479A60720M0651K5460J8219J2803J3924K7631L9027K1420k4396o0249n5128k4459p479j6946l1105k9005j3705j565
5461I5818l981j8945k9165j4370J9994L4904M64n7245p7118l3936L4224P3815O7577L1819j0605l7961l2636L85K9750
5442G2788L1430J6554R199Q852k272k1586k2307Q362M6810N8146L3507m285k6133k3240j1549j1774k5648l6367l3381
5423F7106k7107l2270m4897m5642k1520K1894O3234P4908M1921j7796o1769o3603l5944l606K8236O0400P3777M9096
5405A26418L763k5666l5636n3672q1013p9703l4729R961Q548k1518k7847J218K8972L1040K2530J9091Q929j7360
5387a16674l6540j9398K4949N6699N4534L5813K5019K1741J0742r576k4799k6404k1856k2174l0514m4199n6260n2815
5369b31712k3640J7435L6947J8511j5889l3665k8974j6256J605L4604P8390J09420J11197Q8276N2807J5111j1730
5352B02437j8549j5724k2602l6943l5781j2775Q665R974K563M054R670M455j2404l2085n0008n9680m8732j8454Q112
5333a13807J6071K0976M0623O0606N3394J9979j3796l3867m4333m4499k7936k191J6061K3839K6526J6109j5628m6123
5315d7996m0430m908J4138k957j9781k12L8605N7376N3033N1235N4572L5759j5913p0424q9854o8325k9404N003L1242
5296d9241N2588O2853N0341J7886j2131k2403k3212l5735n6564n8865l2505k464L863q788j6035q413K779O488K962
5277a26596k573l912O851L2534O2097P5454N8597J3779l9966p5855p9256o3178n3551n4818m4944j3134J6156J4936
5259b77379o346j2175Q603L0450K8552P646j0226r069J4394N0177P3982O1701J5232l5178o0857n8115l8294q975
5241b25877K4206M8303N1460L8771K8942L4030M7657N1874L1770j2424o0469q1512n8017n189L6419L3226j1666n8392
5223h6888o3008j7325M1465O4892L8769q405m0424m6752l7841k0492P105L9012N6402M6354J8983j363k59J5028K5603
5204C0856J8505m350k9401m1281l2994j0840J0377J9895J9258J5460O602j7772n6314q2756o7136j3460L4600L4854
5186a65897j0148n7157o6159l3870J2565M4330N0419L7077J7005J053k679J2433M6413Q4348J00760Q1379L9388L135
5168A94395j1949j2617j1394j2056j4114j9753k7651k7389j0774J3953K8703K6407J7223J2181P699q299l7326o3173
5150D4066o6993m8419k6390j5553o889J9063O0820Q9899Q1337M0932m637l6228n1584n3533m1360j3791K5279O1655
5132E7674P0621L5009k6845o5273m9294l602K3276J8330O423N07j4894m4152o0641m6277k3049j9406k5853j3496
5114a80942J7048L7812L9488M2532N7483O3252L9266j73k1837j5260k943r976l4176n0102l7802k107L6262O1634
5096C9459O9066N5389J9215k7773o2729p1386n7091k8606O010K9799K3223o892k5069j1908Q197O628k178J3872M4406
5077B1632M2379p893o4106p7470m3148R898N2840O8944N6287L3374K3530K3174O196l0229n0144k6717J7113L8092
5059I3752K5329J228j5063k0693j6751q242j0819l4364o1814o3845l4074N567L1734L7224K6598J0925K992J844j2599
5040d1071n0917q6014p7616k5069K8554M9469M6461M3327M2842L4591K0182J0252O609N255R772K4135L7068L1953
5022A09783J1467n259j1977k3799m9672p3642p6562o3383n1626m1141j7256J6653L3464J9046l702l161J9865L5240
5004a75662K1098j5912n2034o3712l9729O709M1356M1748K4044J9322K8157K3885O66j3048R69K2724K9115L1663
4986f8641N4074Q9724J08533R6664O5759K9776m805l0865m4538n4667o9954q1180p5938o4986o8585p7554n6871K704
4968b51350N9851O5152J5868m3172o4660l7524R850L6859K6446j645j6193r136M967J8057L6629N8024O1821L8469
4950H313R878L534J6079K0882P185p067l011J4557K7254K6508J7255M423j2756l2472m5947m6640l8895l1919k8928
4931i1767k8592l3207m5469n7911n6695l8733j5275M797K5019N0191P5336R1148R1073O9681K7641j6051l3405j9212
4913a431K424J3665K3967L8875L3240j2347o4526o6830j5292L2503L0851l847k8336k8657k1866k1966k5496k2456
4895a37525p607J4073K7876K4018J4447K1837M7669O5813N3767J7303k0399l9381k9268O453M4662N7952M4161K5304
4877B31155J2436o572l5430n2076m1727k5023k8003l9195k4512K1034O1569O1714K3888j6292k2039J2090M9935M4469
4859B27421r443o3426p1168m3283k6647l9221n2535l8136m904J8411J8755N625o309j1305j3872k0411k7795k3787
4841a82030n418R085l91k6840m1157k7889k219J3425J7181K3355L7364M5390L0640l038k7514j6521K1916M7546L1480
4822e5635p811k4825k103K8939K6662j2442n2281n8278l1008L42J0398j299j8492k8787l0715k6146j6308n408J928
4803c03269R136K3455L9808M0859K0676j468p97K5094N4773O3307M0104k842l3643k3613K0792N8216N5359K0605
4785A06552j4823l6103m9340n8315n7815m6769l0673j2044Q256K3665K8321K4947J4012j4302n8714q8287p1750k1620
4767c54802J8225K9649L6367N7294P4075O1907L0943J5420L1252O0417P2910N4607J7602j1204j5709o059k932j0282
4749A59680j6079j6575k1314l1976l5206k2669k745J2343J5421q95l6532o6256n5704p329L3505L3537R839m334o508
4730e9797j2187j7061n564J4828K2014J7093K1349L5835L6292J4527m668L9J6944K2032R790j1278l6456o0229o6617
4711f3114m4786r627J0995R921P221J9985L7616L5341O902k5462l5317k0471j499N498M816N828K163k1084o2060
4692a37134r7380j04999q1321l3981K7211Q3075J03945P6025K6418K514K0077M5626L9166K420k8936l2493k0115
4675a09882j2520j2618j1983q310l592M595J5920J9216P610l152R998M3238O4485N1186J5500j3790k2060j5825j0766
4656G250j8820l6388m1221j4705K7597M4224J6048k9562n3767m8445k9962j1036J2r800l9099n5580l0288J7298M1682
4637b64562L6741M0667O9295Q5913N8081R287j6364j5212j4605j9184o352K7217N0980M0931R062j7177k4805j5912
4619C4001K398J6529J0193j6452m1657m7788m2575m2559m5245l4433q857J2832J8248J7019K3019L2752L3134K5105
4601e4336K5123L9972N1233L5184m864l7450l7774j4558N398J1901J7185K8950L4651K0891m115k0862k4569k5836
4583D6124k7597j9197P73J2025j772k2913j5004K8341O7723O3611K5894j879l534r058m2434p7189p0440k6130J0892
4564f1764K0692K8675M9980N5892K4157j2111q795J7410J2326k7807m6736j5697K2566K1649k541r718k599j0538
4546E5041k9326k8583j1491j6838n3891p7934m9284J2860N5912N3978K4927J395O11J5092K1868N530k3599m1359
4528h5091m0590l7736m5528n3244m1586o943L5830O7092P5303O4540N1079M4389L4106Q362j9258k1241M547K8969
4510F3000K9807J3916m715k3641l6990k8020M319L2699L6403L0302L5913M1930K3120j2795k9260j0276K1079L5184
4492B21975K4730l02k5158l4214k1336j404L775n690p514J1355L7248M7171L1319l972m3293o9907p7456p4892p0209
4473e7774n3906j4586L2220N2263L3583O97j7772j7685q454P519L0743N2246N9276M8650K8013R949P233K2078L5398
4454B49691K0683k2501o0859o4176m0571k3573l0736m6330m2006o148M5160Q1156Q3104O1312M2318L8970L9782K6703
4436C51979p128n6393j04258j21217q4091r200M9146N0443J0106k3341k3690m354J0727J2551L378j4585l8581n9516
4418e8024o1941l2816K2272P1347P8938M5719J1591P304J7848J2008o873p868J6140L5825K8994Q689l236p183j5510
4399A63224k9166m0429m5495m0444j8215J4961L3083J8893j0139k2878j3535L05J0651K3653L2463J6182k3023m7410
4381B2681k7933J4860L5094J7678r795j7276n016N816M83j6131k5118j1318J6794K7459j966n3325q1660o2793j4255
4362a85721L2118O0802P0007N8912L3782J4208J4968K6860K9982K0716J0897M816n921k4405m0196m2259k9669q139
4344D1758J4402K8297K7672J6146K75j8520l6309l9021j9096N747J1293K616O631K6408L1320M493k7190l0771j3470
4325C2681n468j0939n837J9670M3785M2231J5144j9976m6185n3165m0540k2524j7244k3446j7729J4788N3942O1669
4307B0857K6543j9559l6142j9570k540q291k0282q511K5804N0903M5919K0465p629k9702l4330n873M5830P6023N1554
4288A71469m719m0472l6275j7183r662j5634k8671m6850o1946n8470l3202N34L2260N9593P1076M8851l58l9806m5015
4269e4480l3452l3694m0955k6451J7856O7145R3739Q9287N7924Q735l8838n9905m7261k1611q821j2293j6939j5501
4251g5515j6731k4335k2423M171M1472N6786M0421J8818J6431K2527J3543o288j3085n392p330k5932l5852k0332j846
4232d0892j1212m3297o5310n8053k8552R467M5850O8448O7967N0601L2416K1105J3831Q532L538q689k9912m2278
4214f440k7737j298J81k9806n0829k6658K6779O4696O8962N4915L3511J152k8996k1113L4900R1786R2690M2629J322
4195C20646L812K0617R343k4855m6269m4276l7751l4294k2937q313j3231l4304l0668J8650P3313P8113L3673j1063
4177B50206k6269k7143l4132m0925l2372j0623R476J6922Q595j0193k3013j3439J3802L3031K4550p394m4556o9353
4159A7170o7527l3890J5698N2121O2945O3082O6651O2635L4169p738k9915j7606N413M358k4887m8890l3760J3898
4141A33927N1157M7924K1886J2213K6952L6760J9002j5883m7075o7603p4260n7114j8124J7923L1918L4981M3525
4124A98109M6051K3146j0653j9111K369J8166L855k2663l3196k7486k2633k2824j9035q787P44N148O757Q370R464
4105A35791O192o232k4852l3858k0263M385J3626J960o252P711L0408L8379L0703K1874J4632p8k2513m1491m8418
4086A01704l9880j3660K1407M0126K6852J899j157J7425K4743N656j6313j8520j2898k1782l9867m3061k4618j930
4068F126P909K905j0157k3140k9468k9294k8386k5120p909K4002M8851M8022L3723L0645L7083K9902P101l384J4150
4049A33561L7659L8989K0918M316o298k2895m7871o8534p5588p1345o0391m5166k9702j5783K644K9042N1089N2535
4031g2820L7582K7227K8723K5465L907k4550l9104l5387k3703j0346M993J7099J5742J850p421K234K1103K1439j0153
4012a6120m8821m9909J687O7487R2552O3994J8798n825j0965j8085l2551m2089l9613k8210r037J6951L7158L5518
3994C2920J5001l413p617n819o809m647O984J7391R906j3750l1005k1521J1004L9203L4399n206m7137n3698k2139
3975e5953J3142K3591J9825L0403N6791O8232M2103p132m6660o1748o3030o3315n9595m1158q389K3540L9640L9084
3957e0629L1311K1830Q680o540j3290n402N504J014j9490l6227l4700k2613j2801q50K3832N0747N4814L4074J7569
3938D6833K2496K6286M966j9640q141K7520K8639k4438p4508o4603j8217p84k3506l5832q484K7318L4755K1458J2865
3919b5017R679o06j3555j6960j4339j4797j2547k52Q585l846k7094l1477q909J6239J9755N408k889J3004M7077P0440
3899A7899N6905J4026k1999l0772l0563m2846n4885m2725j4002N889J9665N0966R2459J02641O4987J4304j2478k0790
3881A68681l3546m8863m7841k6692J816K5793L4318J4837k8298o3773o2619l0579M428K6067L3351K4494K528j0220
3863a6118Q488M5308N9087K9820j9057n2824o0991n1988l1322k509K0118K0268M176Q46K6899N8437N3379M429m5242
3844E1204n0507j7036J1428J0721k162m066M682J3575J9489J7073n011l9367n2443k5828J1203J6857p567k5413j9275
3825i2443o900n223r444j1516j1896o629J2138L5065L9330K2924J1197J6142J3185k0815o4248p0841k7357K9896
3807a47435N7274M8364L2838L8819O1347O9534M5810J1116k83J2194J2366k2883o9175q3886n6832j4960J5173L0097
3789C9478L5905L2079J7567J657l430O84k160k3082n2043o6235n3428k1630J3348M0465N0479L3172j0207n7981q4952
3770a10314q6396p5155n9027l4459r73L1772N2540N4695L7296J1835J645J7524L8369L5821J3889l30k493j5669m4400
3751a33830n8821l9269n164J9551L8628N7182N5530K4958L214K8744P3646P1635J1758m3697m5095j5234l037j5115
3733B5584k3921j8645j2622j0715j766J5850K5278J3778j1351l4019m3423l2725J131M4852O6233M2079j0245m4109
3715h756l4091m341L862j6772l7405l6643k3669j3674l339J4715L0215K7862J3035O181J4987K7268K8537J2990j8486
3696a7524n5179p3491n5172j1770K2874K8437J5378M058r11r351k6686m3466m3142k0160J0348K7650L1587M0380
3678a76140N5983N1562J2306k9120k8079R275L2422J6173j0453j3123M165K1204L6760N5622O1900L6044r816l9476
3660H7209l4203q726J2152J6332M206j9028m5842o7292p3800n6058j3533L5022O1552N7532M2513L5652L1797J8262
3642H3747J264l281L596P487N998Q430J0793m766l7462n4887k8184K8391O6503N1110p313o5438q6204o6558l2643
3623a19417j2888j6840l5197n1349n0245k4903J7001N5226P1781O3864M2285K3362K3566N0111Q7230J00106O5556
3606B89249k214o3311q6206o6273k1946J4723J2650l3588r2257j21421j09608p9776n4252l0226O105N3288R0539
3589b94524R6588P0654L6505K1657K8166L2067J9242Q627K2319M3963L4208j3014n8005o6688m8849l2138k1583n288
3571a26093J5593K5980K0157Q467L245R690K6154M3414M9530M4444M1440M4369L5184p46m6807p0785o2107l5694n565
3552A9870K3033L8167K4532j1131l9269m1947l1398k5458k2208j1937R06M775J407L062J3271K2871K3102J3373q30
3533D191j0121o596M557N790r501k2130j0974J3107J6542j2605m8556o1670m9999k6845M454M3846P3244O6720K4277
3514b269k3499n0810o0783o4703n3699j1885M7552Q3382P2224L7086J6272J4842N852k3851n1292m8903k1623J699
3496a34408M828k925n995K54J2411K6513L8505M5259M7935M8016L9869J6877j2870k7999j8040P10J825k0879m4954
3477A4932m2111r358K2308J5954k7995o3926n0534m368J7065j0912m7044l8723J1075N3819N9896M6803M4994N9121
3459E0996O9753N9416L0611M733L292K3900L9616L1235J2195O816J1761Q42l2751o2285o2050l8206j6525j3070k4718
3440I5561l8038m1014l3544k7430k7633j8986J2328M9041N7995L4628N988j2910l3759n6606n2811q977M1051N5654
3422E38L5033N448k2611m8468n4857k7905P553J3840l075l729J7973K2277j0636m3188l1264J7163N8564O7188M7557
3403D7401J0755l4008o9244p3031l7847K0865P2644Q6960N2643p333m8465m3594p369K2278K1992k67j8363j2868
3385a6851J0919K6615J3979j7593m0879m3991l8729l6087l0152j2005J4300L6377M3806L1237M366j5593r952J1740
3367f8493K2338J6316J4963K5433K3812l770k9756k1365J0234K5313R081j6880k9193k3341m002K1038L8187L9021
3349D8936L2574K9983K3095j227l1680m2409k9670j2456L149L0097O4113P1682L2241k7722o1087m8848r507K7754
3331I9018M5154M0918K5784J1681k197k4736n1050o0062m4393k8744m1304p3872q8432o3287j8121J0478Q403o046
3313b60808n642J7684M6404N5417L5888L343j5198l181K9873N1843L5078j1941m6857l8928o441P231q739k1291m328
3294a40593K3654K8814J0483k628L889J4417J2149K632L60N816P584J601j742R307L2109M9562M6371K4821J692j0763
3274A19535j6032k2668k8709k4959j1758k663p647j8599j7161M236L2328M4058K6574j1940m8755o3581n1943k4669
3256a24353L842K5756L8400L7514K0124l033q257J5341M4220M1270K309l4818l7113j5604j685m10N859J5153K080
3237B6595l6142o1339m1874L182L0638K8856K0727J9930J4453l256j6959j0554O225J2093M784K023J5130L4803M4293
3218I3608L6782J6653p536k4099j8297J5840N9580P5082L8953k8912p8828p8593m3060j2553o999j0364o97J6242
3200D2802J5621o093j6565J2170N7235O1988O275o1204p7334l6510J3711L7811M2819M4264L6000R644k1224l8881
3182A22529m8123o2808p5649o4621k7034J2370K9790K5864J9372K6939M7988O2530M8529J0121j9723j7065J909N190
3164I8108q566j3048j248J315j9737l8242k2267J8203M1139K3890j2778l0224r302L5303O7302N8332J5423k3281
3146A80322k9154j5375j7612m6481p4127o9457l2719R347L0991K4038j260k2170j8014J0516L9883M8840M0106K9925
3128H7599K4553K0240J9721K8773L6144J9602j8677m2978k6661J0597K7786J4383m745j0153q289j0543j5933k0675
3110A30744k4078j8116O640L4536K8078k3623p7987q2846l5613K2250N8885P5256Q0250P0457M1129q88m1989o8263
3092A74822o5779k8486K9184P7265R2171P0338K5382j9023m0378l6731l2310m9632p8818q9758p1334m0975j7430m040
3074a05532J232P28M275J9286K9964J0938l0866n3960l5089l87J3558Q019R201K3635L2347K2387K404j0835o861
3055f5556J3141L3436L3352J1400r728j4152j5322l0127m4531l0852O967L2789K5266K102q879l531L499L642K753
3036e4331R807K4457L6442L8237L7852N0732P4581Q3820N8971J1444l1637n5077n5801l2846J438J5643o203l3934
3018A73595k7403K019K874m1328q7163r2096o3750l1624m662J8464K6677J4860L415Q464R817j7991n5007n3024j460
2999b15323N7191Q1894P4278N7866M2927K7228J3863J0545J7087K3968K1398P076j0871j8842j2094k861o533k1932
2981A46865l4714l7794l6202l2882k3676q578N317J5959K9395M5836N3639M3211J8129j1851l9063n4744m9745k7799
2963A303r758j3499l2748m3668l0715o59K7376M1166M4418M7239M8607L4638j21l7604n4807n2054m6315m0470k2220
2944a39891M649J5606K644j0630p896o581k0753k5161N788M3149L7024n33j475N5860J02733P0256j5609p0525n8564
2925a9909j7885P710J6473K4807L4782L9599L6066J9564j2816m3984m2024K625N9686R0139Q2100M8040M428l1710
2907B97691m2353k4885r15P935O117J0172J6894O664k2970m7572m4571j7432J3072K9261K4787N329j3575j9827j9993
2888A63829l0158m8011m9710k4868J28p474l8674m5939m24O8053R9668O8426P745k7582j6600J5045L0768K0317n29
2869A84010j6238k6949m1028o2691q7763j03682r3470n0246Q195M8519N2863L5359K2058K0678J8473N706r545j1559
2851a07310N127L1306N2971O2238N8777M3278J4958k0238m3820l8908j3486J633j3148m1823n3116l9904k4859k7117
2833a53441l7769l4470j0638J8480L4305L1997K1062J5225K2063L8055N1644N2647M0429K3508J1433O766M182l116
2815A32362j6415l1060m1270m3117l4198j6178R00M225m956n600K0678O0912P6273M3414j6675o0073o6186n1814
2797d8778l9156k4570Q960N5986Q4692P5644N0059M3941N9805O2739K7153l0133p3108q8026q6169p5659n2664k0679
2779f9963K462N771m27o71O300J4673K6482M3650N2114L3713m288k9473k1836K639J6177J4921J5332K2426K1646M437
2759A56085j6156k4389k3321k5775l3040l6198l3046k8489k0013Q77K9537M6073M0241K6095K1164K1308J0619r017
2741A02555j5292M113L0931L4700P450k6638l5966j2385K3191M2757L5218R812j6097k6918j4651J1213K1663o189
2723A69467n5599p9458n4741j2892K83j8050l2587k3675q000l982n533k755m895k2117l9143l0483K857L2368L8308
2704a50627K9629K4135K5205K7219L1061L9249M1222K1025j5839l7438j9211K3554M9960L8912P895j4682k1791k6351
2686G3127l9915o1863q0284p5206l2859L1227P4696O9791L3504N79k1414m6571p0191o7081l3118K619J7479K0647
2668b04833K6964L1470K6479K0514K0006J2400r946k6371j3715J6799L3654K6744J0553n759k3581l3498j7677K0998
2650h8799N3905N8172L8487J4151j340m909o11M948J0176J7244J7657n808m7583o8523m3956p079p457l4651k9442
2631a25418K4288O8192N0679l013l2974k3532l093J0942K5270L9124L8996K5938J8082K2074K5889K3559K4502L1418
2613B40923K8037L22m0285o4372n3043j6937J1700Q544j8815m1367m3648l6616l2464k4591m915J5606K2144J9378
2595c0399J9918J9563N991j5173k6180k5346k6812l3425l1245j1813J8070M6791O0310M1046j0286n5844n3529j0579
2577a18942K4905K8429K1355K1787J3375j6030l9802k8065N363K3355J7240Q513J0409J7037K3451K8280J9650j4748
2559D5562o1885q9052p8289m0217L330L2986L2773P92l7844m7810j8869K7605O5710Q3125P5734M6712J4399R7P25
2540E5584r093m0076o9720o9287l5734J0992M9006O5150N8572M3797L9806M8250N2314M2067K7148J7895J0066j600
2522B95137j0560j1792j2830j6972j1042J1280K7508J1394k7787n4967n4491m1543k9397j1862J4793L5547L4776
2505A47192J5208j1412l7835n4978m8028j6055J4034J1836j9525m4284l3030Q337M8337O0044M1223J2821l05P895
2487A01475K0571K0076J0716J1012K4996L3963K1996j771j7388k3494l6884o1655p4716n2725n131L2597L6449J3493
2469E3580j4562l3023l5278j7468J4653M0767M1868K0168n532k1262k4443j3112J5606N2737P5947O7878K9803k3917
2451B24410p4398r9993q6092m3848p485n37j2136j7379j1628r513j6416j9437p044J7170M1910N6151M8517J3856
2433c892l3782o6797o9454m9782k3497K122K3570L3859K9666J6569q48k3964m6391m8363k0345J6655L2974K8822
2415b02878L1446N2936P1072O1576L4372K2967M2360O9119O5719K0881l6517o5787n7786m4039n5740q0890p8535
2398a49724l5174J4006L0826K2370K3218M0105M1508O375m0585n7148l3687K070K3511K9631L0353K6623J6301Q160
2380a261J3889K8408L2466J8585L134M869J8044J6636j4516n8684q0250n8960j1402K3672K4156N351l146N720J6229
2361a7060K1859L3726N0364M5561O833l3838l6001o054J4037P459k258J843N092m363r669M716K2419J9051j481j7385
2341A04851k0605j6268n291R618J4108K431n485O886J9918N223k4979l2917j5452q133k3645k7800N320M7905N2882
2322H8567J2670l7599n9812m0002P297M5817M4651J3823l237J3705L3181J8604j8564l8986l2228k1838k1933k0726
2304a6610p916Q556J8006J9419J4778P056N711J7091K9159K3668L403j2035j7077k3036k7212p436L9791Q1104Q6385
2285B42805O8358N8489N6916L5378j2849n5534o3519m8183m0413m5808m2067j7846P404J0632l449j2581r835q901
2267A18997j8243k7521k4551j1765J185J0143J4856J4599J1724R969N226q944k2950j7619K714P157j5755l3673j6774
2248a225J4044J8768J160l01K3137L8596K6629O777j338m133p710j717J2070Q499k0997m6337m1061k1019j5766k5324
2228c7248l1664l0595k4043l045K9916M3066J6994j3231L26M5753O5871M2183J5574J5270J4756j8688o7264q6314
2210b2383o3946k8831q737m085o14O792O544j4282m5320n2112j5108L5995M9990J8074j4619q393K5809N3582O3475
2191a8169O3756N2275J9464k3767m7051l4041L6K7133L1818J7006m119j6593j0699J2294L9442N2420L9188M594l1507
2172A73480n0947n0388l5279r729J6910K2852o276n1376p3811n9115k8814o038R165K3638L3411L4313L0844K2827
2154d333L867j5094o992K6574L8650m583o8385q8268n1988m980K0080L6939O3043Q3200P5928M9834L1969L3857M3900
2135B63218M2606J5980l3529q0717r5372p5255m8887l8124l3600j7629N529J8865J9819J9109J8543Q341j3816l5204
2117f0123m1447k8431j250K9301M8616M6069K5137J379j2622j7861k2773k8020k1357P487M6070O1519L2645k3518
2099D0821o7212p6095n8941l2716m225K1319L3074K8328K0295J9762K0667J6172J4790K2389K1110p721m4887m7326
2081h0396p086L0676K3513j4951l7287k4329j023N481j190k815L171N199J325M644K2765M3907N1096M3687L4665
2062A01052K8703J5131j1761l5604l3571o647J8393K0167M724r688j8762l0469m3690m5612l2248j6453q974n155j98
2043a10662m018k4342m3891l5531J141L8327N6530O1521O0688M7442K1937L767L802K446j9882m6569m8119k9817
2025f5230k1782k6798j7044J2562K7918R113j4885r871J2385J6055m695k4492k7809k0696p370J5188L8367M3828
2007f5256L0187J7694J9028K1584P653j8429l1521j0797L7662Q0802Q6202N5364K1996J0174O511j2944m2348n4732
1989A58830m2421k3263r553K892J3718J3468N972R223K4132K6896N435j9353k4071j3579l453Q213K8910M7670M8779
1970B58445L9660L9173M3378K8907r803n0926p6561r1129j00953r6186o6964k4270R486K3620K1943R973p151j7926
1952f7284j1625M251O753j3652l6159l3887j0209N024l707j8922k0997j8691k9782m4328l4499J075L0635L3439K5438
1933b37127K8729L8393L8468L3153L8705N3734O0356N1858M0021L4940L3246K7904J7954P344J850M244N700r568
1915B69904l9894n7516m2695j7517k0804n1410o4932l4519J0870K4936K258k1797j9002M044K3962K8707K1700P578
1897B3873j5966m9667q1089r0634p2956m3608j6302J6263O2997J03525J01803N4692L306j5213o600M163J3203K8615
1879B0405L5660O600n0939q5978o0796K524M9330N4600L9273L1334L3499L4538L2858L3679L2307J7382j0186l5964
1861A80126n1879o3566p2590o5992l5602K512K3318K2704J7277J7154J5560O639l671j1474k5302n1457p7213p9628
1843b53084m8568M978N9745R8552J16334J19794J17316J07370Q1691M1587L115j9529k9308l8177m8918n3534m7304
1826B12060l6079k9018k9832l5954m0969l5581j1030L1811P5075R0676O2155J858n7814r1995r7695q1849m7994k724
1808a24899L6442N4443N4455M7412L2792O746j6855j6923K254J2275O41j3003j0459k719q255k1750k4647j6486j6791
1789b5327l9394p6346j02100q7943k6259M8388P8850M4848p913j7027K7177Q0137J00754Q6353N5872K6025Q004M430
1771A78529J350j9904n5459p7514o6945l5682j0509m645j0755j4205q852l816j3102l3033l7774j0334K8561M0986
1753a53103J8792r665j9767j5511j0090m845K035N662O197J4058L0305L7713K6437J3914K1073M0827N1041N0187
1735A05260N5378O5935N4521N208n6021q3671o0344j2177K0867K1968N026o093L08J8650L4020L2232R447k1543l9159
1716A49812l4226j9150r008j384J1417J7179o088n1178p6431n3730n436K4043K2457J5599K4267L7299L2774J0538
1698H8754p701o059O230N742j6541m1415m1112j1816K1009L1881K1566R338Q032J5442K4019K8083K3488R778o592
1679A62126j7067j8372j1211L758K1082K6184Q007k3023m0797l1958j0463J555j84l477j605j705r726j8346j7326
1660A7452q798k136K457J2491K4845K3341J025k7060m1967m0241k5115P171N3368Q5626P3268K2693k5788m3663l7024
1641G1945k2297m907Q913N050j5791k7581j1836J2855J4687q631l1961l8820l2653j7100R576L7377M4389K3886k090
1622A5011o483J2728L2595L0531N879j9947k3109m48K6655L3955J7895n036j7879j7242j2608j7882l9362o5813p5130
1603a25690n7322k6143j641J1387J9251K2719J8528J2610J6422K9834L9721L6393K1450K41k2073l5739k9229k079
1585g1360L0689M9643M5001K3341M530N992K3013L1258J7100l267p095J859J415j3366k4387k1987k1044l7508o4125
1566c0298p9415p0944m2585p544J8906K7264K1487J5396J8036K5550K7170J4648j1850l9889m9586l1670M54K5165
1548a69705L5976M0500M1580L4942K3601J7195J4919N738j0340j7509p655N559M991q431k1026k5131k5041k9273
1530h9110m1196n3546n2458l2762o535J1204K0017K6771K9068K2752J8739K9987M4900L8577J1006j1678j5863j1983
1512f2110l921J8919M7649M7885Q794l2231l8670k1501r797j929J9203M3019M2972K0495r4j4169l7507o6130p1672
1493a10795m2422M98L3651N0996M8510J8884k6438n4154m3526r327J8268K2831O365j7436k8831j8836n655j4920
1475a72337l7767l2906J6898P3766Q9757O5681M2436M5109N9996O3734N2337L5826J9016k538l1267n7465o3592m2705
1457A23979j1548L576l093j0580p03J7265K2328J3886J2597K9462M7470M0162K930l9093n3471l0316Q451K9559J9477
1438B22338n457k0349j9661j9034l0028m0987l0878n28K1610J2773j3601k4775j2781k794j3921l2413l5699k3970
1420g0155r817O880K9421M2038K7119K1m654J7060L3592K8265K0632K4132J6820k0466o3359p2696m7327j7152N016
1401e4630L1462O3317P9520O7773M0629J2323j8580n3220p7778p7956n6334k5519N033K6618K8624J1346p085j0844
1383a5301q208j8289l7389l5822L614N5168P1490L4345k5929o3575o1139l5279r477N778R412L843j757M042J7698
1364a06775J8944j951k4618k1965K501J9141J3197J176P41M643n66n024J2280M4958N6497K6202j7726k7944M375
1345a914L9453M0019J6352P611K8041N0093M1511K849l8220n7827n3273l9735l8495n9077q3101p5686k6027L1398
1327b16028N2257L3543J1503J1815K3280K3478Q226j3550l4718m6912l9145j5294N37n732j3929K225L0039K8770
1309a59635j1082m6456l4654J1302M0739K9211K027n681R144K5163L0471L1024L0663K2251M532p447j346J1672J0208
1290g894o593j7526r718O065J6069K2340K9031K5004r12l4769m8029l2655q258P251J6496K7047L4289L0813K1006
1271F9057J4159J0326M287j286K195J5224K5964K0730l827l5610n2123l8072m093J9012J3192n024n447J6585L3600
1252I8849J9909j6931m3148l3928J407L0303L3368K4886K9269M3029L9685J5403K962K2269M1325J8612k9740m5839
1234B51690j3186J7968K703l8199n5244l9218k0980k0018k7913l6542n0348o7327p2235n5172k1017K0603N8357P3739
1216i2339N4040J4695j1567j4296j5054k9649m1571k8113L188K3675K0946R376O427J3143J8178J0641j0590l2014
1198a00884l2049k248L8192N7799M3821J2001j3201k0062j1836K237J3291J5975J0707K329m099n099R28J0981J7134
1179C5917J4991J0716J2077J3785K628k0208l4015k3860j979P095k622j4517j3915m203L019K876j778o108n956j307
1159b7364L58q255k0956k2194q302O740J2994J8872L3167M5652M1278K3777O923r596l3618n4948n2816k9923j1532
1140h9743m509J2756M5085N5552J3066n4676q7591o4981k2948k741p907j5707q449J4259L9139M8310L4815J1442m642
1121h9470j2935k2299k7184j1119K3974N1374M9848K6292K290q631n258N729J1700L756j0134j4319j1722k4104n7703
1102a19915q5134p4480k4746L8361Q8927J10895R6350N3383R598r310l448Q695J5604J9200K3100K8856L9058M9125
1084B64119L9973l132o3056r8742q7024m5739j0427J605k213r539j7987l0693m4669m8876l4851o612K3472M6786
1066a27605O0535N9716L9104P943r569J115K7035M4120M4057L4493K1391O744j856K122P744n335l8012o5584o6799
1047D1359m7360k8046j9923j8678j5000k795J6811L3296L3280J4177j2640l3575m0666k8148M564L9689M6237J4124
1029c294k5006k8868N248L7489L4603O244j4706j4266o578o852r980n49K3279M3655M2494K3451Q634J0823J5313j645
1009A39489l8637o5648n8597k5726P617K8377L7936L6142K3083J2900K2681M3106M1630O096l2565l6867r292J4763
991A46488J1823r545k8197l1944k0302q94J5027K2988K8525L0927J2777l6406r1901j12375q8511n2138l2925k7052
973b63635j6101M167K6251M5209N6840N4170L8064K1144J1866N964J336O024K0208K5919R963j5334k9770l1909l1486
954f1110k6284p203J9060L1794K0774l894k4380k7564j0581J4011K4188J1790n065m176J2755K5937K3932J1836L12
935B6132j231J0601K3246J4873j4680l5045k6917j5287l3116o5929o8750l2853L777J6191K2843M2520N6912M0520
917c6193L973j8406j1429J0824K8688L4180L0369K5392K3427J7069k713k6509l1148j0648J3258K0866J8844K2405
899A12249K7776J9952k34j3732o775J3985K9481K5422L318k2183l8433m5281m5094k9485Q005M7876N4369J6246l8228
880A19234p3874q0519o6366l9093o109K1578L8881M9155M9668L0465l002k5125k2441j2986j6717k4428j6696J808
862g6567J2159J4740K5574M3065M4431J8697j6216l4903l0200j4421l273J233J5326N2715R4326R6347M4025j9666
844B67392m2478k6553j4886k4066k7781r589O594m320k7681l0883r516R956N407j9423m3235m5296k1184R727J9219
825b8596K138j4540o023J5200J4738j6606m9401n3144l1093q339J787M214K583o175j4865l842L1079O2398O0631
806c7856L2560J0506P979R091K838J026J1879K0115J0734n773j1496r400j2401j6495q899M519M651j0712k4524k7121
786d8779k3267j2923J1007M0635N1427L2367N97k3266l8610n2933o1388n3536l3278j8349k0169l1104l2114j1653
768c25336K1875M7993N6773N7422N7914M6356Q737m0294o5742n3928k6411o581P863K7992M6630M6035K4620o1j3276
749h1419j7272k3393l6872m9822m6777j9632K0789N1406N7416M3702K6316J7454J8824K3733K3776J6631O658m131
731B7387k0072m0854n3465m5149j9454J0180L5374M9546M0926Q908k0544k0931l443j704j8690k1576L219K4965J6205
712d9172o001j1422l233k907p892N20J6957J4858j0299l0958k6136n610J2098K4328L5468L9744K7687L542j4849
693F723j3558L592J8766J7569K651j2790k2713k9801k9018o704L3724O0783M7893Q695j8877j8561p097k886m431l424
673C0536j543o399k0536l8574m8385l6913n219K4724L1162J8534P887M474m952k1139k3199j778J9420J4007p657
654f5550j0058J9699N3074N2341J1655l7963n9294m2395j0524M772o353k7064l5025k3131m69J9816L0977L5854M2001
635d7637N1441N6645N0520L6748K3354J0507m814j6208j5279j1128k3809n2723o9567n3499j8199Q944K0475K4644
617b9585J9076p938n0697q0757p4644l5890J3621N3548P3172P0778N3179L2117J6623R272Q092Q021L043o810j2705
598F1516q456k197o729j9372k3450j2460p42l940j8485k8747k8071k4028k5928l3798l8230k7294L172M1726O6507
579a29006O2694L4601R11j7989r998K0239M9155N1750K8920Q050Q381J7416J3666J0n295k082o735j7281q445K7305
559A26267N7261M5578j290m4469n8240m7898k9496j2275j392p34p290j2152j0124k386R069K1246K6192J7072j562
540G3377j7810k5420k3872q970K2067N4646O1414L1005j6888n1793o0716n1581l7351k4728j3739j660J1549K0337
522f0133K0039J5821J7684K5376K6916J4205q851l5454o0929p4174n8888j4862L1954N3478M8222L6371L2694L5732
504D5201L8311L5800K5480Q442q621k1197l3067m5894m8418k9477O80J6891Q658r735k1062k3517k1789j2990P038
485h9266K9773L7678K2344o084k8101l1650k1061j0326p141n719J601R643N271j3411l1138l1617j3708J0248K5986
466a46678K5698J2737J631O181K3045L4252L1285K8115M0935O1420O3544L6430j849k6476l1164k5364j6044l441R047
447A23304J3345P676L6l931r002j9757k8184k2192m714O681K148p593o604M484R831j019k1159l5852l9223l8119
427f9844m0140m1320l0626q147Q374L576j3053j7253l037Q860J491j3284j1988Q227K8811L6144L4495L4147L8794
408d5773M5514M7949L9486K1183N360K747P979O935m051j7015k7662l7929m3157l1801k888K8321M7295N2924M9704
389A45121L9682K7834K3034K4777J9189j877k6042l5055k8133k0651k4246l7187n0198n2941l8784j2744P646Q528
371c2047m511j4631j5511j5541k0824k4418j6477J871J9869K9249L1096L1463L2731L0730K1001O195n634q996k773
352D2842J3825L7780N3336L9831j672l9074m0608j1979J1437Q521o070p071R704K9122L8166L2717J0040k8809o7206
333A24832p7782m8893j155L0647L0588J0738r255k0907k3630j5536J595J4613R619r120k1636j5818L77J2412J4459
314F148O587j1931l6965n4944n5051m2352k9400j8399k265J8611L2840L3285K5851J9192J3828O899J298K817J0583
295g3368J6940J7879J8827K5924L3268K6035J314k0243j5697P283J4233j1636m3433m4048j4302J3483K4325L5645
277A2429N8162O9416M5607K201k1424j1796N809L729j8331m3432n9194o0534m4767j7333M370N610r057k2214k3806
258a24555j5974j121K0589L8834L3623M43l3341l3246Q68L1523K6172p446l4568l2001m010L1861N9826O8095N1502
239G7074J9097q787j8115j2638m998j346R02M190N244k188k0999m5214o0668n5639l2742o000J4926L1145M3539M5404
219b7813L3665J9810J9026L2029M6786N4485N3220L9446J0836k0464l2334j8055K878P492m896j8132k3518k7361
201A47100l6322m5448m3716k6986l910R715M398j2745k3343j6059K805J8343K1779J3770l22j3049j8327j8315k1024
182f1656k5186j6409J0802L5927L3911R847o599k056N715L3q327r80J7139K4933J4959j465j4419k3060k3388o196
162c6475K5586M9320M2536P533k9106m0775k3439L612J7825J3831L163l645o950q310k392J2120K2112J4320l858
143E7008j2231n359K516J266k675k896n891j6767k4665j6329L308J7436J9896J8449J8114J4940P497K410M365R907
123I0299J5459K2582K8983K2546n142m2484o5720o4335m9507l3908j3902J7602M7222M7849J4873j8833j7767J2680
105H497L3030J9199j0517k3589j4289m379j0038k2278k1400j572K3092L3184K2579L432p434p053p180j5428k3071
86b5215j8391o105k307j1777k1664j9222n019J4600L6356N4255N5556L4353L828j6163k1184k1888k5005k7275k7389
67d9656k8982k7617r780K5524N5037N3499K2175j4534l4881l2223r348K3706M8333M9913L4592K1681J7872J2329o84
48A56956j0317p426j65j580j2383k5136l4557l4382j6488J4002L4101K9032J3536R802J2562j816l4425n5650m2584
29f918o024K6161L6870K5285R59j8143j5013P771K7257K6527J3754P463J1910J6863J4770O948m195j9219l6504m7657
9F8865m0779j1700K4743M0518K2428q071j7265k212N599
0H2126
##END=