##TITLE=Parameter file, TopSpin 3.6.2
##JCAMP-DX=6.00
##DATA TYPE= NMR SPECTRUM
##DATA CLASS= XYDATA
##ORIGIN=
##OWNER=chm343
##.SHIFT REFERENCE=INTERNAL, MeOD, 1, 17.50623728154614
##.OBSERVE FREQUENCY=400.13311072
##.OBSERVE NUCLEUS=1H
##.SOLVENT=MeOD
##$JCAMPDX=5
##$NPOINTS=10	$$ modification sequence number
##$ORIGIN=Bruker BioSpin GmbH
##$epoch=1685911204000
##$date=Sun, 04 Jun 2023 20:40:04 GMT
##$ABSF1=17.48519
##$ABSF2=-1.978889
##$ABSG=5
##$ABSL=50
##$ALPHA=0
##$AQORDER=0
##$ASSFAC=0
##$ASSFACI=0
##$ASSFACX=0
##$ASSWID=0
##$AUNMP=<proc_1d_spintropy_auto>
##$AXLEFT=0
##$AXNAME=<>
##$AXNUC=<1H>
##$AXRIGHT=0
##$AXTYPE=0
##$AXUNIT=<>
##$AZFE=0.1
##$AZFW=0.1
##$BCFW=0
##$BC_mod=0
##$BYTORDP=0
##$COROFFS=0
##$CY=15
##$DATMOD=1
##$DC=0
##$DFILT=<>
##$DTYPP=0
##$ERETIC=no
##$F1P=0
##$F2P=0
##$FCOR=1
##$FTSIZE=131072
##$FT_mod=6
##$GAMMA=0
##$GB=0
##$INTBC=1
##$INTSCL=1
##$ISEN=128
##$LB=0.3
##$LEV0=0
##$LPBIN=0
##$MAXI=10000
##$MC2=0
##$MEAN=0
##$ME_mod=0
##$MI=0.1
##$MddCEXP=no
##$MddCT_SP=no
##$MddF180=no
##$MddLAMBDA=0
##$MddMEMORY=0
##$MddMERGE=0
##$MddNCOMP=0
##$MddNITER=0
##$MddNOISE=0
##$MddPHASE=0
##$MddSEED=0
##$MddSRSIZE=0
##$Mdd_CsALG=0
##$Mdd_CsLAMBDA=0
##$Mdd_CsNITER=0
##$Mdd_CsNORM=0
##$Mdd_CsVE=no
##$Mdd_CsZF=0
##$Mdd_LrLAMBDA=0
##$Mdd_LrNITER=0
##$Mdd_LrRANK=0
##$Mdd_LrZF=0
##$Mdd_mod=0
##$NCOEF=0
##$NLEV=6
##$NOISF1=0
##$NOISF2=0
##$NSP=0
##$NTH_PI=0
##$NZP=0
##$PC=1
##$PHC0=106.02
##$PHC1=0
##$PH_mod=1
##$PKNL=yes
##$PPARMOD=0
##$PPDIAG=0
##$PPIPTYP=0
##$PPMPNUM=2147483647
##$PPRESOL=1
##$PSCAL=4
##$PSIGN=0
##$PYNMP=<>
##$RDF1=0
##$RDF2=0
##$RDFWHM=0
##$RDINT=0
##$RDPOS=0
##$REVERSE=no
##$SF=400.130008452046
##$SI=131072
##$SIGF1=0
##$SIGF2=0
##$SINO=0
##$SIOLD=131072
##$SPECTYP=<PROTON>
##$SREF_mod=1
##$SREGLST=<1H.MeOD>
##$SSB=0
##$STSI=131072
##$STSR=0
##$SW_p=7788.16199376948
##$SYMM=0
##$S_DEV=0
##$TDeff=65536
##$TDoff=0
##$TI=<Spintropy Username asu_chm343
2023_02_15_AcAc_D2O_1H_1Scan_VT_Bruker400>
##$TILT=no
##$TM1=0
##$TM2=0
##$TOPLEV=0
##$USERP1=<>
##$USERP2=<>
##$USERP3=<>
##$USERP4=<>
##$USERP5=<>
##$WDW=1
##$XDIM=0
##$YMAX_p=357084426
##$YMIN_p=-1179785
##$ACQT0=-1.70581753891579
##$AMP=(0..31)
100 100 100 100 100 100 100 100 100 100 100 100 100 100 100 100 100 100
100 100 100 100 100 100 100 100 100 100 100 100 100 100
##$AMPCOIL=(0..19)
-1 0 0 0 0 0 0 0 0 0 0 0 0 0 0 0 0 0 0 0
##$ANAVPT=-1
##$AQSEQ=0
##$AQ_mod=3
##$AUNM=<au_zg_no_rga_lock1>
##$AUTOPOS=<13 >
##$BF2=400.13
##$BF3=400.13
##$BF4=400.13
##$BF5=400.13
##$BF6=400.13
##$BF7=400.13
##$BF8=400.13
##$BWFAC=(0..63)
0 0 0 0 0 0 0 0 0 0 0 0 0 0 0 0 0 0 0 0 0 0 0 0 0 0 0 0 0 0 0 0 0 0 0 0
0 0 0 0 0 0 0 0 0 0 0 0 0 0 0 0 0 0 0 0 0 0 0 0 0 0 0 0
##$BYTORDA=0
##$CAGPARS=(0..11)
0 0 0 0 0 0 0 0 0 0 0 0
##$CHEMSTR=<none>
##$CNST=(0..63)
1 1 1 1 1 1 1 1 1 1 1 1 1 1 1 1 1 1 1 1 1 1 1 1 1 1 1 1 1 1 1 1 1 1 1 1
1 1 1 1 1 1 1 1 1 1 1 1 1 1 1 1 1 1 1 1 1 1 1 1 1 1 1 1
##$CPDPRG=(0..8)
<> <> <> <> <> <> <> <> <>
##$D=(0..63)
0 60 0 0 0 0 0 0 0 0 0 0 0 0 0 0 0.0002 0 0 0 0 0 0 0 0 0 0 0 0 0 0 0 0
0 0 0 0 0 0 0 0 0 0 0 0 0 0 0 0 0 0 0 0 0 0 0 0 0 0 0 0 0 0 0
##$DATE=1685911204
##$DE=10.51916
##$DECBNUC=<off>
##$DECNUC=<off>
##$DECSTAT=4
##$DIGMOD=3
##$DIGTYP=12
##$DQDMODE=0
##$DR=22
##$DS=0
##$DSPFIRM=4
##$DTYPA=0
##$EXP=<CHM343_Proton_1scan_308K>
##$FCUCHAN=(0..9)
0 2 0 0 0 0 0 0 0 0
##$FL1=0
##$FL2=0
##$FL3=0
##$FL4=0
##$FN_INDIRECT=(0..7)
0 0 0 0 0 0 0 0
##$FOV=0
##$FQ1LIST=<>
##$FQ2LIST=<>
##$FQ3LIST=<>
##$FQ4LIST=<>
##$FQ5LIST=<>
##$FQ6LIST=<>
##$FQ7LIST=<>
##$FQ8LIST=<>
##$FRQLO3=1116889.28000003
##$FRQLO3N=0
##$FS=(0..7)
83 83 83 83 83 83 83 83
##$FTLPGN=0
##$FW=4032000
##$FnILOOP=0
##$FnMODE=0
##$FnTYPE=0
##$GPNAM=(0..31)
<> <> <> <> <> <> <> <> <> <> <> <> <> <> <> <> <> <> <> <> <> <> <> <>
<> <> <> <> <> <> <> <>
##$GPX=(0..31)
0 0 0 0 0 0 0 0 0 0 0 0 0 0 0 0 0 0 0 0 0 0 0 0 0 0 0 0 0 0 0 0
##$GPY=(0..31)
0 0 0 0 0 0 0 0 0 0 0 0 0 0 0 0 0 0 0 0 0 0 0 0 0 0 0 0 0 0 0 0
##$GPZ=(0..31)
0 0 0 0 0 0 0 0 0 0 0 0 0 0 0 0 0 0 0 0 0 0 0 0 0 0 0 0 0 0 0 0
##$GRDPROG=<>
##$HDDUTY=20
##$HDRATE=1
##$HGAIN=(0..3)
0 0 0 0
##$HL1=90
##$HL2=90
##$HL3=90
##$HL4=90
##$HOLDER=13
##$HPMOD=(0..7)
0 0 0 0 0 0 0 0
##$HPPRGN=0
##$IN=(0..63)
0 0 0 0 0 0 0 0 0 0 0 0 0 0 0 0 0 0 0 0 0 0 0 0 0 0 0 0 0 0 0 0 0 0 0 0
0 0 0 0 0 0 0 0 0 0 0 0 0 0 0 0 0 0 0 0 0 0 0 0 0 0 0 0
##$INF=(0..7)
0 0 0 0 0 0 0 0
##$INP=(0..63)
0 0 0 0 0 0 0 0 0 0 0 0 0 0 0 0 0 0 0 0 0 0 0 0 0 0 0 0 0 0 0 0 0 0 0 0
0 0 0 0 0 0 0 0 0 0 0 0 0 0 0 0 0 0 0 0 0 0 0 0 0 0 0 0
##$INSTRUM=<spect>
##$INTEGFAC=(0..63)
0 0 0 0 0 0 0 0 0 0 0 0 0 0 0 0 0 0 0 0 0 0 0 0 0 0 0 0 0 0 0 0 0 0 0 0
0 0 0 0 0 0 0 0 0 0 0 0 0 0 0 0 0 0 0 0 0 0 0 0 0 0 0 0
##$L=(0..31)
1 1 1 1 1 1 1 1 1 1 1 1 1 1 1 1 1 1 1 1 1 1 1 1 1 1 1 1 1 1 1 1
##$LFILTER=20
##$LGAIN=-2
##$LINPSTP=0
##$LOCKED=yes
##$LOCKFLD=-2879
##$LOCKGN=116.679374694824
##$LOCKPOW=-35
##$LOCKPPM=3.29999995231628
##$LOCNUC=<2H>
##$LOCPHAS=205.5
##$LOCSHFT=yes
##$LOCSW=0
##$LTIME=0.680999994277954
##$MASR=5000
##$MASRLST=<masrlst>
##$MULEXPNO=(0..15)
0 0 0 0 0 0 0 0 0 0 0 0 0 0 0 0
##$NBL=1
##$NC=-6
##$NLOGCH=2
##$NOVFLW=0
##$NS=1
##$NUC1=<1H>
##$NUC2=<off>
##$NUC3=<off>
##$NUC4=<off>
##$NUC5=<off>
##$NUC6=<off>
##$NUC7=<off>
##$NUC8=<off>
##$NUCLEUS=<off>
##$NUSLIST=<automatic>
##$NusAMOUNT=25
##$NusFPNZ=no
##$NusJSP=0
##$NusSEED=54321
##$NusSPTYPE=0
##$NusT2=1
##$NusTD=0
##$O1=3110.71999999513
##$O2=2470.803
##$O3=2470.803
##$O4=2470.803
##$O5=2470.803
##$O6=2470.803
##$O7=2470.803
##$O8=2470.803
##$OVERFLW=0
##$P=(0..63)
3.333333 10 20 0 0 19.8 30 60 20000 0 0 80000 80000 1000 0 0 1000 2500
100000 600 0 0 0 0 0 270 100000 10 1000 1000 0 0 20000 0 0 0 0 0 0 0 2000
0 0 0 300 0 80000 46600 10000 0 80000 0 0 0 0 0 0 0 0 0 0 0 0 0
##$PACOIL=(0..15)
2 3 1 0 0 0 0 0 0 0 0 0 0 0 0 0
##$PAPS=0
##$PARMODE=0
##$PCPD=(0..9)
0 90 0 0 0 0 0 0 0 0
##$PEXSEL=(0..9)
1 1 1 1 1 1 1 1 1 1
##$PHCOR=(0..31)
0 0 0 0 0 0 0 0 0 0 0 0 0 0 0 0 0 0 0 0 0 0 0 0 0 0 0 0 0 0 0 0
##$PHLIST=<>
##$PHP=1
##$PH_ref=0
##$PL=(0..63)
120 120 120 120 120 120 120 120 120 120 120 120 120 120 120 120 120 120
120 120 120 120 120 120 120 120 120 120 120 120 120 120 120 120 120 120
120 120 120 120 120 120 120 120 120 120 120 120 120 120 120 120 120 120
120 120 120 120 120 120 120 120 120 120
##$PLSTEP=0.1
##$PLSTRT=-6
##$PLW=(0..63)
0 25 0 0 0 0 0 0 0 0.0001 2.7778 0.14793 0 0 0 0 0 0 25 0.30864 0 0 0 0
0 0 0 0.13717 0 2.7778 0 0 4e-006 0 0 0 0 0 0 0 0 0 0 0 0 0 0 0 0 0 0 0
0 0 0 0 0 0 0 0 0 0 0 0
##$PLWMAX=(0..7)
50 0 0 0 0 0 0 0
##$PQPHASE=0
##$PQSCALE=1
##$PR=1
##$PRECHAN=(0..15)
-1 2 3 0 1 -1 -1 -1 -1 -1 -1 -1 -1 -1 -1 -1
##$PRGAIN=0
##$PROBHD=<Z104450_0191 (PA BBO 400S1 BBF-H-D-05 Z)>
##$PROBINPUTS=(0..15)
<19F-109Ag> <1H> <2H> <> <> <> <> <> <> <> <> <> <> <> <> <>
##$PULPROG=<zg30>
##$PW=0
##$PYNM=<>
##$ProjAngle=0
##$QNP=0
##$RD=0
##$RECCHAN=(0..15)
0 2 0 0 0 0 0 0 0 0 0 0 0 0 0 0
##$RECPH=0
##$RECPRE=(0..15)
-1 0 -1 -1 -1 -1 -1 -1 -1 -1 -1 -1 -1 -1 -1 -1
##$RECPRFX=(0..15)
1 0 0 0 0 0 0 0 0 0 0 0 0 0 0 0
##$RECSEL=(0..15)
0 0 1 0 0 0 0 0 0 0 0 0 0 0 0 0
##$RG=30.14
##$RO=0
##$RSEL=(0..15)
0 0 2 0 0 0 0 0 0 0 0 0 0 0 0 0
##$S=(0..7)
83 83 83 83 83 83 83 83
##$SELREC=(0..9)
0 0 0 0 0 0 0 0 0 0
##$SFO1=400.13311072
##$SFO2=400.132470803
##$SFO3=400.132470803
##$SFO4=400.132470803
##$SFO5=400.132470803
##$SFO6=400.132470803
##$SFO7=400.132470803
##$SFO8=400.132470803
##$SOLVENT=<MeOD>
##$SOLVOLD=<off>
##$SP=(0..63)
120 120 120 120 120 120 120 120 120 120 120 120 120 120 120 120 120 120
120 120 120 120 120 120 120 120 120 120 120 120 120 120 120 120 120 120
120 120 120 120 120 120 120 120 120 120 120 120 120 120 120 120 120 120
120 120 120 120 120 120 120 120 120 120
##$SPECTR=0
##$SPINCNT=0
##$SPNAM=(0..63)
<> <Gaus1_270.1000> <Gaus1_180r.1000> <> <> <Sinc1.1000> <Squa100.1000>
<> <Squa100.1000> <> <Sinc1.1000> <Sinc1.1000> <> <> <> <> <> <> <> <Sinc1.1000>
<Sinc1.1000> <Sinc1.1000> <Sinc1.1000> <> <> <> <> <> <> <Crp60,20,20.10>
<Bip720,50,20.1> <> <> <> <Rsnob.1000> <Gaus1_180r.1000> <Gaus1_180r.1000>
<> <> <> <Gaus1_180r.1000> <Squa100.1000> <> <> <> <> <> <> <> <> <> <>
<> <> <> <> <> <> <> <> <> <> <> <>
##$SPOAL=(0..63)
0.5 1 0.5 0.5 0.5 0.5 0.5 0.5 0.5 0.5 0.5 0.5 0.5 0.5 0.5 0.5 0.5 0.5 0.5
1 1 1 1 0.5 0.5 0.5 0.5 0.5 0.5 0.5 0.5 0.5 0.5 0.5 0.5 0.5 0.5 0.5 0.5
0.5 0.5 0.5 0.5 0.5 0.5 0.5 0.5 0.5 0.5 0.5 0.5 0.5 0.5 0.5 0.5 0.5 0.5
0.5 0.5 0.5 0.5 0.5 0.5 0.5
##$SPOFFS=(0..63)
0 0 0 0 0 0 0 0 0 0 0 0 0 0 0 0 0 0 0 0 0 0 0 0 0 0 0 0 0 0 0 0 0 0 0 0
0 0 0 0 0 0 0 0 0 0 0 0 0 0 0 0 0 0 0 0 0 0 0 0 0 0 0 0
##$SPPEX=(0..63)
0 0 0 0 0 0 0 0 0 0 0 0 0 0 0 0 0 0 0 0 0 0 0 0 0 0 0 0 0 0 0 0 0 0 0 0
0 0 0 0 0 0 0 0 0 0 0 0 0 0 0 0 0 0 0 0 0 0 0 0 0 0 0 0
##$SPW=(0..63)
0 2.0754e-005 9.2239e-006 0 0 0.0072087 0.0001 0 2.5e-007 0 0.0072087 0.0072087
0 0 0 0 0 0 0 1.472397e-005 2.288794e-005 1.068705e-005 5.763436e-005 0
0 0 0 0 0 0.095493 1.7778 0 0 0 0.00010084 9.2239e-006 0.00059033 0 0 0
9.2239e-006 2.5e-007 0 0 0 0 0 0 0 0 0 0 0 0 0 0 0 0 0 0 0 0 0 0
##$SUBNAM=(0..9)
<> <> <> <> <> <> <> <> <> <>
##$SWIBOX=(0..19)
0 0 3 0 0 0 0 0 0 0 0 0 0 0 0 0 0 0 0 0
##$SW_h=7788.16199376947
##$SWfinal=0
##$SigLockShift=0
##$TD=65536
##$TD0=1
##$TD_INDIRECT=(0..7)
0 0 0 0 0 0 0 0
##$TDav=1
##$TE=307.6668
##$TE1=300
##$TE2=300
##$TE3=300
##$TE4=300
##$TEG=300
##$TE_MAGNET=0
##$TE_PIDX=0
##$TE_STAB=(0..9)
0 0 0 0 0 0 0 0 0 0
##$TL=(0..7)
120 120 120 120 120 120 120 120
##$TOTROT=(0..63)
0 0 0 0 0 0 0 0 0 0 0 0 0 0 0 0 0 0 0 0 0 0 0 0 0 0 0 0 0 0 0 0 0 0 0 0
0 0 0 0 0 0 0 0 0 0 0 0 0 0 0 0 0 0 0 0 0 0 0 0 0 0 0 0
##$TUBE_TYPE=<>
##$USERA1=<>
##$USERA2=<>
##$USERA3=<>
##$USERA4=<>
##$USERA5=<>
##$V9=5
##$VALIDCODE=-1
##$VALIST=<>
##$VCLIST=<>
##$VDLIST=<>
##$VPLIST=<>
##$VTLIST=<>
##$WBST=1024
##$WBSW=4
##$XGAIN=(0..3)
0 0 0 0
##$XL=0
##$YL=0
##$YMAX_a=15476
##$YMIN_a=-13827
##$ZGOPTNS=<>
##$ZL1=120
##$ZL2=120
##$ZL3=120
##$ZL4=120
##$scaledByNS=no
##$scaledByRG=no
##$AMP0=100
##$AMP1=100
##$AMP2=100
##$AMP3=100
##$AMP4=100
##$AMP5=100
##$AMP6=100
##$AMP7=100
##$AMP8=100
##$AMP9=100
##$AMP10=100
##$AMP11=100
##$AMP12=100
##$AMP13=100
##$AMP14=100
##$AMP15=100
##$AMP16=100
##$AMP17=100
##$AMP18=100
##$AMP19=100
##$AMP20=100
##$AMP21=100
##$AMP22=100
##$AMP23=100
##$AMP24=100
##$AMP25=100
##$AMP26=100
##$AMP27=100
##$AMP28=100
##$AMP29=100
##$AMP30=100
##$AMP31=100
##$AMPCOIL0=-1
##$AMPCOIL1=0
##$AMPCOIL2=0
##$AMPCOIL3=0
##$AMPCOIL4=0
##$AMPCOIL5=0
##$AMPCOIL6=0
##$AMPCOIL7=0
##$AMPCOIL8=0
##$AMPCOIL9=0
##$AMPCOIL10=0
##$AMPCOIL11=0
##$AMPCOIL12=0
##$AMPCOIL13=0
##$AMPCOIL14=0
##$AMPCOIL15=0
##$AMPCOIL16=0
##$AMPCOIL17=0
##$AMPCOIL18=0
##$AMPCOIL19=0
##$BWFAC0=0
##$BWFAC1=0
##$BWFAC2=0
##$BWFAC3=0
##$BWFAC4=0
##$BWFAC5=0
##$BWFAC6=0
##$BWFAC7=0
##$BWFAC8=0
##$BWFAC9=0
##$BWFAC10=0
##$BWFAC11=0
##$BWFAC12=0
##$BWFAC13=0
##$BWFAC14=0
##$BWFAC15=0
##$BWFAC16=0
##$BWFAC17=0
##$BWFAC18=0
##$BWFAC19=0
##$BWFAC20=0
##$BWFAC21=0
##$BWFAC22=0
##$BWFAC23=0
##$BWFAC24=0
##$BWFAC25=0
##$BWFAC26=0
##$BWFAC27=0
##$BWFAC28=0
##$BWFAC29=0
##$BWFAC30=0
##$BWFAC31=0
##$BWFAC32=0
##$BWFAC33=0
##$BWFAC34=0
##$BWFAC35=0
##$BWFAC36=0
##$BWFAC37=0
##$BWFAC38=0
##$BWFAC39=0
##$BWFAC40=0
##$BWFAC41=0
##$BWFAC42=0
##$BWFAC43=0
##$BWFAC44=0
##$BWFAC45=0
##$BWFAC46=0
##$BWFAC47=0
##$BWFAC48=0
##$BWFAC49=0
##$BWFAC50=0
##$BWFAC51=0
##$BWFAC52=0
##$BWFAC53=0
##$BWFAC54=0
##$BWFAC55=0
##$BWFAC56=0
##$BWFAC57=0
##$BWFAC58=0
##$BWFAC59=0
##$BWFAC60=0
##$BWFAC61=0
##$BWFAC62=0
##$BWFAC63=0
##$CAGPARS0=0
##$CAGPARS1=0
##$CAGPARS2=0
##$CAGPARS3=0
##$CAGPARS4=0
##$CAGPARS5=0
##$CAGPARS6=0
##$CAGPARS7=0
##$CAGPARS8=0
##$CAGPARS9=0
##$CAGPARS10=0
##$CAGPARS11=0
##$CNST0=1
##$CNST1=1
##$CNST2=1
##$CNST3=1
##$CNST4=1
##$CNST5=1
##$CNST6=1
##$CNST7=1
##$CNST8=1
##$CNST9=1
##$CNST10=1
##$CNST11=1
##$CNST12=1
##$CNST13=1
##$CNST14=1
##$CNST15=1
##$CNST16=1
##$CNST17=1
##$CNST18=1
##$CNST19=1
##$CNST20=1
##$CNST21=1
##$CNST22=1
##$CNST23=1
##$CNST24=1
##$CNST25=1
##$CNST26=1
##$CNST27=1
##$CNST28=1
##$CNST29=1
##$CNST30=1
##$CNST31=1
##$CNST32=1
##$CNST33=1
##$CNST34=1
##$CNST35=1
##$CNST36=1
##$CNST37=1
##$CNST38=1
##$CNST39=1
##$CNST40=1
##$CNST41=1
##$CNST42=1
##$CNST43=1
##$CNST44=1
##$CNST45=1
##$CNST46=1
##$CNST47=1
##$CNST48=1
##$CNST49=1
##$CNST50=1
##$CNST51=1
##$CNST52=1
##$CNST53=1
##$CNST54=1
##$CNST55=1
##$CNST56=1
##$CNST57=1
##$CNST58=1
##$CNST59=1
##$CNST60=1
##$CNST61=1
##$CNST62=1
##$CNST63=1
##$CPDPRG0=<>
##$CPDPRG1=<>
##$CPDPRG2=<>
##$CPDPRG3=<>
##$CPDPRG4=<>
##$CPDPRG5=<>
##$CPDPRG6=<>
##$CPDPRG7=<>
##$CPDPRG8=<>
##$D0=0
##$D1=60
##$D2=0
##$D3=0
##$D4=0
##$D5=0
##$D6=0
##$D7=0
##$D8=0
##$D9=0
##$D10=0
##$D11=0
##$D12=0
##$D13=0
##$D14=0
##$D15=0
##$D16=0.0002
##$D17=0
##$D18=0
##$D19=0
##$D20=0
##$D21=0
##$D22=0
##$D23=0
##$D24=0
##$D25=0
##$D26=0
##$D27=0
##$D28=0
##$D29=0
##$D30=0
##$D31=0
##$D32=0
##$D33=0
##$D34=0
##$D35=0
##$D36=0
##$D37=0
##$D38=0
##$D39=0
##$D40=0
##$D41=0
##$D42=0
##$D43=0
##$D44=0
##$D45=0
##$D46=0
##$D47=0
##$D48=0
##$D49=0
##$D50=0
##$D51=0
##$D52=0
##$D53=0
##$D54=0
##$D55=0
##$D56=0
##$D57=0
##$D58=0
##$D59=0
##$D60=0
##$D61=0
##$D62=0
##$D63=0
##$FCUCHAN0=0
##$FCUCHAN1=2
##$FCUCHAN2=0
##$FCUCHAN3=0
##$FCUCHAN4=0
##$FCUCHAN5=0
##$FCUCHAN6=0
##$FCUCHAN7=0
##$FCUCHAN8=0
##$FCUCHAN9=0
##$FN_INDIRECT0=0
##$FN_INDIRECT1=0
##$FN_INDIRECT2=0
##$FN_INDIRECT3=0
##$FN_INDIRECT4=0
##$FN_INDIRECT5=0
##$FN_INDIRECT6=0
##$FN_INDIRECT7=0
##$FS0=83
##$FS1=83
##$FS2=83
##$FS3=83
##$FS4=83
##$FS5=83
##$FS6=83
##$FS7=83
##$GPNAM0=<>
##$GPNAM1=<>
##$GPNAM2=<>
##$GPNAM3=<>
##$GPNAM4=<>
##$GPNAM5=<>
##$GPNAM6=<>
##$GPNAM7=<>
##$GPNAM8=<>
##$GPNAM9=<>
##$GPNAM10=<>
##$GPNAM11=<>
##$GPNAM12=<>
##$GPNAM13=<>
##$GPNAM14=<>
##$GPNAM15=<>
##$GPNAM16=<>
##$GPNAM17=<>
##$GPNAM18=<>
##$GPNAM19=<>
##$GPNAM20=<>
##$GPNAM21=<>
##$GPNAM22=<>
##$GPNAM23=<>
##$GPNAM24=<>
##$GPNAM25=<>
##$GPNAM26=<>
##$GPNAM27=<>
##$GPNAM28=<>
##$GPNAM29=<>
##$GPNAM30=<>
##$GPNAM31=<>
##$GPX0=0
##$GPX1=0
##$GPX2=0
##$GPX3=0
##$GPX4=0
##$GPX5=0
##$GPX6=0
##$GPX7=0
##$GPX8=0
##$GPX9=0
##$GPX10=0
##$GPX11=0
##$GPX12=0
##$GPX13=0
##$GPX14=0
##$GPX15=0
##$GPX16=0
##$GPX17=0
##$GPX18=0
##$GPX19=0
##$GPX20=0
##$GPX21=0
##$GPX22=0
##$GPX23=0
##$GPX24=0
##$GPX25=0
##$GPX26=0
##$GPX27=0
##$GPX28=0
##$GPX29=0
##$GPX30=0
##$GPX31=0
##$GPY0=0
##$GPY1=0
##$GPY2=0
##$GPY3=0
##$GPY4=0
##$GPY5=0
##$GPY6=0
##$GPY7=0
##$GPY8=0
##$GPY9=0
##$GPY10=0
##$GPY11=0
##$GPY12=0
##$GPY13=0
##$GPY14=0
##$GPY15=0
##$GPY16=0
##$GPY17=0
##$GPY18=0
##$GPY19=0
##$GPY20=0
##$GPY21=0
##$GPY22=0
##$GPY23=0
##$GPY24=0
##$GPY25=0
##$GPY26=0
##$GPY27=0
##$GPY28=0
##$GPY29=0
##$GPY30=0
##$GPY31=0
##$GPZ0=0
##$GPZ1=0
##$GPZ2=0
##$GPZ3=0
##$GPZ4=0
##$GPZ5=0
##$GPZ6=0
##$GPZ7=0
##$GPZ8=0
##$GPZ9=0
##$GPZ10=0
##$GPZ11=0
##$GPZ12=0
##$GPZ13=0
##$GPZ14=0
##$GPZ15=0
##$GPZ16=0
##$GPZ17=0
##$GPZ18=0
##$GPZ19=0
##$GPZ20=0
##$GPZ21=0
##$GPZ22=0
##$GPZ23=0
##$GPZ24=0
##$GPZ25=0
##$GPZ26=0
##$GPZ27=0
##$GPZ28=0
##$GPZ29=0
##$GPZ30=0
##$GPZ31=0
##$HGAIN0=0
##$HGAIN1=0
##$HGAIN2=0
##$HGAIN3=0
##$HPMOD0=0
##$HPMOD1=0
##$HPMOD2=0
##$HPMOD3=0
##$HPMOD4=0
##$HPMOD5=0
##$HPMOD6=0
##$HPMOD7=0
##$IN0=0
##$IN1=0
##$IN2=0
##$IN3=0
##$IN4=0
##$IN5=0
##$IN6=0
##$IN7=0
##$IN8=0
##$IN9=0
##$IN10=0
##$IN11=0
##$IN12=0
##$IN13=0
##$IN14=0
##$IN15=0
##$IN16=0
##$IN17=0
##$IN18=0
##$IN19=0
##$IN20=0
##$IN21=0
##$IN22=0
##$IN23=0
##$IN24=0
##$IN25=0
##$IN26=0
##$IN27=0
##$IN28=0
##$IN29=0
##$IN30=0
##$IN31=0
##$IN32=0
##$IN33=0
##$IN34=0
##$IN35=0
##$IN36=0
##$IN37=0
##$IN38=0
##$IN39=0
##$IN40=0
##$IN41=0
##$IN42=0
##$IN43=0
##$IN44=0
##$IN45=0
##$IN46=0
##$IN47=0
##$IN48=0
##$IN49=0
##$IN50=0
##$IN51=0
##$IN52=0
##$IN53=0
##$IN54=0
##$IN55=0
##$IN56=0
##$IN57=0
##$IN58=0
##$IN59=0
##$IN60=0
##$IN61=0
##$IN62=0
##$IN63=0
##$INF0=0
##$INF1=0
##$INF2=0
##$INF3=0
##$INF4=0
##$INF5=0
##$INF6=0
##$INF7=0
##$INP0=0
##$INP1=0
##$INP2=0
##$INP3=0
##$INP4=0
##$INP5=0
##$INP6=0
##$INP7=0
##$INP8=0
##$INP9=0
##$INP10=0
##$INP11=0
##$INP12=0
##$INP13=0
##$INP14=0
##$INP15=0
##$INP16=0
##$INP17=0
##$INP18=0
##$INP19=0
##$INP20=0
##$INP21=0
##$INP22=0
##$INP23=0
##$INP24=0
##$INP25=0
##$INP26=0
##$INP27=0
##$INP28=0
##$INP29=0
##$INP30=0
##$INP31=0
##$INP32=0
##$INP33=0
##$INP34=0
##$INP35=0
##$INP36=0
##$INP37=0
##$INP38=0
##$INP39=0
##$INP40=0
##$INP41=0
##$INP42=0
##$INP43=0
##$INP44=0
##$INP45=0
##$INP46=0
##$INP47=0
##$INP48=0
##$INP49=0
##$INP50=0
##$INP51=0
##$INP52=0
##$INP53=0
##$INP54=0
##$INP55=0
##$INP56=0
##$INP57=0
##$INP58=0
##$INP59=0
##$INP60=0
##$INP61=0
##$INP62=0
##$INP63=0
##$INTEGFAC0=0
##$INTEGFAC1=0
##$INTEGFAC2=0
##$INTEGFAC3=0
##$INTEGFAC4=0
##$INTEGFAC5=0
##$INTEGFAC6=0
##$INTEGFAC7=0
##$INTEGFAC8=0
##$INTEGFAC9=0
##$INTEGFAC10=0
##$INTEGFAC11=0
##$INTEGFAC12=0
##$INTEGFAC13=0
##$INTEGFAC14=0
##$INTEGFAC15=0
##$INTEGFAC16=0
##$INTEGFAC17=0
##$INTEGFAC18=0
##$INTEGFAC19=0
##$INTEGFAC20=0
##$INTEGFAC21=0
##$INTEGFAC22=0
##$INTEGFAC23=0
##$INTEGFAC24=0
##$INTEGFAC25=0
##$INTEGFAC26=0
##$INTEGFAC27=0
##$INTEGFAC28=0
##$INTEGFAC29=0
##$INTEGFAC30=0
##$INTEGFAC31=0
##$INTEGFAC32=0
##$INTEGFAC33=0
##$INTEGFAC34=0
##$INTEGFAC35=0
##$INTEGFAC36=0
##$INTEGFAC37=0
##$INTEGFAC38=0
##$INTEGFAC39=0
##$INTEGFAC40=0
##$INTEGFAC41=0
##$INTEGFAC42=0
##$INTEGFAC43=0
##$INTEGFAC44=0
##$INTEGFAC45=0
##$INTEGFAC46=0
##$INTEGFAC47=0
##$INTEGFAC48=0
##$INTEGFAC49=0
##$INTEGFAC50=0
##$INTEGFAC51=0
##$INTEGFAC52=0
##$INTEGFAC53=0
##$INTEGFAC54=0
##$INTEGFAC55=0
##$INTEGFAC56=0
##$INTEGFAC57=0
##$INTEGFAC58=0
##$INTEGFAC59=0
##$INTEGFAC60=0
##$INTEGFAC61=0
##$INTEGFAC62=0
##$INTEGFAC63=0
##$L0=1
##$L1=1
##$L2=1
##$L3=1
##$L4=1
##$L5=1
##$L6=1
##$L7=1
##$L8=1
##$L9=1
##$L10=1
##$L11=1
##$L12=1
##$L13=1
##$L14=1
##$L15=1
##$L16=1
##$L17=1
##$L18=1
##$L19=1
##$L20=1
##$L21=1
##$L22=1
##$L23=1
##$L24=1
##$L25=1
##$L26=1
##$L27=1
##$L28=1
##$L29=1
##$L30=1
##$L31=1
##$MULEXPNO0=0
##$MULEXPNO1=0
##$MULEXPNO2=0
##$MULEXPNO3=0
##$MULEXPNO4=0
##$MULEXPNO5=0
##$MULEXPNO6=0
##$MULEXPNO7=0
##$MULEXPNO8=0
##$MULEXPNO9=0
##$MULEXPNO10=0
##$MULEXPNO11=0
##$MULEXPNO12=0
##$MULEXPNO13=0
##$MULEXPNO14=0
##$MULEXPNO15=0
##$P0=3.333333
##$P1=10
##$P2=20
##$P3=0
##$P4=0
##$P5=19.8
##$P6=30
##$P7=60
##$P8=20000
##$P9=0
##$P10=0
##$P11=80000
##$P12=80000
##$P13=1000
##$P14=0
##$P15=0
##$P16=1000
##$P17=2500
##$P18=100000
##$P19=600
##$P20=0
##$P21=0
##$P22=0
##$P23=0
##$P24=0
##$P25=270
##$P26=100000
##$P27=10
##$P28=1000
##$P29=1000
##$P30=0
##$P31=0
##$P32=20000
##$P33=0
##$P34=0
##$P35=0
##$P36=0
##$P37=0
##$P38=0
##$P39=0
##$P40=2000
##$P41=0
##$P42=0
##$P43=0
##$P44=300
##$P45=0
##$P46=80000
##$P47=46600
##$P48=10000
##$P49=0
##$P50=80000
##$P51=0
##$P52=0
##$P53=0
##$P54=0
##$P55=0
##$P56=0
##$P57=0
##$P58=0
##$P59=0
##$P60=0
##$P61=0
##$P62=0
##$P63=0
##$PACOIL0=2
##$PACOIL1=3
##$PACOIL2=1
##$PACOIL3=0
##$PACOIL4=0
##$PACOIL5=0
##$PACOIL6=0
##$PACOIL7=0
##$PACOIL8=0
##$PACOIL9=0
##$PACOIL10=0
##$PACOIL11=0
##$PACOIL12=0
##$PACOIL13=0
##$PACOIL14=0
##$PACOIL15=0
##$PCPD0=0
##$PCPD1=90
##$PCPD2=0
##$PCPD3=0
##$PCPD4=0
##$PCPD5=0
##$PCPD6=0
##$PCPD7=0
##$PCPD8=0
##$PCPD9=0
##$PEXSEL0=1
##$PEXSEL1=1
##$PEXSEL2=1
##$PEXSEL3=1
##$PEXSEL4=1
##$PEXSEL5=1
##$PEXSEL6=1
##$PEXSEL7=1
##$PEXSEL8=1
##$PEXSEL9=1
##$PHCOR0=0
##$PHCOR1=0
##$PHCOR2=0
##$PHCOR3=0
##$PHCOR4=0
##$PHCOR5=0
##$PHCOR6=0
##$PHCOR7=0
##$PHCOR8=0
##$PHCOR9=0
##$PHCOR10=0
##$PHCOR11=0
##$PHCOR12=0
##$PHCOR13=0
##$PHCOR14=0
##$PHCOR15=0
##$PHCOR16=0
##$PHCOR17=0
##$PHCOR18=0
##$PHCOR19=0
##$PHCOR20=0
##$PHCOR21=0
##$PHCOR22=0
##$PHCOR23=0
##$PHCOR24=0
##$PHCOR25=0
##$PHCOR26=0
##$PHCOR27=0
##$PHCOR28=0
##$PHCOR29=0
##$PHCOR30=0
##$PHCOR31=0
##$PL0=120
##$PL1=120
##$PL2=120
##$PL3=120
##$PL4=120
##$PL5=120
##$PL6=120
##$PL7=120
##$PL8=120
##$PL9=120
##$PL10=120
##$PL11=120
##$PL12=120
##$PL13=120
##$PL14=120
##$PL15=120
##$PL16=120
##$PL17=120
##$PL18=120
##$PL19=120
##$PL20=120
##$PL21=120
##$PL22=120
##$PL23=120
##$PL24=120
##$PL25=120
##$PL26=120
##$PL27=120
##$PL28=120
##$PL29=120
##$PL30=120
##$PL31=120
##$PL32=120
##$PL33=120
##$PL34=120
##$PL35=120
##$PL36=120
##$PL37=120
##$PL38=120
##$PL39=120
##$PL40=120
##$PL41=120
##$PL42=120
##$PL43=120
##$PL44=120
##$PL45=120
##$PL46=120
##$PL47=120
##$PL48=120
##$PL49=120
##$PL50=120
##$PL51=120
##$PL52=120
##$PL53=120
##$PL54=120
##$PL55=120
##$PL56=120
##$PL57=120
##$PL58=120
##$PL59=120
##$PL60=120
##$PL61=120
##$PL62=120
##$PL63=120
##$PLW0=0
##$PLW1=25
##$PLW2=0
##$PLW3=0
##$PLW4=0
##$PLW5=0
##$PLW6=0
##$PLW7=0
##$PLW8=0
##$PLW9=0.0001
##$PLW10=2.7778
##$PLW11=0.14793
##$PLW12=0
##$PLW13=0
##$PLW14=0
##$PLW15=0
##$PLW16=0
##$PLW17=0
##$PLW18=25
##$PLW19=0.30864
##$PLW20=0
##$PLW21=0
##$PLW22=0
##$PLW23=0
##$PLW24=0
##$PLW25=0
##$PLW26=0
##$PLW27=0.13717
##$PLW28=0
##$PLW29=2.7778
##$PLW30=0
##$PLW31=0
##$PLW32=0.000004
##$PLW33=0
##$PLW34=0
##$PLW35=0
##$PLW36=0
##$PLW37=0
##$PLW38=0
##$PLW39=0
##$PLW40=0
##$PLW41=0
##$PLW42=0
##$PLW43=0
##$PLW44=0
##$PLW45=0
##$PLW46=0
##$PLW47=0
##$PLW48=0
##$PLW49=0
##$PLW50=0
##$PLW51=0
##$PLW52=0
##$PLW53=0
##$PLW54=0
##$PLW55=0
##$PLW56=0
##$PLW57=0
##$PLW58=0
##$PLW59=0
##$PLW60=0
##$PLW61=0
##$PLW62=0
##$PLW63=0
##$PLWMAX0=50
##$PLWMAX1=0
##$PLWMAX2=0
##$PLWMAX3=0
##$PLWMAX4=0
##$PLWMAX5=0
##$PLWMAX6=0
##$PLWMAX7=0
##$PRECHAN0=-1
##$PRECHAN1=2
##$PRECHAN2=3
##$PRECHAN3=0
##$PRECHAN4=1
##$PRECHAN5=-1
##$PRECHAN6=-1
##$PRECHAN7=-1
##$PRECHAN8=-1
##$PRECHAN9=-1
##$PRECHAN10=-1
##$PRECHAN11=-1
##$PRECHAN12=-1
##$PRECHAN13=-1
##$PRECHAN14=-1
##$PRECHAN15=-1
##$PROBINPUTS0=<19F-109Ag>
##$PROBINPUTS1=<1H>
##$PROBINPUTS2=<2H>
##$PROBINPUTS3=<>
##$PROBINPUTS4=<>
##$PROBINPUTS5=<>
##$PROBINPUTS6=<>
##$PROBINPUTS7=<>
##$PROBINPUTS8=<>
##$PROBINPUTS9=<>
##$PROBINPUTS10=<>
##$PROBINPUTS11=<>
##$PROBINPUTS12=<>
##$PROBINPUTS13=<>
##$PROBINPUTS14=<>
##$PROBINPUTS15=<>
##$RECCHAN0=0
##$RECCHAN1=2
##$RECCHAN2=0
##$RECCHAN3=0
##$RECCHAN4=0
##$RECCHAN5=0
##$RECCHAN6=0
##$RECCHAN7=0
##$RECCHAN8=0
##$RECCHAN9=0
##$RECCHAN10=0
##$RECCHAN11=0
##$RECCHAN12=0
##$RECCHAN13=0
##$RECCHAN14=0
##$RECCHAN15=0
##$RECPRE0=-1
##$RECPRE1=0
##$RECPRE2=-1
##$RECPRE3=-1
##$RECPRE4=-1
##$RECPRE5=-1
##$RECPRE6=-1
##$RECPRE7=-1
##$RECPRE8=-1
##$RECPRE9=-1
##$RECPRE10=-1
##$RECPRE11=-1
##$RECPRE12=-1
##$RECPRE13=-1
##$RECPRE14=-1
##$RECPRE15=-1
##$RECPRFX0=1
##$RECPRFX1=0
##$RECPRFX2=0
##$RECPRFX3=0
##$RECPRFX4=0
##$RECPRFX5=0
##$RECPRFX6=0
##$RECPRFX7=0
##$RECPRFX8=0
##$RECPRFX9=0
##$RECPRFX10=0
##$RECPRFX11=0
##$RECPRFX12=0
##$RECPRFX13=0
##$RECPRFX14=0
##$RECPRFX15=0
##$RECSEL0=0
##$RECSEL1=0
##$RECSEL2=1
##$RECSEL3=0
##$RECSEL4=0
##$RECSEL5=0
##$RECSEL6=0
##$RECSEL7=0
##$RECSEL8=0
##$RECSEL9=0
##$RECSEL10=0
##$RECSEL11=0
##$RECSEL12=0
##$RECSEL13=0
##$RECSEL14=0
##$RECSEL15=0
##$RSEL0=0
##$RSEL1=0
##$RSEL2=2
##$RSEL3=0
##$RSEL4=0
##$RSEL5=0
##$RSEL6=0
##$RSEL7=0
##$RSEL8=0
##$RSEL9=0
##$RSEL10=0
##$RSEL11=0
##$RSEL12=0
##$RSEL13=0
##$RSEL14=0
##$RSEL15=0
##$S0=83
##$S1=83
##$S2=83
##$S3=83
##$S4=83
##$S5=83
##$S6=83
##$S7=83
##$SELREC0=0
##$SELREC1=0
##$SELREC2=0
##$SELREC3=0
##$SELREC4=0
##$SELREC5=0
##$SELREC6=0
##$SELREC7=0
##$SELREC8=0
##$SELREC9=0
##$SP0=120
##$SP1=120
##$SP2=120
##$SP3=120
##$SP4=120
##$SP5=120
##$SP6=120
##$SP7=120
##$SP8=120
##$SP9=120
##$SP10=120
##$SP11=120
##$SP12=120
##$SP13=120
##$SP14=120
##$SP15=120
##$SP16=120
##$SP17=120
##$SP18=120
##$SP19=120
##$SP20=120
##$SP21=120
##$SP22=120
##$SP23=120
##$SP24=120
##$SP25=120
##$SP26=120
##$SP27=120
##$SP28=120
##$SP29=120
##$SP30=120
##$SP31=120
##$SP32=120
##$SP33=120
##$SP34=120
##$SP35=120
##$SP36=120
##$SP37=120
##$SP38=120
##$SP39=120
##$SP40=120
##$SP41=120
##$SP42=120
##$SP43=120
##$SP44=120
##$SP45=120
##$SP46=120
##$SP47=120
##$SP48=120
##$SP49=120
##$SP50=120
##$SP51=120
##$SP52=120
##$SP53=120
##$SP54=120
##$SP55=120
##$SP56=120
##$SP57=120
##$SP58=120
##$SP59=120
##$SP60=120
##$SP61=120
##$SP62=120
##$SP63=120
##$SPNAM0=<>
##$SPNAM1=<Gaus1_270.1000>
##$SPNAM2=<Gaus1_180r.1000>
##$SPNAM3=<>
##$SPNAM4=<>
##$SPNAM5=<Sinc1.1000>
##$SPNAM6=<Squa100.1000>
##$SPNAM7=<>
##$SPNAM8=<Squa100.1000>
##$SPNAM9=<>
##$SPNAM10=<Sinc1.1000>
##$SPNAM11=<Sinc1.1000>
##$SPNAM12=<>
##$SPNAM13=<>
##$SPNAM14=<>
##$SPNAM15=<>
##$SPNAM16=<>
##$SPNAM17=<>
##$SPNAM18=<>
##$SPNAM19=<Sinc1.1000>
##$SPNAM20=<Sinc1.1000>
##$SPNAM21=<Sinc1.1000>
##$SPNAM22=<Sinc1.1000>
##$SPNAM23=<>
##$SPNAM24=<>
##$SPNAM25=<>
##$SPNAM26=<>
##$SPNAM27=<>
##$SPNAM28=<>
##$SPNAM29=<Crp60
##$SPNAM30=20
##$SPNAM31=20.10>
##$SPNAM32=<Bip720
##$SPNAM33=50
##$SPNAM34=20.1>
##$SPNAM35=<>
##$SPNAM36=<>
##$SPNAM37=<>
##$SPNAM38=<Rsnob.1000>
##$SPNAM39=<Gaus1_180r.1000>
##$SPNAM40=<Gaus1_180r.1000>
##$SPNAM41=<>
##$SPNAM42=<>
##$SPNAM43=<>
##$SPNAM44=<Gaus1_180r.1000>
##$SPNAM45=<Squa100.1000>
##$SPNAM46=<>
##$SPNAM47=<>
##$SPNAM48=<>
##$SPNAM49=<>
##$SPNAM50=<>
##$SPNAM51=<>
##$SPNAM52=<>
##$SPNAM53=<>
##$SPNAM54=<>
##$SPNAM55=<>
##$SPNAM56=<>
##$SPNAM57=<>
##$SPNAM58=<>
##$SPNAM59=<>
##$SPNAM60=<>
##$SPNAM61=<>
##$SPNAM62=<>
##$SPNAM63=<>
##$SPOAL0=0.5
##$SPOAL1=1
##$SPOAL2=0.5
##$SPOAL3=0.5
##$SPOAL4=0.5
##$SPOAL5=0.5
##$SPOAL6=0.5
##$SPOAL7=0.5
##$SPOAL8=0.5
##$SPOAL9=0.5
##$SPOAL10=0.5
##$SPOAL11=0.5
##$SPOAL12=0.5
##$SPOAL13=0.5
##$SPOAL14=0.5
##$SPOAL15=0.5
##$SPOAL16=0.5
##$SPOAL17=0.5
##$SPOAL18=0.5
##$SPOAL19=1
##$SPOAL20=1
##$SPOAL21=1
##$SPOAL22=1
##$SPOAL23=0.5
##$SPOAL24=0.5
##$SPOAL25=0.5
##$SPOAL26=0.5
##$SPOAL27=0.5
##$SPOAL28=0.5
##$SPOAL29=0.5
##$SPOAL30=0.5
##$SPOAL31=0.5
##$SPOAL32=0.5
##$SPOAL33=0.5
##$SPOAL34=0.5
##$SPOAL35=0.5
##$SPOAL36=0.5
##$SPOAL37=0.5
##$SPOAL38=0.5
##$SPOAL39=0.5
##$SPOAL40=0.5
##$SPOAL41=0.5
##$SPOAL42=0.5
##$SPOAL43=0.5
##$SPOAL44=0.5
##$SPOAL45=0.5
##$SPOAL46=0.5
##$SPOAL47=0.5
##$SPOAL48=0.5
##$SPOAL49=0.5
##$SPOAL50=0.5
##$SPOAL51=0.5
##$SPOAL52=0.5
##$SPOAL53=0.5
##$SPOAL54=0.5
##$SPOAL55=0.5
##$SPOAL56=0.5
##$SPOAL57=0.5
##$SPOAL58=0.5
##$SPOAL59=0.5
##$SPOAL60=0.5
##$SPOAL61=0.5
##$SPOAL62=0.5
##$SPOAL63=0.5
##$SPOFFS0=0
##$SPOFFS1=0
##$SPOFFS2=0
##$SPOFFS3=0
##$SPOFFS4=0
##$SPOFFS5=0
##$SPOFFS6=0
##$SPOFFS7=0
##$SPOFFS8=0
##$SPOFFS9=0
##$SPOFFS10=0
##$SPOFFS11=0
##$SPOFFS12=0
##$SPOFFS13=0
##$SPOFFS14=0
##$SPOFFS15=0
##$SPOFFS16=0
##$SPOFFS17=0
##$SPOFFS18=0
##$SPOFFS19=0
##$SPOFFS20=0
##$SPOFFS21=0
##$SPOFFS22=0
##$SPOFFS23=0
##$SPOFFS24=0
##$SPOFFS25=0
##$SPOFFS26=0
##$SPOFFS27=0
##$SPOFFS28=0
##$SPOFFS29=0
##$SPOFFS30=0
##$SPOFFS31=0
##$SPOFFS32=0
##$SPOFFS33=0
##$SPOFFS34=0
##$SPOFFS35=0
##$SPOFFS36=0
##$SPOFFS37=0
##$SPOFFS38=0
##$SPOFFS39=0
##$SPOFFS40=0
##$SPOFFS41=0
##$SPOFFS42=0
##$SPOFFS43=0
##$SPOFFS44=0
##$SPOFFS45=0
##$SPOFFS46=0
##$SPOFFS47=0
##$SPOFFS48=0
##$SPOFFS49=0
##$SPOFFS50=0
##$SPOFFS51=0
##$SPOFFS52=0
##$SPOFFS53=0
##$SPOFFS54=0
##$SPOFFS55=0
##$SPOFFS56=0
##$SPOFFS57=0
##$SPOFFS58=0
##$SPOFFS59=0
##$SPOFFS60=0
##$SPOFFS61=0
##$SPOFFS62=0
##$SPOFFS63=0
##$SPPEX0=0
##$SPPEX1=0
##$SPPEX2=0
##$SPPEX3=0
##$SPPEX4=0
##$SPPEX5=0
##$SPPEX6=0
##$SPPEX7=0
##$SPPEX8=0
##$SPPEX9=0
##$SPPEX10=0
##$SPPEX11=0
##$SPPEX12=0
##$SPPEX13=0
##$SPPEX14=0
##$SPPEX15=0
##$SPPEX16=0
##$SPPEX17=0
##$SPPEX18=0
##$SPPEX19=0
##$SPPEX20=0
##$SPPEX21=0
##$SPPEX22=0
##$SPPEX23=0
##$SPPEX24=0
##$SPPEX25=0
##$SPPEX26=0
##$SPPEX27=0
##$SPPEX28=0
##$SPPEX29=0
##$SPPEX30=0
##$SPPEX31=0
##$SPPEX32=0
##$SPPEX33=0
##$SPPEX34=0
##$SPPEX35=0
##$SPPEX36=0
##$SPPEX37=0
##$SPPEX38=0
##$SPPEX39=0
##$SPPEX40=0
##$SPPEX41=0
##$SPPEX42=0
##$SPPEX43=0
##$SPPEX44=0
##$SPPEX45=0
##$SPPEX46=0
##$SPPEX47=0
##$SPPEX48=0
##$SPPEX49=0
##$SPPEX50=0
##$SPPEX51=0
##$SPPEX52=0
##$SPPEX53=0
##$SPPEX54=0
##$SPPEX55=0
##$SPPEX56=0
##$SPPEX57=0
##$SPPEX58=0
##$SPPEX59=0
##$SPPEX60=0
##$SPPEX61=0
##$SPPEX62=0
##$SPPEX63=0
##$SPW0=0
##$SPW1=0.000020754
##$SPW2=0.0000092239
##$SPW3=0
##$SPW4=0
##$SPW5=0.0072087
##$SPW6=0.0001
##$SPW7=0
##$SPW8=2.5e-7
##$SPW9=0
##$SPW10=0.0072087
##$SPW11=0.0072087
##$SPW12=0
##$SPW13=0
##$SPW14=0
##$SPW15=0
##$SPW16=0
##$SPW17=0
##$SPW18=0
##$SPW19=0.00001472397
##$SPW20=0.00002288794
##$SPW21=0.00001068705
##$SPW22=0.00005763436
##$SPW23=0
##$SPW24=0
##$SPW25=0
##$SPW26=0
##$SPW27=0
##$SPW28=0
##$SPW29=0.095493
##$SPW30=1.7778
##$SPW31=0
##$SPW32=0
##$SPW33=0
##$SPW34=0.00010084
##$SPW35=0.0000092239
##$SPW36=0.00059033
##$SPW37=0
##$SPW38=0
##$SPW39=0
##$SPW40=0.0000092239
##$SPW41=2.5e-7
##$SPW42=0
##$SPW43=0
##$SPW44=0
##$SPW45=0
##$SPW46=0
##$SPW47=0
##$SPW48=0
##$SPW49=0
##$SPW50=0
##$SPW51=0
##$SPW52=0
##$SPW53=0
##$SPW54=0
##$SPW55=0
##$SPW56=0
##$SPW57=0
##$SPW58=0
##$SPW59=0
##$SPW60=0
##$SPW61=0
##$SPW62=0
##$SPW63=0
##$SUBNAM0=<>
##$SUBNAM1=<>
##$SUBNAM2=<>
##$SUBNAM3=<>
##$SUBNAM4=<>
##$SUBNAM5=<>
##$SUBNAM6=<>
##$SUBNAM7=<>
##$SUBNAM8=<>
##$SUBNAM9=<>
##$SWIBOX0=0
##$SWIBOX1=0
##$SWIBOX2=3
##$SWIBOX3=0
##$SWIBOX4=0
##$SWIBOX5=0
##$SWIBOX6=0
##$SWIBOX7=0
##$SWIBOX8=0
##$SWIBOX9=0
##$SWIBOX10=0
##$SWIBOX11=0
##$SWIBOX12=0
##$SWIBOX13=0
##$SWIBOX14=0
##$SWIBOX15=0
##$SWIBOX16=0
##$SWIBOX17=0
##$SWIBOX18=0
##$SWIBOX19=0
##$TD_INDIRECT0=0
##$TD_INDIRECT1=0
##$TD_INDIRECT2=0
##$TD_INDIRECT3=0
##$TD_INDIRECT4=0
##$TD_INDIRECT5=0
##$TD_INDIRECT6=0
##$TD_INDIRECT7=0
##$TE_STAB0=0
##$TE_STAB1=0
##$TE_STAB2=0
##$TE_STAB3=0
##$TE_STAB4=0
##$TE_STAB5=0
##$TE_STAB6=0
##$TE_STAB7=0
##$TE_STAB8=0
##$TE_STAB9=0
##$TL0=120
##$TL1=120
##$TL2=120
##$TL3=120
##$TL4=120
##$TL5=120
##$TL6=120
##$TL7=120
##$TOTROT0=0
##$TOTROT1=0
##$TOTROT2=0
##$TOTROT3=0
##$TOTROT4=0
##$TOTROT5=0
##$TOTROT6=0
##$TOTROT7=0
##$TOTROT8=0
##$TOTROT9=0
##$TOTROT10=0
##$TOTROT11=0
##$TOTROT12=0
##$TOTROT13=0
##$TOTROT14=0
##$TOTROT15=0
##$TOTROT16=0
##$TOTROT17=0
##$TOTROT18=0
##$TOTROT19=0
##$TOTROT20=0
##$TOTROT21=0
##$TOTROT22=0
##$TOTROT23=0
##$TOTROT24=0
##$TOTROT25=0
##$TOTROT26=0
##$TOTROT27=0
##$TOTROT28=0
##$TOTROT29=0
##$TOTROT30=0
##$TOTROT31=0
##$TOTROT32=0
##$TOTROT33=0
##$TOTROT34=0
##$TOTROT35=0
##$TOTROT36=0
##$TOTROT37=0
##$TOTROT38=0
##$TOTROT39=0
##$TOTROT40=0
##$TOTROT41=0
##$TOTROT42=0
##$TOTROT43=0
##$TOTROT44=0
##$TOTROT45=0
##$TOTROT46=0
##$TOTROT47=0
##$TOTROT48=0
##$TOTROT49=0
##$TOTROT50=0
##$TOTROT51=0
##$TOTROT52=0
##$TOTROT53=0
##$TOTROT54=0
##$TOTROT55=0
##$TOTROT56=0
##$TOTROT57=0
##$TOTROT58=0
##$TOTROT59=0
##$TOTROT60=0
##$TOTROT61=0
##$TOTROT62=0
##$TOTROT63=0
##$XGAIN0=0
##$XGAIN1=0
##$XGAIN2=0
##$XGAIN3=0
##$TITLE_FILE=Spintropy Username asu_chm343
2023_06_04_AcAc_MeOH_1H_1Scan_Temp_Bruker400
3 mm FS NMR Tube, AcAc in d4-MeOD
1H, 32 Scans, 60 s Delay, Bruker 400 MHz NMR.
Temperature - 308K 1 of 4

##$observeFrequency=400.130008452046
##$brukerReference=400.130008452046
##$OFFSET=-1.978888747552524
##$SW=19.4639278408014
##$BF1=400.13
##$NC_proc=-12
##XUNITS=HZ
##YUNITS=ARBITRARY UNITS
##XFACTOR=0.059419874545530535
##YFACTOR=1
##DELTAX=0.05941987454457376
##FIRSTX=0
##FIRSTY=-149859
##LASTX=7788.222376557233
##MAXY=357084426
##MINY=-1179785
##NPOINTS=131072
##XYDATA=(X++(Y..Y))
131071a49859L5988L5030J6269Q587J0309J229k0671l7662m0792l6818k7653o076K3330M0822L9190L6035M4938N1252
131053B3448L4848M184j4334j4149j2498j8428k0819j2598m761o932j2732j5475k0703k8642k0942J4588N6582O9508
131035A45M6171J1133j4803l1630m1504l7992k3191j5482k5744l9436l6743k0139o813j578N245J5808J8816R929L736
131016a84072J5947M1421N9711N9246M6365K9637N824k9658o3060o6880l0482K1884N2904M8752K6022O472l438q617
130998B7978j4291k3110l2999l3511j4924J3558K6594J2852q379j2674k823M87o542o903M807Q066j3675m4276n2769
130979a72534l2678o502P340J4295K4709L1040J8968n596j7852n077J7410K7751K3813J8131J5822J1892O747Q574
130961a3747J7726K1926J2996m51k721J2370L7131N5122M9495J6679k4066m4612l6596j7871q218j1280k3785m3934
130943c836n9691m7655k656M4406N8966M3838K7456K1039J3248J367k992j681j3308l9809n6695m9409l5046l2207
130925a34665l2128j9435j247Q277J6739L9935O9135P8842O3229M0601K3893J0146j571o600j1479k9533n3697n7549
130907B893l2507j183J7834L4673O0329P6421N8738J7707j2286j8859k1140l3395m3890l6686j5264N063J4742J2345
130889H5535J490o833l17J7298K4960J0565j0298j3794L91J0686M698o217p036j347m540k0854l7590m2442l7764
130870c3409l2704k7369j4657L253J2450P510L264J4348L0232K7288M135j3596q729M633L925j0642k1635k1116j5966
130851h8785j1474m477P957K3684L8410M5768L8725J9669L358q76l600j9166m1590n2110m5262k9732q942J6581L0900
130832h0962J6138j0690n250M4722R3957R3490M8043k583l7928o2857p4822o2533l5689k2027k7769k8471r333J0077
130814a54487O167j3178k1862j2539k223n886j9279k7653k2102o316Q283J4596J8064K8886M5568N4005M6081L0585
130796c3290K0154J5649J1173P023P008P458J137p666l275K1071M9593N7446L6924O282q790n47J6022K2168J3782
130777B39322j480j8224l4993m4704l6231j0401J4692K1285R468p633j9363k1663j2870M022J7678J6998L624j1134
130759A08393k0807k7300l0760k6148j2935N45P792J2386J9123K2113J0806j2827l1602l1386j7092n184k372J341
130741c5914J6237L5879M3587L3717J7950Q739N031o62q946j5498k0470k5177k2793n720J7084K4379J0230n372l629
130722F8652N314l696l3182n5579m7196j7741K287k005j4537r532J7158M2176M0795J5207r077j4163p049j745L046
130703b0867J4674K3972J3140j3662k9209k0276o062o977j2974k201K1434L2847K3061Q892M859O750P421Q820R720
130684F3362m24k2425l5317j8953J7794M4240M0662J5108r075j3873L192L0871N3440N9963M5996J2182l0578n8252
130666A97913n1062j7741J0613J6211J0595Q871N350j2041l8398o0007p3667p8673o1008j1119M6561O9337M7270
130649I005J7408J8536M7670O9817N8121J6094k9641n1676m4602k9620k8949l6339k6416N150K8852J8286j3783k9212
130631a299p847L2294N4109L5690q966m0364l1111N358L1668L0195J5167J331j7086m6161p1788p6992o5936n2667
130613b14405l7058j1457J6680L0146K7654K5341L2238M0408M0571L2312J6424p911l3172m3066k9242j260K4600
130596i1197M0010M4741L9307K3608Q84k0989l4060l7713l9995m6070m6137k5373J0988L6143L4475K2425K3008L2058
130578c3887K9366J4315O187J1125J3678N353j268M471J3126J0820j676j5420k5526k7928j7626j42Q647M939N327
130559C881K0152L3539K7207J0856N911P041j3009n8662r7007r7750o8415l6996j4947N159K4489L1983K5354K0543
130541a70671L0516M4963M3317K3828O744P296J7471K0116J0811l138j6733k7567k7429r290J6896K9646K0604J891
130523A9271j3749k6149l5632l3299j4954O169J3555P365p98n939r995r908N4J5568K4295K1170J1867J386j0740
130504d0463k3184k9975k7583j9016j0187n934p191p675J428J7294K3858J4202N490J6101L5227L6207J7974Q705
130486E278K3165M0482L7157K1699J8084K7879K8297J828m7313j00514j34389j29317q5613k9915Q718K8642M8998
130469b36834P5771R1477Q1958N7534L8943L2721K9416J9763M466r013j4003j0524n821o342r013n293N333J2445P839
130450A60823l397p945K511K2680L3773J5413l1910p5891p7211l1896K0914M0204K2776n197k3409l0285k9589k3479
130432b1115j8937k4626l5932l4659j0992K0378L1924R485l3573o4912n7711j3377L9022O9906P4393O6660N5701
130415E1635L8075J2555j1936k6368k9599k3693j1192O96L947J006K090R328J6175K4098M1829O1532N6458J6498
130397B33134l1373n5916n9670o3009o3927m1938K694M1502N2477L9607J5201j4288l9124m5374l3115j8268q271O302
130379h3356K7368L6700K1114o254k4108k7608k1176l391K2432L7023K7029Q951Q729K3292K5476N040j8140k4009
130361C5112j4950l839K183p11j5840l7331m9983m5934l3773k6138k6064k8548k6739j4019R709L0713L1803J4797
130343a99552J528O534J9899K4793K0953J9933K4914K7270J9461J335k3806n0099o6479o1410l3689L466L0130L3632
130325b01187J9764J0540K4003N3124P0582N8161K6491K792M370K5976M5759M0630M843m0953o6661o3632n0436m4023
130307g9857l8866k4357p774k279j664J1565L5995N0457M5042L2893K5782J7181n38j8897k6967k9190l4234l6242
130289h1950k5459j1316j3532k9437l1379n075K7455L7753L0736L4715N6164O6633M1454m777l3683k5913K455K1393
130271E6237J4534j1396l4184l3524r293J7184K5876J9119J2173Q204k975k1840l1592k0009L495J9850J9649N598
130253C7106j2487j8606k83L1768M5711K4105j1409k4953q812J3229J8901P889p619j7585j9409j9852k9396m4624
130235c6326m3256j2081K6610L7130J7039n69N896J9809J4746j0547l7436n1600m9135l1458p655O989O490J980O806
130216a36568K1935M1513O0818P1304O2125L7793K0186J9160J4842j2885m8735n7861l2016J375J4719N157j5618
130199F7244l5643m2357k6959J920K1971K2465J5508J6308K3771K8421K9021L0457L1021K2207L58k7193m7418n1226
130181G9876m0342k5635j5346n393J3537L9691N8203N6707L6852R617j3732k5335k3874j6444j0220k028J4744L3784
130163A64662M0173L3154K8383L1797K9367J3114k160m183o088k0608k8033k214L9732N0748J8747j8876l4298m3410
130145B90007o1685o5592l2984P698J2909q307r560J6636K8062L470k5619l0588k6925l2567k7360O858L8499K6587
130127A09539j0577j8176J0928K6319o75l6620m1987k5755j8021j9675j1347O649J4570N872m987n578N84L086k418
130108a8269r369n782Q921J4799m396k8068j6555K8858N4255K2403l3820n6198l5891p605J1784L3329N1935M2711
130090E3042J0490k524K0394L7400P164m6079o2048k5928J4339J2686k0936m0968k3493J1543L0489K5324J5883J7520
130072C4298K0004O736j5031j9433L527L3977M5911L2478M461k3230l7377l0362p214J6795K9661K8515J3533j1777
130054A25472l2283k8166J909L4942M8107M0404K4792R594m456j7426k8845l7498l8087k5115l613J2490J6042J2127
130036A10390N999l123j3816k0450k2280k1804j3726O470K2042Q420k4824l3594J801M3210M4000J0191j6640k0589
130018F1677k1467l2485m3253m5267m2786l3338n637L3911N6896M7398K2835R612J3767K6247M2042N9746P1114O3963
130000B84975L3587j3053n9777q7165q5954o7941n4160m9027l6378n350L1960N6120O3463O4048O3774N9468M9023
129983B47613L7449L1628L2367L1376J5840j9472o2286q9840q9612o9644m5463k2805k76J5847J2840p537k0904p077
129965i956J8545J8031j8983n6136n5544k6895r529j6008k3092j6211q065m636J2143M8198P3823O2718L1824J4701
129947C4928J5415J8915K7765N1116O9273N0320N89l7715m1188k5622j1108o87K609q212k2782j9181K46Q455l331
129928A09805j3536r566n685r592n968J0560J9332Q734n062j2260k5887m2258k7058K5206N7552K2538m1824n9842
129910d811k1944J3926J4120M882J2788K3510J7067K267o309j5459l5463n5886n8490m0993j5558N702J6028J5788
129892a28835J4109J9483K8082L0811K7454K0797N121j9967l2479j0675L0542N3299M6022L0347J8387k816l6119
129875I3563n7785n2020l3655j9222k497K1164L2191J4868j1154j5439p47L911j2842l1698l1043r905J6280K9111
129857f6919J9586j458j0525P66J3292P393q502j1736J259J3931J5745J0271P28j2517j9296l586L3874O9520P8978
129838A30804N6922J4484l1734o4726p1786n1699j5107K2984M8858N2915L5640J0432o623j0580p661n447r456k4360
129820G3860m7553o2148m7509j205N3865Q5917P6443L1570k0686m6955l2450P626M2543N1077L2466J119k3040k7292
129802A47648j9475k2593m4916o2575m7315o748K2639K2665J2066J1684J3173j523k4962k9983o456K5701M1468L5407
129784F5905J9362Q058J1698L1882N5961O2199M0616O359j6625k3842l1646m9056o1463n1288k4835m787k97M02P836
129765D6439J7225K1217K3253L0220M0970M8835M7679L1605K74l0031l5788j7045l624j5416l0875j5936K5845N6793
129747B41640N4452L1871Q143j4158l4087l9029k1458O596K8749M1017M1917K1158k3718o8209p8501m9181j0123O582
129729A43661k425j5971j5850m672K528p8j762P709K0774K1511R372J108Q370K5425M0764M7258L7549N534l8981
129710B91824p1151p7114o7710n6852m0658j2213J6096K4376J2645j574q702j2441j2133J273K8188N3353O0504M6193
129692A73904J9627k412m128J3363K6938J5433j3434l4354l9357m2386m8541m1794j2301K3288M2232M2711L7310
129675A56099L1009K0347O764l853j1237j8371k1591j3990J710J2232O612j4031l7926n0290m3529k4002n473N891
129657c629J3092J3785j950l0144m3214j9759K2291M2197K6522M052N618K5825L5384J9420j0015l3691m4081m4961
129639b3258m2447l9626l4797k2837j452K3412M1482M7470M3365L2951K0138J2979K0293L8528M8862L6530R697j0102
129621B01188j4034j1918j4049k1470l5668n9501q0202p0666k4640K3391L4460J1984r476j4005j4772j7532p354
129604a24264J8536L4677K1913m349j9017k1238k3156k2371j0134N006P513K407Q465K7014L9301L3975J7610k72
129586h384j2573o951K3210N6810N7754J9773j9042j8021K1511O1482O6336L1042j8568m5827l2807K360K2894J0951
129568B11950j7976l6963l3832j6180k824j0898l8258n7359m0636N389M4815N2334L3411M661k4688m6135m8712l4789
129550e6690k2837k2965k3530j1279J0239L1329M8590N6952M7376K3787M252n741j9323l5052k6294J3612M3940K7804
129532H4170j0507j8666P152K2353N786j3522p832J1876K4254K8976L1351K3705L332j2349r516n35l847j4830j5629
129513A35722l845O323N095n087j7149k2550j2896R409K6853K4457Q648q64N041J7545K3607J8723O619p631k3466
129494A94554m4913p2531r5452r7588p4264l8038o774R769J2904J2277J9606L6922N1510N0402L6666K1235N060j3647
129476G698k0485J474L7185M6775J6845k1044l5911l4474l4386k8039j902K8377L6020K5340K3159L4247L7984K7907
129458A46770K2152L0345L9718M0984M0170L6213J5440j8510l6649k5227j0766k2382m8770n8019m4272k5434n390
129441G6373K6777O0056N9076J2100m3814o4641n0999l9442n2107p4432p9814n8675k0255K0845N3127P1097P6030
129424b8698P0785N2347J5813l1023o4890o7152m3761j7595k383P540K0846L2881L2924K2246J4693J7912K2477J5880
129406G0842K727J583J9747L9645L7262R905k2417m0831m2733l2734j1140K0741N1200O3416M8932J3105k7867n3680
129388A47703n3877m1655m3213o3597p4081m7397M043M3044N3835N2190N2366M8569L4099J6515L816p580k1277l1944
129370G1559l6211l7277l0527k423M3528P6399P0263L5482K507j4097j9620j9129j4313j4685l1318n8560p6101p0420
129352a24943m5572j5757M640R497Q282J7554L6662M3547K6393N125L517J2755N318k4081n5342p2886p2009m2190
129334b79490K1694Q8681J07642O8397K0244J2553L8013N2142L1014j0066m2178m7193k4298J0325L2839L2074J7898
129317A30291L792r913k6835l9082l4590j4174J0959L4760N7548P4397P5169N7998L3001Q758j7288m8278p1901o6398
129299A58214k9044R356J2990j5385l5550k0405J2422L1042L0784K4392J0497j6059l4488j8217J6535K3331o123
129282A54292k7475j2848O812n368l2969l5019p612K1086L8865N3032N6673L1606j4412m5994m0995j1188J7544K5334
129264A71364L434l6490o0649m4818o333J7508J7521J3090J1793L685m456J1183M6910O3432M0331P694K078J8009
129246B75286K7674K5523K4312K2485N369k7338n8796p5917p5170n4682k0304N842M225j4824k0381Q77K9411L7105
129228A10697J6157j5829l0275j0169L1409N8395M7691J4218r472j1418m997l549q471j8104k8312k5729j980K4045
129210A34307K1508q770k9356j5915R981J3417p924l0554m2091m6426m1552k0099Q750K3379K0956K2442L8094M8441
129192I8588L3878P369j264J3526K5964J3213j7206l8456l4497j4170J200M9j0461j6518j4392r764l802Q937K6392
129173F8586L5149K7759J3103Q32j2826l1292m1363k9313o514J252j2146k9128l6211l4496k3524j003J7558Q263
129155h5314k1191l0609l650K4011J7745k158N848L7606N1804L5647J7445J3008M062j7972k6853k114L5290N1679
129137A04284M2006K0511p762m0055n8124m6617j9276j094O747J7395K2304j196m4086o1453k9654J5526J8100l2327
129119i4771r0548j06131p1723k4038n365k2538l9508j3704N7316J30649J62278J48162J14549P7436K8548l6545
129103B14067r2725j03192o2608j0619N965j9058m9177n0106k6093n664j353J826J8539L9070M1783K1719l541j4099
129085i5266n225J4928L5575M7612M5349L1418J6719Q510P87j5307l3133l5169j9911r897k1215l6301k5895O395
129067i0026K4157Q204j4338n187L4290O4739N5599J4724k6867m5649l8509j6649N593J8225J7039K744j6237k3197
129049c1345p365J7698K3052j41k7300l3931k7531k7680k8951j2246J3254J4599j2350k9312j1428J3961J1397m214
129031a59833R721N3494P9495O1540L1966L0908M7457L9442l827m9397o7748o3446n2868l6211p050K6053M5531M4512
129013B9739K5926r148n3398q0383o5454k2254P365Q886J4124M7987Q2756P4819K8938j0556k4692l5796n6193o3087
128995a00421m1175j4055p294q122O934K5023J3872k3918m9203l9264j2152O546J4769K3183L4482M3906M5727L3537
128977d7625R029o239J2477N6997Q5458O8523K0805k3300m7122n2016l8898j0157K0334L8031M2651L8979K3181n261
128959A85847k9323l3481k8528l3470l9266k0443J6934L2490Q329k1772k0519o08k400l2758n7552n2019k8523o727
128941a63789J8292O0246J07851J28252J04166N3359O873k1680l7890m6466m3605k9793j5728p672J304J3385J0514
128924A37619k2108o0773n8185l310N5841O6067K9647q715k2951k7182l8877m8310l5957l498K6690L6346K6224Q966
128906E7534o221k0383l6306m5299l1975Q81K2641O176l4712n6321l4669J1455M8017N8207M3477J3335j4150j8744
128888c7057q25J3207K365k1394l0490j7662J98P089J523j0625k2056k3989j1394J1637L6648N4920N3203K0718k7908
128869a892n3529l6218m584K629p583M252M6408Q0433P3306L2998j6145o1306r0387q4086m1618O416L1134L4355
128851h5417K8924J3002j3804l0270j8135Q141K4501L6296O2244Q9774Q3888M0629k768j6965j0444m132n236j5285
128833A84943l5478n1599m1049j0158L118j6198l0165j012M7811O0130K5359j0746j3984k619q259k7523l5054k4848
128815A2669j3132q799m633K953O315M352J0370L0234M3866K5366j9949n3736m5458n301L0281L7626K1720L89j3315
128796F1818j3416M21K0209L2766L0960J7938j342k5098m7094n2446l1221M960K7843J7921j5855m2487l6366p86
128778e1275L5198M4066K2971j0216l6924m7887m0418j9218N53M641j333M908L4360P0560Q6662P1108L3163o796
128760A94123k7801k1849n901r307l8344o3608n5760k4794p006j7678l4457k8361L767M1253O1997N7969L6839J3722
128742G4804j504r639j4031j3022o451k496p310j2609n817J0144J9679J5589N210k555l476N588K0141K0048j0701
128723H1592n2894o3678k9432J3127K2878L466j1502p459M50j489p983r752o904k058O046J6397K3078K2872J7389
128704A4144O010j3096l1824l3443j2376J5511L0590L1506L0577L1940K6644J1101j508K489J4763J1032j7271m6876
128686F9913m7121j6181J7769L1425L0310L2686M0644L8744J7224j4499l7283l7422j4355J6240K6781j518n5053
128669I8304r3622q8387m8694m541K8289N1995O2506M4957J605l5043l5689j1307L645J389R677M4226P6822O9917
128651A76049K7664j1713k7981l7180n5121o8275n4937j8651J6371L3938L5075K5612J1191K226P546K0400K2813P118
128633A12145j6710l6371m7199m3385j5691K9963O3947O0700L0646P007J631o626l4077o2651o2945l3856j323J5237
128615c9558J6175N366j6228l6181l1378L729M3058N6029L9438J1958j1658k6937k9980j9786p340o832j7429k4960
128597i2514j9926m118J5850K9697K5033L742r377N767L1873L1956m27l3368m1602l1997j7183N051K9781L2156K785
128578c6821k6125k0187O680J3298o425j7287O57K3098J9837l583j8200r269J2782K9248K9698J7838Q315J2740K5130
128559F1424K7641J3302m931j1144m497L276N73j7610m6969p0837o6269k2662M3893R7275J05037O2467L58l5034
128541A35293k1763J5181K9314L050l6083n1984m0865k7297k8794l7847l7604k3317m106Q713Q696n619k8912m6579
128523a90523m2448j4887J8984M0991M9967N5381N8334N0751L1419R303q910j9520j1006K4740O4428O4465J8292
128506A99761k2405j1768K3789J9488l6091q4182p6223l3282p783j4838k6597j8575L728K0540K2256J5182J0114P735
128488i151k164k2834l8143l0000l713K0034L4669M7537N1574K6785k0213m6832k4090K5493N9098O2906M7918J7514
128470A96388k7514o1893n1657k665L5740K7331j0415l3937k6298q860r319l1027n2790n2350k9085l850M429j792
128452a39564p445q328j5109l3442n0611m7937k1922J1442L1534L0295J6793P395J1779K7526M5233N5476N2742L8944
128434D801K4151J7832J7826J3642J285j3285k6171l9436m8731m0428j1276J9271K9290K1249J6364K5098L5093K8835
128416G5410N000j9518k5348r363J0792J4636J340j2928j9092k2808k5510j6807L745J5849O695n279L974K6018L2029
128397C8835J6598L713R489K3382L0479L1127L1848L4148L8564M4922M4309K5991m194k8375m2584n9464q0533q7012
128379G1243o7860l7049j1252J0057K7839K7561J372k9408l8427l0980l1538m1213l5167k723L5736N6930N6505L6640
128361a734j837m0596m2175O684O3401O9580J9579l5807n4171m2735k7091q147K6519O5628P8131N2897J2430j6035
128343A24521k5940k4654j8530j1977p701L03K2334N2937O6054M1717p856m7725n3395l1110j0194j6416m4848n9024
128325e1504k9677K4170M9845K3025k3161m1166k2321P474K6974L3471L0134K1573J5627J2994L582j1760r843K2940
128307H2377N9526N8804J6806l1834n6042m8719j5671K6072M5843K7425l462j0408J1q544l9302n6268m4655l0794
128289b8835k9005j5525K2104N2185M4849J6094l799j3664k2015j5989J3212L9905L7844K3586K7684M2278L8266
128272B29175J7516L436q039l9862q1167r1216n9242j7359J0920L2087M5329L0261r719l2595j1977K4453L5772K1273
128254I9046P858O528R269J3778K4332L6386M1798M2972M4660L9124J6604j5076l6803m0523l3471k4966j9668j8492
128236A93356j6529o700N039k886m1557q8842j06744p9972k8554J3156K1249n638m3751n6741k5997K8931O9307P5928
128218i6945N9752L7718J4150r822k3962j8699j519P730j603k0333l0749k3354j695K3243L9182L7760K1347M923L934
128199B1058J7134K6228J5563j2134m1656o0803o6747o4431o3595o9656p2005n1509q237K9822L8452K6374J6585
128182c19557J1099j399j1356N430M4592O8846N8954L9833L7589L7133J0224l2010m7773k2807Q536P445k2173m0652
128164a68046j8956K8736N8382M1814l157l4264l2743j5200J402K1308M4510M6452J0899l2769l8325m409K4482K1511
128146d8373J0361K2836N1219O3557M9036K5340R136P45l488l562o399k8028p1575j09234j02375m4448K6347O5119
128128i3786O3110M2422J8169j2863m6653o1450m5816j8398l676k687m025p901j7143j7072P777M1664M9301K0529
128110h8498j8936m1851m2722k6849q71K1786K8901K7928L5635M7823M4340K5856J4096R409j4171n5836o9850k9690
128092a33500K2677K9454m213k4527o951K2532L7722M1861M3657L9645K9485K1145J2650p605l6152n2539m7122k9113
128074d0894m763K6407N0085M3142J2502k125J8156M1835L2603J435j3020N92J8631K0085O093j3180k8093k7444o605
128055A35442K1405L7856L9745L5284K2036j1565o1374j01919j12282r6227p1260m7377k3262K634K4441L3015K7130
128038a46278J9056K4120M3238O2263P0500P0104O3241M4257J5409l730K21J1154L553k0146l3963k7484j6317j0773M
128019A68429K1242L2194J1798k8164n5473n6996m6982l7201j8935J5443M6616M2731J210l9273m0236q823J3612M836
128001B6028j6986k9231l6344m8095m8221j4776L7231O5122N2334K6053J6007K0934K4881K2647J5439J444j3265
127984A01202j0626J5768M4971N1318L2069P69l2390n8333o2657m2436j8556r613l181K1605N0024M2840l954m1286
127966G7534k5246K7725O2982N2061J5352j2510j9416j5563j2048r172j969Q639J1928k981l0591m5786k6154J9952
127948G4737N5893N3713K2310r539l0345m9625o7457o5160l7284j0247p818j4526j673K0682J3704k6741n4385l5774
127930a69535K438J3234o815k1384q352J8099L4045L1276J7717R699K1374M7588O2487M9130K2544P258K389r018
127912A24174k4667k5491j2190r967k9757n0088m8679l0890j2937N313L2651O1296O7109L5714j8921o2432o6701
127895f6463l4422J673J0144p571k1825r061K4957N2506M7218P235l3981l0351K4933P7870O8166K621n1924m9528
127877A2197r906K2664L1229K1296m076l7459n6128m6094k4613j4572q235J7541N8174Q1616P0331L7875J373l8581
127859A14632q2295j13902j12452p2554r024N1174P9398O0166N533m8647o7852m4011N61L1654K9932N512j4294j3464
127841a99933J05J1002J5776J9689K3557K5052K7694L6329M5014L9481J3105k4093n0826m7791j5023J8208J3640
127824d9014l2288p4684o7591j9302J9338J9741O103J5833N0489P9802Q1682O2211L9953K3454P416j4274l6057m3693
127806F9119l1056j0391q69q552k2582k8867k1269j991K0739L5127L3208J6972o454l1825n1731n2911l0344k188N819
127787a20046o850j4276q41J7416J8865R161J1098K8890M1138L0382M514j7028k6842k9605k5341o633K4745M9898
127769a1355N1879L7966L0717L6683L7896K0178m026j3576r087q559j7399k1302r939R541K6889M0326M6395L3990
127751B77217J071l3224m7013m0754l2084l0287k8757k1774j5686j8600k6069k2980P24L6668O0748N3523K1341p211
127733A26853j1617j967l311k1056l4566k7067p906M749J2438L0448N5174N7119J6915m3792q2166p9867n4927l1164
127715i5710j3553K269J4030J8410K0763K5740K5653J1793p891j6291r355K169J0453J5743J5272L879j1368j3386
127697a380J018J2683M602j4963k3319j0852J0311K0670J1206q824j9020q673Q290Q084j1527k7070k1036k695J2073
127678f0422K6037M8838P0489O8061L7982M001j0872q015n166j5004l6010n6708o4186n3219l0624r624n16p506k7546
127659a30010m5505l7986L878N5577P6114M8453m192m4003n1979l5028j2347j724j0452k9711m0183k9227j375K9874
127641b59826N5650P2990P8032O6060L9195R503q778j1530r570j8132l8022n0032l4192O537M7724O6814N7576K5627
127623I5626j5185m0333k7501J5711M9909M4659J3042r162j0429r659j8146j9197N112M2758O0271L6356j9050p1802
127605A22980q5278m6265K0700P0968P9897O0972M0147K4041M474j7187k9908l4320m3796n9207n9837l0895J0205
127588B7691K7854O159l5134o1178n3153k1030Q238J4233j638k1564l0406k7639k2424k2127k7084l1969k9806j7867
127570c18844j437J1816K1923L5650N3371O4033N8524M2687L0099K5491K3372K1468K5881L8919M8385L7330N800
127553B24468k2916k4857m439P445r416l7095m1788j9853l147j3712l2407k7449n54J6099M130k0350l1941k4052o045
127534f7879J2294K3828K2373R209l686n152L378J2293J4553O951j1559l3410l9844j7711K1031M7780M8341L6117
127516G8907K9871K7943J3642j9096n5816p6188p0296m1835n699J6611J2239n414m987K7014O6839Q0876O3976L5895
127498A74482P741k5056n5708n8095j9920L2093N6682M0633O160j6794j5470J262J3491J0324M750J8370M5499M9441
127480B69885R121m5593o6205m3971j3800n726j6295k7952l4068l9076m9170o5627p5662n4868K837O2580Q0331N6757
127462e6502L2855L0117K7027M693j8141j7083j619M533K791R693K0514J4483p499j8691l144K5419M6075N4084N5384
127443B04989N1469L8165J3235j8790m6498n8408n4601m7003m1958l0149m887J7018J0401k1342m1483k1027K5054
127426b5815N3613M3364J9167K0410N0625P2201N6161K1243N805J2188P390k1593m6469m3495k9142k8207l2557k0290
127408A14599L123J4074Q249j717j4118l0320k8964J1627O5885P6847K8638l2021n7615m8603k6842K110L4332M5320
127390A64604J6588k9900n2218l5830p73K8075L8264K7852P416k680M736J0555l713k5741k9904j6682r976j7873
127372G2800k1046l664K4889M4788M5720K7510l246l1189m0890l4228k7931k9229k6105p164K0905M2847N1743M9456
127354A55966L9276K5252J0769q136l8833p4210q9266o7469k4507N847O258j3318l3750m1169k4756K1107Q2046
127337f8893J22286J13616O5874J8471j028j449o303j6452q187L0157P3525Q4117N5334J8386L107M988r75k4357
127319D62217n1481o9237p9014q2378p0169m0208j4990k0552m7442n3758j7203L2003M6666K1193n892n326J0959
127302A5388J9392K3930M3891P2499P4760L3752k0651m5153l5309k5504l8132n4458m7120k4374j8998l7730m7848
127285a11665k2618K1623N0288N5965N6980O1242N8762M7735L8663K6472j1188p1064j06370p9453j6937J9278J0939
127268B8652O50K4684O0326O0551K1590j1760n250K4208L5352J4590j3784k4175j9688j9500k9080l6969l6549l4250
127250C9598l2999k3551k049J6172J3528o524k5856l4639l4062k2809O97K4870L4043L3156M2500O1572O0255J9976
127232A63878l5180o7307o9945o1988m8145j6478K5184M4009K7725Q945K0982M7219M3439K793l3543l4265j5539o564
127214d780n373N282J7098O444j9735k4829J800K2408L461l3831m1866j0954K2233K4590p35l0710m7150m0768j1990
127195a69405K3407M4323M7226M6244M6348L3726J510l2080m5902m4134m5398n0736m0579m870L7595N6821M3872
127178e2032K0149J3639K8477M3643M3121L6269L7906L9410K0265j5719m1100m4968m5856n5161n5521l3205o494L384
127160f3793R062L4605O9396P6655M3296o405m3787n7135m5009j6959P66j0101k8580j7624J9516L9294K0530p968
127142A5759j4765n837J002Q096J9313J8705j933j7773n577J5315J0828j4094k7057k3940l2041n7539o9988n0224
127124b31750k0921j2094j9520j5759J1820M8781P0155N9824K2351j7241l2922k1262J013K1928M3998O8759Q7550
127107F4710R2847Q5173O3582K4182k3778n4085m7929j5414J5291K4590J2667p200j9514j6763n091K933J721o318
127089A91604j9442l4165l5418o423M5038Q4054Q1398M0947r678m4652n2475l7842j9758j6627k5457k6556j3864m887
127071I5797j2034k1775j6916m659m585j9415l5505m3909m3355l0518p053R555L754j1114m825K8662O1756O9564
127053A3425N7600M5328L8246K8642J3947P24o551j0476j3290j0311M701K6861L6360J5036l0113o7717p3648n6167
127035A2597m0794l6015k7458n120J8865K6837K1168K3312M7355P9699Q9709O1991J3932k5085m7421o7402q8670
127018E7500r1798o4905k7848p684l299M183J6514J9731J4708J6805K3269J1339k1858m5807l9702k5340l4714o1711
127000b60617p1830n1297k0961k910L632Q726J3755J6590K1162K9969L4520K5268Q773M062J8907L7912M1215L1139
126982a11985L0154M9721P0564O3240K5109j3245k0079O219M0307N7464N3114L8324K1994O74l2023o7096p9111n1257
126964H2088J861M5526N7630M0692M089m7290r8165j13949o9313J3895P4953P0395J6114l2095l4360K730M4070O0799
126946A19670M6301J2633j7629k3379l286J7960J3234j5456m0063m3912m2655n9224q8321r9165p1528j9456K2526
126929b91750L3528K6349L2007O1054Q6038P4308L4035Q141J9960M7586O0233N4179L5661m744p0107j25772j25910
126912d5204o9058O92M6623O7208P2479O2767L9308J3485m579j3456j5263j7454l4696o7636q5144n5619M915M6529
126894e4103M9290L9853L8415K8243m603l7104m1280k4214j0284n540n588j7933m6335o7214n1882n830L8175O0192
126876a17742O5824O5341O0343M7467K1272j9597n8039o5055l6981j0407j8664m7213n5732l2228Q90K4041L4414
126859a42066K8437J450l2433m5344k6932N322K7789K9029J1861n262M874M9592R8095J10381P9540K9492j7068m6708
126841A60049m7790k7080k1214n2923q4484o0400N315L7448N817l1631j7208K5894M0253K0858N791O316r40k1718
126823e7647l2405k2046n984Q021L1016N9785O5571L3794r340k9973k9005l0568m0572m0636k0865L577J5692K0833
126805h0752L4351N2071M9473J4819k8281m2751j9133J5899L2700K8814K0087J1881o709l9437o6365o1275k3338
126788a07946J8449L6568L3292L0476L8029M5741M3611L2733J2836k0646n6734o6162l6978K157J5030J139j6953
126771D642l4040n6649o7368l9315Q718J7501l2221q3739p8194l2160m380q849o373K6217O3950P6764O7495N3641
126753a24360M0194K7024K0741K1105J3057q759k1183j29M0037N7414L4726K417K124L8284P4317P1120K2768m2172
126735B68725q7968r9555q6180o1201k5651K1673O4265P4995M8198R936j3733k4655l4284l3828r954J7084O925m0894
126717f102p3353n0171J604K4423K713l0088m4153m0685l0486j5921J98J0438J4175J7892K2897K8098M1554O8196
126699e8771Q7790P0527J8771l0700n2416n6476n9265n5395l4079l412J8859K5896K0752P957l203j044J1975J8065
126681g4169Q343o173j5004k1406k6010j8672R0J1728J0582J9496N2162Q1184P2436L5915J0345N922l820l3160n8248
126662E1541m9262q222L3853M4870J3636m3096r1704j08101r4045o4360k8534M940K0252J1050j648J0053M4815P5181
126644a78781Q3704P5878N9233L2495P2k2253k4004j0812L845P185r537m0425n9943m7690j9035j0989l3011n1047
126626b45115k8621L0847Q9853J12092Q6781L1993j7636l5787k3810j678J6775K9266L2077K0550J800j2490k7378
126609E9519n7955r7627j15597r4349m9520l529L9000P6661R3654P7150M0769J3149R217K2502L6363L4040R862k0126
126591G3183l1690k4680k3987l7556l7137k240L8465M0991R074j1356J611K0274J5356j595j911J5068K3210P903
126573G2983j5963k5539j7493p765p346n701J4973N0359P0708N4380J5971j0160q446P813J9198J8153P204m523l510
126554B25296J2532K0585o128n6258q0398m6400J9908O4045O1324L0837J708j4557k1689k7752l8532m8613l9963m429
126536E1516L3536L7055M730k3010j7244O66n878l1351l5935o278K4090K4065O543K288J3542J9440J6174K2027M1514
126517A77490N1930L7411J6962K0426M4991N3435J7428m7725r6175r6329o0639l1469l7645o6994q4197p1723m4116
126500b16939k2189o157J6650M5855O3297N4670K7065K051m294O225J6636Q514k2290n9932p9294o4550j9470L6443
126482b17709P8496Q7091N7156M151m1358n3120k9689M252K0918J5352N785P866J6030J6712J2659J9903M0312N2981
126464I7788M1031J4200p935k5286n0975p7859p3645k0889N0925Q8982P0684K2973j1160j4253J405J9686L6771N1269
126446B13712N2506L1468j12j5953o158P736k832m0787q4290j12861j18290r4486l7886L5007Q8073R6597O8409K5656
126428A05509j9900n9256p0029l5139K5303O7230P3017O6472O9958P0255M3239n234m3895n1874l2444L73K9738L6450
126410B69773J2655k4340m8242n3336n2188m7153k6770O438K9019K8879K4244L4284M6942L6734N640j5814q151J4024
126392B32638K2969R109j5246l5084m6420n1560m8008k9763j913J4243K304k4091l1224n745K7244L5621J8928K736
126374G6738J934N906p08j7635l3472l9567l3406j5836P820K7978L9012M5802N5352O1569M7444R466k7319l3151
126356A77927j2611k697k4167n2905n5517l6877k7317l3437l3758k1192j3941j6310m882K7656M7038K3562j9135
126339g8563l2074l505L5001N4325N1548L4705J1380q248j7872k2713k5334j3610J7184M2746L7284J3411M159J1638
126321A11462Q039j3687k7567j9773j1003k0414l6266l7598k1422M515L3280N1394M3638J7787J401J657n591l1712
126303D8140m8952l1132L565J7718N085j0513j2561k186J7228L9688M8662L3328P338q356j3237j8122j9591q446M939
126284E2595J905j1705j2440J214M780j2309l0153l0710k2111j7703j1593P825L3635M6967M1299K7320J7148J3169
126266I9133J0495L849p461j8549k3715k1394j2429K121J5824J6262O03j3382o625J3849K4546K1709K4962L8847
126248A68645L6801J329l9928m3554n672L6192N0250L4197l623n3631q7959o7980O977P9541R0875M6740K289r707
126230B41782n907j0883k1802k2986q890J8214M9322N7936J7364n4139r5650p6584l9579l7461n3744l2560K7228
126213d8339O3738M1681j900j8703j1155p468j1259r237n000j1968k5790l0754k4731j6186n443J1725L0486M4656
126195c5647N9008P6326Q1208N6133R272k9627l9083k2005K257J4267J1052J1170L0828N2644M0331q035m9509n4181
126177B06409m2867m3572m2797j6534J5950J4840j6871l7651k9503j3532n566J205O910M95q367N978L7231M4010
126159G5768J0674k6478l3780k4688k4640k5140n448K5287M2556M5775M9368M7688K3847j2620l1237k4775j7345
126142I4812k2270k0241P182M3542N5202L1944n794l3831m3264l5090j2354J5939L3733L1267J5817J465p858j6153
126124A34048k1704k0362j9866l1336m4009l1896N411L3873L2875K5129L3846L6791J925m8482n7396j5330K2925
126107C6442J3552k4347m6824l9509j5154J2413L0122K6144Q593K642J3430J6625J808n397J1642K3894j691m6788
126089A7597o4550m2203n042K9129O0683P9683O7160K8858n218k1295l4059n2711o2330m8397j7798J2966L1443K6244
126071A60p251n0126o9479n4724k7627r514K426J8594L7921N6425P4618Q3538O4596K1023r683J983L5830M6279J9554
126052B34543j7561m0293n0288n5933n4018m0573k1599k260K0612M5357N7876M9545L3107K7192L1301K9840J7423
126035B64271N637L242K256j0976l8386o8297q4998p6454l9404J5096O2288P6836N0586p6m4389n8230m0458j0213
126017H331J2072J8795J1193q519l2234m1768k5936m11O645q086j7522k339K3224L4600K9025J9595J2604R172J5645
125998F4086K9423K5654j2867n6183n0288J2280P2975P3617K1692k8102m1159l0252k3849l0540l9034l8042k6282
125981g6871q150J1730K8110L4799K9514J6443j364k7253n7189o4931k3471N1152J00573Q6372L4306k506n863O731
125963A32132K3255M2083M6527J7174k9249n2674m6895m5097n9594n8434k0577K4489L8257K2307j469k9671o3287
125946f0723p8169m7177J8300P7397J02301R1250N4347J0606j5252j8384k3487m6136o2368m5243j2978l844j6022
125929g5582j4009R701K2645P357j1594r332K438j286k0871l5035k8659n523J7831K5307J6550R386J7760L1977L3941
125910f998K4656J8197J5174N080q962j2293m980k068p310r926p482p707p792J831J3220J0005J912J6438N0018O3851
125890A44864M1029J2533Q342J5940R705q601k4040l5546m1372k3989J8009M5627K3957k4868n0763m5317m1490n0057
125872b6037m2469n457K8020K2353j3753m4254n0256l8545k1378q033p627k0678k9810j4174K4363N9432O8028N3909
125854f6366L8880L4342K8692O550k4433l6844j7700J0855J6657j478j2976K568K8847L7637K6932J7293J5973O669
125836A12098j9437m2895m2521k9645l3751n8119p3309n7969k4292L866J5289L602l6762q4452q6918j8350P1033
125819d02532J03022O6278K4493K6201M8680M8296K6901J6599K3658K4133N660j7194k8258k7216j9791p951O346
125802h2675J9001K8351L5749M2171M7706N0195M1880J6294j6845l4472k5882o424J540q382k8264m6775n0295k8497
125784d5624R384L7739M5157M5158M4588K5074k1091n8658m7007J015L2506K3033j331j0565n815k091o844k5616
125766C9012o0890r3192q9721m7293l929Q234n2k056L895M015K054J4836M2364O5442O8838M9723J1870k8658m1991
125747e7499j4173K6476L9123K3572J4048J9958J0895k5942n1818k9724J6272L3587J7616J1761L2783M2257R510
125730A18702l4509l7046L576L7353K7970q718l1876j9869J6432M8204N2075K9859O189k202q839l3529o2644n9121
125712D2007j5671K8377L5765J4786k409n445o839j0170l810J5098L2523L7842L6682L7580L6457K1054j3560n6855
125694B23412q8180r1086o5228k4056J6955M4223M4054J4515j7251j1446L6223Q0132P7038L8328Q089K212j842k0851
125676B65241m3934n8442o8018p4398o5753l7282n077J3777J9804J9031R107q467j7844q254O136K776j9345m1178
125658a12120m9430m6234l6944k3186q153L039J0013J6335K1996K3387K0371J7893K0975L0736M1739M1127J8788
125641i668j5482l4292k3014q91J343j9516l7589l4308j9486j1133r535k851J0139J6096M981j7611l7485m4518l5959
125622c20779j4002J3170L0646K5846J834k3025l1955k2894l601J8073L3562L2759J5532j539l041N148Q625J2117
125604b23524L2206O1744O8896M2999J6562K2264M7154N2815K7331q183l5788n6123o9843o9363n3193k9944n826
125587a79816J5974K5835J7824Q064J9698M7863O4139N8861N0633M6410K4934k2090o2194o1991l2872r171N40Q633
125569B1274J0131j1703m5277n5291l4944j9896l5784n9296n1500j0911K8418M0969L1896J9307J2011P827L602R16
125551a48251L239R738J4989J6648J8515K0485J1749j5193m7401o1469m9601k3332O696L8290O4817P3891O4380M7818
125533D6008K7985j476l1776l4866m65M1909N7098M5052K8021J3230o049k3379k3001q494n97m874o444j023o324
125514A10535l2687o2592p1834n6420k8066K438K5064K6329J713l1549m5915k8769P327L6776M1430K4197M721j881
125496g9183n07m684j4745j9085j3394k343J6280M7539P5027O5741J4867l3989l5686p36J6218j7083p2691r3148
125478a51602n0229K6425P3190N0147j7408o1562m3578O394L1206J4393j2278j7749k235J8594L2573K8337j207l9483
125460a16072m9480j3513M1799P5043P5058O1968N2511M3699K8945J1620k971j6205k9516l7491l5012k6402k0898
125443D3083k1046k0271j0981P657K8421L9974L4488J5230m298j2289r753o711p217k294J9072N2682P6167O6488
125425B88402K2452l1470o7112p8152p8774p6999o0904k0740K4274L9153J4307k2346m0129l8496l6405m1534m3702
125408b48175l2409q664J7470L2740K8807J2058o83k467k279l307Q280L6592N4826L7191K247o480J9284M4313M5556
125389C4900M1405N1434N8514L5236j2292n2012o6193o3672n9000n5601m5070j4529L5742P5452O2776n624p7989
125372e6523r7824n9559j016M2026N4559L4324n605l4018k8506l479Q659j399j7560k6933k4351K350N6500J02646
125354e5709R0400K0132m5967n4330j7036J6930K2479R416p259k0942k5088j3916Q529L2273N1613O2902N9373L9668
125336A73468J5680K84q249j8502k7072k0975Q39J9480J3413k1224o7713j00401r9644o3419r639L5476N6728N9854
125318f1616O0653O3061N2335J6424k8236m5026j7165L0652N9410N5239L1226J752k6097m2271l8555k5702k4692
125301F1392l5740l5995j5567M894N094n339n684K301J473p950o049J4900L4155K5145j4171n7270p0818m1969R235
125282a37963M6140M9991L4930K3241J5709J735r171P112M6083O3813L0105k4848m4788k1330k265k1702n4287n7299
125264e4794l2158j4441j7269j9558r378n127k2242m3599l9178j243M9984Q2997P3713K8010p791J5103Q5022J30547
125246A98598J04027L9013j501q233j9855n2452q0552q5442p9062p2357n6406k7741k917N952O809P729L625o469
125228a27234j0241j396J0733J9560K9415L7206K8595M246j1020Q71K8231M8551N2975M2348J8716p654k1855k5446
125210A16601l3981m4972l4883j761J9248N652j4167j866L2549M6351K4884n778k0634k0657j6980j4437j2337n229
125192A7603J4497M1044N0569K9325k680j5748r806p229j2765o617K0364M6145L9746o003o5247r6355p5000k0229
125174e8386K0018J9318j484r239k924n140k3516m3119m8428l2774L892M5805O1746L9074P097Q19J2193P345j7370
125155b5073l2904k8593k7331m2864n5842m5255j7409R456K9024M4363N7067O5120N9740K8199k2541n4614l9427j166
125137a00050J4648R693K4568O0429O4230J2260m3665m7791j5487M413O729K0088M4338N2202M3710M6557N9970M5968
125119C02810j0645p2129r5669q1704n5920k9446j950J2725o483n5521r8607r9614n3580J2550O3482Q0233O9052
125102a20416N0383L8273K9856J4900p863k8671l9822m3172m0302k3122J4256N6956P7907O9302N0853L8758K3136
125085A61212p971l7338l6054o472J8021J6975L132m016l25J4135M1713O7814N7828l345p9757j13209q1564j7217
125067f438K7913K7467k579k3282j2714J0962J4621l932j4780m896k118l3040p8361r4902o9293k5336J3553M3515
125049b33640O4865P2764O8302O1821N9395N5594M0570P324m2237q8446j00888p1135l1193j9413l3066l7261j7968
125032b44612J411Q65o989k089J1098J5553J0751J0706K1871L9708O0384P9116Q1618N6112J5802p169J921K0260
125014A66317J3134k4548o0351n8302j6426L1231M8380L0464M287m239L239O815p56m043R594K4896J3086k9227o9252
124995H4299p3050m2586r184L547k65l027K720O805p659m4322q0279p9941l3368K4677M9527L8523K9820M7499P0233
124976a6031O6148L9084J9729K1084K5396J4479o883k4194l5424m8113n9779n3825j9786K8223O1983O9035O3623
124959A44749O3059O3135M8202J8277j0364k9409m5712o2468p1020o6835n7061m4988k3229Q483L4492M3155M1018
124942E3484L5755K0537r911m1714n7114n6346m8286l1464k592K7151M5058N6483O8985O6245K6966l1547n9126l1277
124924C1287K0930N0829M7997L7055L8661M7422M4261J9900j4963m0654m9942n4643o5501p2098n5913k1779m06j2912
124906e0469m2629n0227j4503M4686Q2880P2121K8716l035K681K9526M4781L5944J1695j9347n1193o9516o1411l7543
124888d6843k5089l3325m0993k3776J6588N5078O7103M7564J4043q483j1597q793j2420j6259j2151j0496k4947m6007
124870a20803n1373l5494p102L2729Q1211J10359R0034L6543J569N042J5651R273N987K6675N0337M7031K5253J0798
124852C33720o03l0808p1116q5435o0776k3232k39P904J4131K3509L2957L7680L2876J8375K058r061j7404k6319
124834A78217l0691k7251k5398l3092l9684k9718q087N778M203n783k1748m7537p5117q3995o4263k7394Q950L5429
124816b87181M9003M9113M0271L0207K1678J0087j0658m1149p0458p7527n1006j0119J2231J3739K6210O2176Q8223
124799a45160P6676N3057N2900N6892K1713l7788n8821k6602J522j3913l8260k7739Q86Q786L203J6512M3226M9849
124781C6939L3687K2765K3043J2518j0533j7947n33J1644n254l2483l6766j3850J3422K5674K0940Q818J481K272j601
124762I4236k3290n0487n3130k4711K974K76k0746k5443m927J5096J0386j5551m3410o1177o9027p0196o3635m3220
124744d45982m221M4274P5579O5896K3447j3608j8163m929o275k3224k3292O902L1435R072m6594p8527n4777J423
124726d61564N2012Q4252R8489Q5498M1394j2008m6922n9471n9009m1232O9M2934N1933K5497M82L501K2522L4361
124708a37262L5281L1124J7752j1363m8964p7487q1732n5560r480K6642K7909P152K150K2377L3369Q466k9453m0503
124690b79582k1582m67R219J6868K5428K3788J2277J2382M1590Q9588J23872J14910O1032m599m0649m0173l4744
124673A09158m6511n5588l5109J030J6386O862K464J6522K7248J4813j2973l9447n6861n7769l5203j565J6975J5379
124655a14189J5391K6810L0667J5833M099J5612L1759K0193j6762m4793m1753j7901L426Q454N92k011J7139M8632
124637A198O0098L4823n972l2889m3474m8677m2354j2918K4463L8937K6375J3430J7225K6309K5851J7168M768j2973
124619I1388l0186l1795j8660j5448l6384n7775m5170k25L9694M7043L0881J4853N500o188k1251k6094j0474J8287
124601e2004M3216N2943M5416K5671P883J0200L3569N0923L4476p527l9503m4841m2024m9130n7095n2320m3381m3934
124583a27462m5690l2405r344N827J3572K7750M3816L8899P986k2165k3460L893L7129N3583M4232J7351o416j1270
124565A5826q21R757J1747M870j0326k8145l3590k0265p197j8113m6530o1236m5313j0670K4039M8177N2590L3095
124547h2105M985p460o53R081J7309L6862O5293P4411M6100j982l9230n2567m4982k5124j0543j9506m3782m8310
124529a22203j4737L1326N2973M6312L4547L1503K9672J6525j0847l9929m5078j0515M1019O1837L3315j3656m4683
124512G7381o2675q2310r0195o3236j2295K5375L2130K2466J4453J2294J3463J1982j887k7576m6765m6906m0565
124495b64866m0798l2356L373M5433N0077R336l7600n2660l1135J2717O0413Q5925P0082K8606R6k018j64r707j6846
124476a22092j2044j3078l2154m5045k0998L0428O6789O0170J9759k5097m8093l8846q482J9944L5404M7441O4452
124459b1542P5810O8079M7739L0293J2715k3629q0056j25594j23867p1287l766L5067L2132J0559k399o077j7576
124442a63399l8910m9031l1100O509M2692O5498P4449P1692O0878M8676L8818K7572J0069j2169l2316m2068l3922
124425D3938p607K3588M0808L7109K1081L248j2269k2480k3447j7010j1017j0576j5891k6294l6503l3893j4233M885
124407e6563N678L35J3440L5712K9195j2229m3006k7295R464J7506j1126m2770n1350l6717n939L1321N3183M0396
124389e0765K763k9297l7764k4858L165L6507N3004L6504L755j1215P21K0376L5236M7835M8536J5911m2581q1578
124371B6255p0887l5547k0710l3032m0898k3311N977K3395K5909K9209M3501N8184N2857K3307r177k0861j2962n393
124353A5816o993o952L556J6420J7430J046k6366m5882l2219J8992O9495O9294J7791k9970l0876l727O944n180p969
124334D0650J6787M8647N5768K8199j6375m7333m3987j4765J0181J3274P295J0308J7717J5084L747p891k6080n7858
124316E3368q3255p1882k8206P358P332j6450l9164n0430m8584l3081j4069p238o933J3148N7371Q9035P6235M0599
124298e4846L4253P4324J22337J28071P8885O240m4745n2716l5076k4193k7664k3846j023J8664J0245j5457k6945
124281A66508j6637p074j6395l8666n6993n7510l3619L508K2152J848l2422l4198K950L5336K7928n842l5545n3837
124263a28508o2971m9534o049L9140M9837L3385K9328M7049N0760J7044k5302l4500j3014O64j2359k9276k0335J2942
124245a01699M2038M5019K8615J8397K9794N0464N4251L2079J788j5915k1987l0316m1871m2552k6269m649J2101
124228B9288L0671N9794Q8448R2967O4750K0000j9312m5063o1734p4340q2799q4042p5790o0023m2424k5092j936
124211a86637L1968O7792Q8633Q7797P2229M9210K3437P427J3854K8954J5683l8317r2960r9333n9292j6052N656
124194D9J8584L3626L6631J5728j5967m0779n8294p1455p1118n2681l1207k0036q272J8990M8950N3342K8142l96q856
124175a25019J476J6133K5064K6361K4057K3917K4063J3152j3220l9474m4828k6611J654K8667M8582N3896M2962
124158H0832K9883K8481K9308J2503j7742l3231j9801M248J3458K697j4934k2234p378K4062M5144L4979J0676P476
124140B08427K4467K2255j4173m5995l7666j1933j3893m3628o4712o5104o4814o6599m5487K925M4602N5422N3272
124123f2634N9749O0813L5746J582p949M378M266j8963l8257l4666k2882j7476m987K6995N6072M9704J2080k1232
124105H2339k9442k0868n007J8919M0832L8066R103j5931j6673j2533k8744n1788m9104k1997m083p583n863K0354
124087f0003N0021N3960L7333K5640K2140O184k8956o1013o7775n4131m0549l5517l0638j7424K730K4580M3686N1456
124069g8276L6502J249k9371l0468q272O253j819j3800r618K84o454k5782l1681j5911P56J912PJ6869N2471Q3614
124049e1535Q7355N9905J8027j4330k5043k0839j3306m598M831M113j5591m1875n3590m9497m3281l2769k093M1934
124031a52182O6321N7050L9718L8102L8344J6889j8023l9690m1966l8036l1720j6372N998K9255N8548R4685J10711
124014B17632P5736L216n3756o1489l6260j1422j32k41j0378k3623k2697k8K7663L9349L5794L2354L3494K8783J0662
123995B84657j6486m3473o1882o2883m1380n308K5843L6972K9733J6941P552P04p581j7675k7678l5686l7298k7265
123977A7807j0357m032j8676l9015l9966k0573m555l365J200K6433N7924O5833M1321K399k7226l2258j1068J6570
123959A8396J8141j5149m9035m4660r608J3239L693j5974k1103j6849k0204l1598l8181l1588j1870J5237L7056M1199
123941a58858L1388K6087L5330M8662N0548L7346J5532m301q575Q172K6375J2901l8140q9390r9696p0047l5524j8968
123923b31158r977J0826M1864O1603N3749K6461N673Q640K5883L3735K3410R502Q216J6495J8520O590j1065k0654
123905G8313j6565n761K90j423l691l297r858l0589n1845n1647l1111j6795k5358m0379l5357j0271Q324J795j6875
123886b62100j8698N473L2314L5310K1501K3255N0120P0105N4958K4597J9797M2604N6292M0083Q984k1916n4048
123869A28631p6363o0597p947L3790K8642J2j1469j0655k6889m8874l1814K9099P8235O8064J5457k7721l4148j2240
123851C3213J9352M2529L7352l178n4392p5989n4449j8019k218r423j2374P953M1336O4697O4752L9282p277n5467
123833E7680p1730l9718J4071M7205N0918M9818N4357M4472P879l6431o8219r1017j07115r5134m0862K9135P4500
123816a20191Q6945Q1348N8137J0905l8338n2458k9504m715K002N841J6378J3664j5844m8127n0984k6217l59J3141
123798i8376K0606K6592K7569K4340K2156J7104k023l2660n0329l2428J1141M0030K2682k8982p1388p4749m6475r577
123780b34767K3925M8448N3518L8223K4972L3925M9868M0424N030k2640k5054k4425m3708o8535o6998l2726R280
123763a91240L2425L1936K3212K3473L1348K6021l761l5186l4746m527J9353J8008J1762K0775L2642K7468J0235l954
123745C5244j5521k6784k2089R606M6270N6534M2327K9142K2753P629j5965k7964k4578k5814l8727m2965k6186p911
123727b4999r999k2603j9129O191L2597L8859K3181R27j0497p538k643n643q249m51M256j5871m9514n5614j9243
123708a45982K3545L4320J9958Q140m55k1896m6323m4277j3151J6909K6082K2252J0510k0342o6036r1199o8873j7676
123690c74494K1450L2547L0425L1924M2415O2447Q5946R4129O9887J9980k9478n8345o1875m0309K258M5816N8365
123673C3088K3562l9141q6557q5297l9422R658J7947j6426m8361l5687J3188N4244O1518M5801K5446N367j0826j3592
123655h5490m587j040r525j3075K18J2719K213j9902j9389J4409N3596O5937M7686J7265r739k9074l8563l3025j2839
123636f2205P782J0546m975j6692o164J5836K2205M510j9983l4803l9009l3594j5264Q286J8907J6088K3436N0888
123618e4205P0975N4866J6052p020j670R896N656j4731l9347n5129n3202l8881k9175k5993o967L6138O8795N5516
123600h426J5963K59J6029K4310Q466j094J6145L4342K5375L938J105J8646L4520L3273J1002k8369o3221o4540l6099
123581D1624j8840l2756m2875j2679L6298N6757M6669M3670N8890O1482K9951j9617o1262q2204p4061l4399J4385
123564A1033L7393K9094J7771K0617K2467R800m110n884p546k2382l6038k8006q365n523k2530l0511p929L1970N7655
123545E8976N1660K3103l572r985k57K912j6843m9742p0470o6884n0831l9851l4899k0824J2654N3465P2886N1432K81
123526c6789m4959n3846k5373J4523L5930K7182J055j8435j9243j3215k1022m4721o2759n6338l2685j2644M88K5491
123508c37360P1558J13529J12759O3267N282j5377M171K5823J8533r499l1730m1073m9363n4968l5637J5146O2242
123491h2697O1624J5802k4707k1213J0479K9427K4298J5894J4213L986k0827l7081k5036J24J1869J1515J7555K7873
123473C3098K4753J2876J6052L0905K0996k6103o8100n9807j2872K3784K6652J2241R47k084O816L2704O4907P7918
123455B15683N7545J5210k4328l8800j7997K4493N2350M0520R127J890K6316L8607K90o8733j11397r8333n4744k5008
123437D2691k5414l7799m1641l8591l8421l1672J718N2699P6871M6849o989l2916k2104o808l696K739J8139K1089
123419b3256L967n684R033J6519j9968p7966r3743m2989K9060O4452N2644K2395l661k5136m3660m8574k8625J2088
123401b03104N6226Q6039Q9400O0741Q770l7680m7282j7920J9600L7330L8087L8423L9397L2007J8648O034j4083
123384B10633n0434q4694q9412p2027o5801p1610m8290K1475R1380J05370O5799J9029o401j5750j6814p141R469
123367e219J9585J5548j8k0079l1568k0519M136P081k9219o9405o2166m875N6538Q5905Q4438O3489K5714j8018m2603
123348E8745l4304m720K7947N3201O0016L8047k737l3452l8308k9356k2327j7384j3336k0200m1702n9873n2235j5627
123330a47605L5157P9773R6842P4428K9151p28L696K0281J8070l609k4216l5186m2312m4775l5900k2098j8897k5657
123312d3585k2175M075M0040O1342N5302K7151p183k9863k9449o645K7581N8477P1942N9250K4508j4835m1236n0633
123294A84064m9984m4826l4439j7313L598K1538L0497K9785K3285J2910k194j5597j2880N810J2499j5787n4938n5190
123276B0838r922L0975L1544J7641K7014M5070L2612m303k2958j5293j8440m7515o7482n1692k6474k8142m6178m2344
123258a75049p703L0007M4882L2804J347l5950n9226n6460l6124j2036J6572N3087Q0947P6493M2872J0647K567J3815
123240B3492K7311L1572K2076K009j4473j3767k35J1352J9596L3796M6197L1970j2108n1812n6639l9399l2778l9236
123222a1076l1923k302K1501J2309k0873m7895n3449m3698k6092P79L7932P8894J14403J36073J33768R8852L6701
123205D33904k9099p3001q7953q5383p6774o2667m1796k2534j6353k1391k1280m480J9866L1020K1018M687K381J5234
123187a4601K2995Q351k1527m3804m8122m5615m6045l8060o492L5579N2113K8772m375j0306N191K630l3468o9729
123169b26513o7408l1602K153J9097L7528O8892R0973P6060L1630o219j6839j6476l1980o3890q4308o9896l1435n488
123151c25721j4214l8118l7890k631L7437N1657M6058M5643N3729N1937L4962J8813J0662m488l5698o4063o3724
123134b35649l2720Q442L7062L8179J0867k1280k2453J3203M4330K8995k0664n3372m1828o216K2248L4340L5483
123117a61033K9733K1028J4721J0626N822M457R715Q446j4710m7286n7833l9319j7881j0963n408J0271K2300K0635
123099a96679K3187M3488N7216L3725j4352m6126m6436l1970j2809J3787L3030J7986k3103m1137q310M0522N1979
123082a06002K1111j0591j2765M550J8190K4962L6226N1391N3267L2981P758O85O497l589l7252o2250m8339j0342
123064c3512J4218J7144J9771K9199L0047K1563K5175M2907M3447J0825k2823k1533n10l908l9371o8003n8344k2464
123046a6172O485J1227k214j7645k0385n720J6515K9458K3666K096k5556m6964m9539k9531p62J3429K052k0834k7618
123027a58012m448L0462L9877O554m2737o1699l2093K2727O7420Q1506O0719J7562j4418n384K8495L5119k609l5118
123009C3923j3838L6147N1172K0007o987L035K3694J7249j4322m3477n2913l9435o074L1245M7635L6113J6380O465
122991A46019L142Q2L567J5324J9940O825j2920k8209m6686p1160p7566m5374K102J8086j0312m9906o4166m5797r887
122972b46896K0977K4617l623l7319m2543j8024Q037K2409M2181P7803J07815J08412Q8306P2088O1245L5323j2021
122955C08787n8924q0092p1530m7196k2020l211R024J7748K3948K3455J2304m416j4261j1285m535o876j5914j3672
122937D1334R241L5164L6316R606j9284l1405l7540n2325o1292l9348L066K2984K313k4625j8527J0204J8060j1197
122919a07255m7457n3308k1300K8354O7558P2934L7151j9821n9202n4213j2777L0967M4725K1544j4560k6718J01
122902a13277M0373N3837L0662j437j6444j8595k3759k9988k2930m95K4785M2342M7672L5024L150l2505m9932m6136
122884g7653l9511m3163m7685l5631l580L4996O1247O2349M0316J3469J416M732O474n006k4747m4200o1127o9757
122866b27061n6335j8495K0460L3027K0104Q008J3989K8578L4806L1438K8048K4335P254k7271n7764n3948j3197
122849b04024L0045M1402K5853J5519K3732L3356L2790L6018N1989N7958K8500k2797n7263n9297m5078k8201n686
122832d5184J9317K8969J5192p702k4172l3577l7327k9603j2085m48l291r459q066n175p051l545J4204L3689L8724
122813g6590L6122M2839N4276M8557J9608j5089l8921m8382m0933j2359K8079N7633O3281N2884L9453K7767K0180
122796B58405J9620J9529N863k0878l8700l1484j3255j1028k8967m3482l3999q582M172j4389n1166p0763n1822j3904
122778a24830J402j9541m2290k4470L0862P5290O8147J8992k5843l1975p467J2908Q982m251k84K0628K9660Q763
122760e317k2469l1317j4168K353J44q516l932J0493J3318m837k8660l7148k7193j3644r891j4344j6392j0187J034
122741b20673J0427J2046L068j0372j1260J2673M7736O0728L5369o058k7165j6535P732K4229K4169O779k2139m5588
122723a14834m6277k6996o463Q340K8723N6403O7936M2509o542m4301n1670l6511j4496M758J5169J3987O815L444
122705a00006Q216K0636L9609N6773N3785K3591r806j3700R820K3836N576k5799m0611l7082l1410k5766q443K1514
122687b9267N0676O9976P9464P5658N2697J9513j503j718P4j7688m7827n9592l5916K459J5942j0867m9541n7004
122669E5536k3692J6275K7029J2134K588J2186K3799K0697J1582J4016K7139L6010L5420L2810K9058J3127j8561
122652C27153n0526o5634o5616o2928n8564m3254j9501m225l300r80J2631J9753R34k8300l3992j4205l323k0280
122634a14157m2408m4149l2632k2729l422L8715Q0050Q2103M7683J8370J4375J2248q773l2208l4431k3108k1675
122617h6148l0789k8473l322K9257M4070L2392J2593J3466L9162N6364L4004q387k0045R154K9898K703m6959o9742
122599I198o0246m7218l6607r891K6640L7035R614k0692j9325O103K6503K9673K0505L125j6384k3555j2510j108
122581g9140j0456l3770m2448k2003J2360L7087M4315M0077K8910J0686q739j4277J864K2825J9268j4171m5575m2028
122563i5215j2034N488q384l3240m2489l3499j5221J2396M7896P1426O1206K3169j3943l2042l6955l8933l6388k3312
122545b00074J02K9427N8014P2724O0087K6006m94L576K5685K9943m63m3871o6633n9076l7615j9135n936N131J2694
122526a09908J6911K6037M6016O6825O9769M9396J9790l193j8081l2091m6724n6942o0807o0691n4402l4403j296
122509a83794K7884L4160J9273N519R564K3342K6302J0009j7418m4506o1079n3909j6619L2036N7951M9923L3292
122492d8070L3519M1903L5377J6780J0063K0649K7462J7004O50r504j9309l4581m3586l4103j5102m461l169K742
122474e736J9640L8919M8549M0998J4866j8484l3942j4037K6232M7912K6506k4220o8491q1824o5951l7788j0669
122457i7520J2416L0315L5648K2918K446o347k33J952j1651k3331q772K4808M3684L0277R39k2777m0377n8780o9483
122438a33868n7673k7108Q15J1692R171K221n413j0258n709Q990K3045K4559J3597Q2p627o615M809K6771N1513O3575
122418a3431N1729K0454j2883l3139l9148l9526l7727k5948R22K8495L1778O394j9140j3769J8742M5991M7854L5244
122400E2892K6277K2057J5695R929J0372J0294j411k1088l4437l8364m3509n2549n0280k3418J7237M3189L6604R261
122382a1249p713O139M1439P2001Q3218P8496O0626K5504j9065m8783n2726n0123n7061n4630k0047K3845K9824m635
122364I5060l1948k7120k1796m2610n6448j8052N1520Q1664M4197j1892k6599K001L1863L8331L6486M6374N7733
122347B48764M2474l222m5998n3773l5136k2554k3213j3426J4777L2693J7557j0357j8862j2567j9761m3027n7375
122330c006n4542n4550o6646o8829m0602N092L8261M6666M1608L8653M2219M2220K1329k4322o8317p2570l1379J6737
122312a91978L2866K1231J3623K0428J9670l697k8989k3839J3023M8226N1955K7247j236j5111j0664R529L7141N3031
122294G2456L9158J434l1167l6842k1768o738l711j0902j9676j9110m668J0115L071k6106m7928l8266r221R879J1229
122275a28761J0265J6279K1159J6604P581O638K1290M3191M6913J2964l9998o4079l7850N197K2401J5607J3504K0389
122257I294J7771M305m661j1563l1143n1806m2819m001L1047M6664N8024O3835L5089k6933o8065n1120j1634m220
122239d1936k2431j7262K2807N8029N8760L7567J5517o482k9962m0752k7364k930P121n714k5380l1255k0964j2121
122221h4752k1124m1765m9101k5229K1689O2219O7073L2761n253K350O1870J15503J02939L6431j7892k9233l0513
122204A97973n2153p5933p6680o6064o2302n1896j9191J4299J9743P379L524K445j4672k8776j4O8004J23577J27119
122186A16382Q2113J2351n2969p6993m3080J1441K9476O202j2174l109N888m861j2678K390K0826J9078N790m967
122168A01106k2975n2942o6211l7842R425L3893L1833TM5629N9565O6651P1757O7159L6899j0214m1854m5212m3662
122150B34838n8513p4861o1952j4928L9637P3443P7686N7264J9314k5381n8764o6670n5125m4783m3590l5851r068
122133d7304J8984J8669j0058l5875l7913k7718k2649j9604r610L2k026q185j627J7022L1901L7754M3829M9940L8691
122114C4253K259l6181m3533j6225J5755K7374K7791M0025O1340O4066L6243j194k7945n3088r0531j22744j16510
122097a98845o7982o442M2945P4655Q4852O8730L9809K3463K4265K4964K1892L0622M9329N1886L2035J8080K2237
122080C36495J2153l5808q7298r3770o2320l8651l6126k7832l166J3971Q239n453j2860j9406k7210k3653o136Q962
122062i9869J6549L5745P3619R8896P6998J8757k9528l9464k4560j2306r833l260J7650M1702M4567J5264k8042n4175
122044A38710n1187l5802k8750k9005j9614N195K8305K8621O709j5457k1111j7130j9674k9067l2062k5330j8957
122027a35606j4358J006K7912M3828L2353Q417l601l570o807j2392m533J8589L9775M6091L8690K0915m651k8113
122009F3945l9077m0534l8757k3993J5478O1234P4167M3197J264j6693j1168l369l490q346j5887k7190m1711n8224
121991f9154p1465o6148l1233J4839L4409J7719m41J2942M4545N7319M2783K5233K0905J9520Q167r184k3844l7688
121973a0776n5291o9700o6637m1089m506K3666K9342J1148k0263m7230n1691k4088K7682P8685J01835Q6331M3907M63
121955A1788j8861m721K9683O0415P4684P5353O3516L2307j3298m8314n7004n6208o8177q2888p4028m2433j2086
121938a30272J0847L8148O0344N0476J5684J24J7481K4658p538l8675j6395M0510O7608M7354K3488K5601L0520J1163
121920B71126j8366k9448k2845k1443l4158m7408m5632k6467O94K1588K3811L098l3545o8283p8077n0906l068K9495
121902a29834K6852M211j2470j7259j8250j5995p840k898j0413k1061k1840k0359k8285l0351m062L3572L9551J1244
121884b25487k669K5517N9123N3768K3935J5456L3689M1390J9829q105j8437j5518j1583m891P389J4959R425p4j509
121865A6207l70r516k4216k4190j955K4897L6388L5061L7048M2122K7700j9317p3835r0793n4724M55K8898K2351
121847b7789J0638J6152K4373Q516k7245m6196k3054K3870N3721M8521K5743J0072Q975J9383M0780O7199P5902M3546
121829C53107k3535q7434j12266r2846m8423Q58M2529O4973N8237K7345m303j4976n968N367J1476J9374K6915J4508
121811B34938k3386n4745m4580o116J3413r23j4128p58J4483j00l0240m0326l0106k7550l6150l0624m539J6512J6375
121792d8550R103P491K379j0255q831K4074O8059Q2944N3519K036l8190n1212m5198l8285l6791k9690j0286O181L270
121773e8232o046N316L3725M4092K0444j0156j5648K914K3483L0784J9767o150k7453k1765L213J4789M528K47J2318
121754G0170P650l1938o3204l8902J4462K8548r852m6159m0345j1984N481J1446K1717L6745M3530K9485j2380p0633
121736e6163j06129q3411j7111L9467N7142N3913N1268M3602K5658J6508L2114N6832O3736M5804J1455l0069o2071
121719A42545o1609k8484N617J6695J7966K9238L9570K9073Q934M471R270n755l9475n4643l3604p372j2322m1469
121701A8646n9448n0791l0869j4584L574L2166O0534O7858N0957K9153J7289P314j1781k7235j6326J6281L8089L0080
121683A60907O947j1407k5475l9997m5019l3845k2824k9389m1962l5670j0117J2185J9367J8035J0965p082k8997
121666a03378l5040k0428m327k771p319J088K8249O2930Q7258Q6081N5076N439m3182p4819q0778o0777l0361j6381
121648a53440k7491l6271j1290L7515O8627O2294L8187J7694j788k4130l3277j4063K2643N2163O1017M8490J9255
121631A26135j2053k5030j8147j5065l1037m8796m6457l2598k8287k7291o801K5195K7911j5784o6742p1132k0511
121614b86490M5049Q4401R0142P9602O6651M9341K0351j7413m9125o1641n6417m6901m3394m1583k6739Q975N2833
121597a32358P9224P4411M9401K3824M814q899j1787N78J2407j77l3750n6367m9728l1345k4054k5179k0915j0846k7
121578a60773J4387K8816K4967k94j5575N691M1923N1652L2485J5851J2141L015j3205j3144N956J3950l175j9303
121560B5365j3221l850j5579l6591l9466k2332l295Q985J5334J2856M463N495J8366J7737j3737n1297n7919l4305
121542a82991r317O379K2638L4536K3748l521j5868j336J7526K1732K0629K7376L5609L4858K8639K3114J4709J331
121524I9791q875j0251o914L79J7961M1121N0317L6839J5692K343n351j0272k802J6832K2773m571m3387n3872l0573
121505A27180n794k416q563m590N589J926k2769n0531n4214k5996R406J7554n645k8642k7508j7727k4758l9187l1179
121486a87864l814K821l1163p2788p5498l0880L1947P9088Q9107N7304N147k5736j0964K8700N1597M1230J3781j1477
121468d9462k9419m0369m4307m5155m4885l3220J06M1982O2870N1006K3063k572k3499l7850l4114j1459Q373Q811
121450b00100M408J7845M1434M5997K4218R24j562J2526K6826L1899K3910K519k1356l0957k5384k1769k8078l0167
121432a26867j7014j742j233q674n917O696J3965J3496J7827L0291L9360L8658L2928K0119j2088o1816j00752r9720
121414b22483n9022n416L3515M5665L4865J5458K109j618j937j137O154J9578K6521J6313o982l2030n1448n8975
121396b40870m6740j6426J5646L6553N2011P1061Q4692P7477N5033L8517L1215J2725k5550n8170n3545j4048K4898
121379D4479L0768N09m2334o7459n9456k9028o54J4892K7652M2344M0433O878l5313m4532j6233Q393n20k2582k4577
121360a26340j2567j5539l1134k6107Q152L7507L5319J9717K0560L3964L6179K6258K5238L9040M8909L9410J5308
121343A73874j0772k9779l4339k2175l685P590J1937J7571K1472J3680k582j5656k8163n0315p0197n9895j8135K2597
121325g6972M3068O0620Q7475R7001O1146j99m0007m1503k4246l522K2523M7359N0813K7672r82j3780j1785j1152
121307B73529k5336n4775q2108q1446m7380r576J20r919m597K4059M4335L2160N114l863J2712L6539M9431M4714
121289B03713K2055j4800n5798q4910q3648m2418K1000O2751N2736J0740j7626j8474j6694k4743j9406J5381N3421
121272F3280N8161K8771r504m2374o7134p0853m0154R484M0427L2340j058l3103m5432l1200L020L5517M4228K7175k0
121253A571k3578l7215l5008j6522K652M058p818r468R055L1615L9799L2226J4919q025k2967n768M6004R0073P4183
121234A79786k676q2352j08661q2921m8917l6283l7668l7324l8169m9214o1922n6402k6140J6298N3857P3680O8923
121217b76105M9126M3026O8543J00918R5932M8378l2j9106k4736l7962m2357j3373L3541O1506O5272O7887P1579
121200B92037N2711Q550k9192l9348l8663m9277o4170o1964l7493l027K5875L5054J8535q470j8662m398J4628K1916
121182A14642K2513K2601J5244J147l23J9071L6366K8792N593j4570l5917o4960p8233n0930o309P985r214j1233
121164B265K0124M4439K8205k522n832J3856K5595K9376M9014P7635P5876L0427k2009m2734l6218l2272m4406o2927
121146A47892p3648o5398l0635K1655N9022N1262N934l4995l8391j0909J6426K4933K1496K0045K1027J4405k001
121129A48120j6333j8062j2971j5018k5922l2045k2508j728J8054K7649K1471j026k7480l7293k4812q491n229n876
121111c9500P229K7625L3352K5308K8943N0497N9060K9846j5587l5681k2335k381P797K0145M2576N4093K8756k7374
121093B72369p8288r3670p3366l9815j5433p894j0429j2074q436l597k287k430K182J2955K3764K8567K8249K6720
121075D7087K3203J4606L846k849p767j8664k9165j7310K3454O5072P5620N9566M4031L2508M060l9607o2427m4550
121057A70714j4158p038j9353k5516k0972j7225j1488N292K0728J5697J287O559K9837L7007J3763j3390j9157j2782
121039A39805j3849j9375j4484L77J0446N530j3114l6044m9354m5564l4503l1275l2745k2600l50J6343K1700K9421
121021h9635M3068M5697L1169J9062K1322J9528l653l2998m4607m0919l5881k4179L652K9409K4978m002k5017k7919
121003i0925l4847n5636o3766l2474K4264O3956O2007L5039J8900K7976M0139K6813o316k4657j2997M163L072k428
120985a7717J2588L9834M9583L5049J4728k491k2891m1304m0564k0681j405P475J2387J0765j0738m5747o4199n0127
120967a35455k0285M489K2937L8438M4600L9518L3744L0805J8724o758k9157l3359k2592l977K0901L9630K9204r402
120949F2005m0382l8095k1667k1396l1421k4831q01J5389J2327L268p33k546l084M196J9393L2848L7326L2109J8474
120930E2379L174n20J0608K0809J9376K2405M7754P7252P2691K8860j7135l3638k6051j4391n120K072J344p916j1450
120911B42503K99J1853p66l5637o1494n2523j9042K472j0430m0988n3321l4964q817r98j0775k0397k0023q834J5829
120892a06053N1355P9661Q3626O9057N3332L8846J7064q760k8321m5357o7502q0113o1847k6029j1456k6123l5822
120875a04442k0011j780l587r257K780J9568J9983J6483L3317N9476O1662L5378O845j2033l4351o1599p0520m7323
120857a09411r612J7542K8648L1273K8879K0830R181k073r089j0253j3066l1232o0667o7922k6814L6245O1412K5544
120839h0585l1540n8423m4283q844L1082O2550O6578L8510R161J5730N0922O6680L5584j2447k7821j715K7840K4898
120821A63877o704l8027n2095n2908m4606k0866J8640N4924O4965M5065J1360j6076k2197j422L2294M7697K6360
120804B10281j2382l2828k5851j2941j0970j5162j8405k4410l5338m5594n2939n6081l9074J4158Q1075J07910P5151
120787A06600K8217J7519L2075K4937j2584m0428k9011O187L3888M2857L9149K8025J0064j4628m3386o7307p5141
120770H7033o8927o5399o8071n1574L025O7413R0351O0959J8374l602j0299j6852j6788J427K7984M0963K9608k082
120752A23543l9304n4934k5175L6924Q0330O6568J0487m1661n9633m1112K899N0061O7517L9359q993l5473k8703
120735A42700j2580q402j4518k2773l1365l5650k6535p807k11j7618m8341o7782o2322l6264m236J7471K0227J0613
120717b05393L721N665R813J2912K3598M6333O5987O1669L3365K982j1778j4161j6040j9672j9696j5861j2239o125
120699e4920R588L0259L7902K2787k745k0634k8166l1154k5739n223J9072K5409J3529Q804K6366M9326N4466M3515
120681A72442L2980K5117P889k2012n3607p7261r1266r2944p6182m0929K626M0100N8229M8346J4349k3361m0378
120664a15862k7176O251M0171N5375M1156L468l6123n6558n2315l1431n403J4822K1774J8063J3601J0827J736j4685
120646a12309k5077k1477j4999j6838j8910q955Q313K3718M4012P5781R8541Q1957K7955k9023o2963p4079o7963
120629i2316m5287j6758j300j69N610K3774L7573L2341J5456Q11q140j1478p907m930j4369k8933k4171N202L1939
120610a03052L2608J7142O617J035j1389k7678l3415k4603j0874k424k292l436R124L8061N5129K8672k4042m5370
120592a00187j4665J8482O325k5489j9060K6894N7890M3923J0971r979k1812l6301m3805k6437J6600O7011R7609
120575D7970Q4586K9197l1504n5305l7586o070K1293M6409O1805M6187m55m5487o0672m8898k5086M117K9193L2684
120557I2378J4374R84J0876K5684J6742j3840l8052l7643j7624O999K1735J7711J526n916P057K7230L5008K9252
120539A94481K0971J1941m475k6761m4384n0668m5644l0469r355P704J3639J0403p37k4661n6521p1974n1393q805
120521a66708K0402J8782n58j8210k9517l9972n2488o2514n9086l3012P861L7118L6357J9977J9486M4282P1604P5490
120503a10706N2539J8737o081r634L313J1125j952k2362k1484N035L0348L4035K6908K7346L1966K7560J7799J5786
120485A30278J7221M543k2413m2318m4093m2228m9320n1766l1909l526p40l0310n6996m6781q490K2746L2031L4315
120467a89756M0289L5387K679m6439p6997o2609p754N6660R5792R5544P0486M4290K3582P94k0033k1483m250L233
120449C9415j5083l3150j9233J3215K3921P139l485O578R792j3375l8290l4616j1740L918J3904L4830N5945M9661
120431H9346K1344R971L1014N0617L1624j7691n7204o1537l8950j5073r654k1279k7928j1570J4911J9567n292l0642
120413b8426l0952j6049p426l801N451Q649j4696n4238p4258o1775m0781l1568k4067n821R204L341r357K806M3740
120394c30024Q0855Q4411N9209L2092J9752J5599K651k4395m7278l6622J5164P3535Q6617L8451k9235n8078l3475
120377e0771N232J4024q893l1396k9979q716J8261M1544M9241K7903j2787l3649r663K7674K0580l9546r3955q5236
120359b00132k3135L3079M1432R900k5092l4225j4830J0861J8615Q967L161R415J0777l645j6793j1438K65L81J151
120340a81286K4900N9057O8064M6738K3584Q791j9485o4454q6574n4657P987N3753O3771M7433J4314k2609l5752
120323d6425j1462J9567J4707k1888m5396l4432j4982j3361j7508k257K9446N0584M3313J2749k3639m7309m6318
120306a54611k4862k810L550j028Q53J5261K8630K5219Q517M17J6652M5704N9353M6249K5375J8614K0160Q427j6940
120287A22730l0771j9111j161k898k2349l6366l4130k6952k5644k4162j1789R054K6741L7256M6460N4670M9463K2569
120269A33610j1152k4434j0900L495q148l7735n0891l0669J867J6521J1175P352J3990J3051j1871m5344n4480l1386
120251a15949l238P413J4761M3654Q2449Q9744N0455j947l0363l6092l7686l1825n565K6181L1340P965j1885j1144
120233F8268r243k2591l3608k0991J800O055o762q128J1843K8212J6669j4648l9076m4488m0407l8204l6016k5040
120215b06355l824J8881L3584L6619K6442J643l0260m8847l8215p157K0479L5120M6186N5972M8858J7286j8297l1553
120197d3438k1590p040K060J0012K0007K9984L9773M7090M1402J8903j360L132K4031K8577K681l3507n7116o6638
120179C6963o5828m7270r157K8337M3300L8778L2239K6656J0718j5429l1986k0613J4501M7464M9399J2759l6695
120162A14136n9451m1383o174J6819K3755K5362K2221J1103L211J0556K0112P803k3164m3981m1436l0735k3666j3567
120144b8479j140m027k2885k6240N425M1708L7781n131m3278m6724k5251k513P968n13k9632o5899q4896p3106l7269
120125d04101O388M0783N1117L6404J6266J0490J5178J5523J4652K5565L9823L5619J8375J8247L7577L6912p150
120108G668o1972q2458o8051m7156k8968o902P493l396k2728j1911L2305P0054P6197P1009P8074Q3848O3639K5197
120090A81942j052k524R864K7814N0902O6889N2574L770n1142p7811o7413l6415o306P501k195k6978m1047k4472P832
120071G1733J6558j2683m4531l5066J0661M3528L2077k984k3145k0095j4199j9379k8745l0183k0307l810J0724J6319
120053e3527J7015K6523M8098O2477M8845J3520j5595j9960l779J8175L0258J8143j7880n0311m5439l093M1148N8794
120035A73412N4828M3936K3331j2092m4847n1866m1892n0071q8683j22136j04149l1544M9987R0504P8275M0879J4739
120018B2611J6001L2650L8162J6458k1252m7531n0213m4509m4724l6001L777N8450Q0518N3200J6640J2725K9216
120001A36178K6918J869j6564j8979k4893l6232k3807K3518O8996P0354L0334j6165m7453o4965p0734n9766l2965r81
119983e5337K4739L5557K4911n227l9763o0793o1480m6586k4629k912J6412L8101O3568P7913O0300J2729l4331n2341
119965b9169m0427j5949O522J9486K0483J6018J5370J2159j2675n8746r3012q4158l8742R368L3015K4073r719m1971
119947b68074l8503N415M9650N3430K5120N043R477J9948K1931K2364K5982K2921Q928l311k056R725K3608L4643
119929B6241L9125L8006M1226N0804M3387m117o9541r6657o3326j1115J0467M173M947J9893K1788k114k6370k1108
119911E709J1066M4434O3678P2759P4210N6052R120m9114q2082p0389l2020n46Q201K4j5851l3272m3049l7846k3459
119892d2375j2125o630m268j0030k5088k7139P738N9176P1925K7554k3363k6339M074J0781k0812m4249k0396L0211
119874e1355N5946L1662k4805p4718q4082m4505J4277M3690K5345n560o69M3707Q5371Q7960N3474L620m5720p9939
119856C3699p8687l7457J3016L2484J5655p693j6185j8555k7488l5216k9567j7389j3915j8300j6921n777N321Q502
119838b14473N966M456J0201K4764L8366L5854J8792R510J8801K4185L669k0419n016M5451P0340K8118m6509q3403
119820c1347n7863p023K4112K6336J4955p37k1291l9863l9267j2771K0844L4373K3201P554K131j507j4970l2346
119802a05479m3834n3919o4718n4933n826N5957P4746L2875k4792m3575j4280L3336O8296P4526N0007J0396j7016
119785b8233j8769q020l059l597K043J6559L0459L1844J4456j4548l3779k9319j7716k6759n1007n3460k0123J7114
119767a95914K8078K5302L4799N2620N8172M8141K7634j0251o0996q4579m8071J7256M5252J9352j4734k2871k3152
119750a03962l9378n6607m8533j8506J3763M3617P2051Q1922N3415k386m8483n9024l6036M401M2916N6513L1169
119733a3148j5907m2314k3055J9197L8922K0773n875q642P056J2321q96j1925p273L41j113N98J9422M0213L4581K168
119713F5444k4939j9330J5041N1511O3005L9869M08k0470q377R996J463k4967k8771K732L3271K5557j1658l8284
119695A31501k9447O337M4505O6056O6087N0599K6275n005l7828n6715n1151l3617k6304l0508k7677j2729m826j6147
119677E9406k9110j8906J3467M4170N4211M2784J9572m645k1485k6915k1646r797J411M867J839J328L728n379l1244
119658G7656n0337l7187o057R61k9745o4385o6048l4197Q667M5119O3727N3784J8435j9035l6165k9918q844J7814
119640i5755L7174L8637L1851L7937N2211L9838j5075p8904j07549r7012p4290n6863m5326m0397m0482l1904m820
119623d50729K8055M6347M5840L3319J4516L913K3245O4940Q1064M2675j0540k0243P364J5869j2530l5727k3331K287
119605a43666J1836J0821J4276J8720K3392M4646Q1042R4325N8253N130j0141J9851N0201M1566k555n2067q1530
119588A84100q5413p7724p6669q1585p0936l0522K6083P2929R4857Q7652N4093J4893M181L0882N7590M2312o757
119571B39966m1361l1648Q263M6814O1389M1427o311n1208o1795m1872k3853k3155k3192j0989R62K253O209K1768
119553A13667K6380l194m6284n7287k6358R518K0398J8935K8649M1132K8859r425l9976l4419n040Q073j8054o1621
119535f047p6168m0519J5494M3542L1894J2978J4348K4800K3092J7091K5521L4414J0583l9541o3886l4056J1905
119518E445K1320l830k0534j0240N375P395K376r17n623q382N907L7533O2131O2324N0862M6100M0794J5413k7552
119499B85897o3200p4519o6074m8590k6601n595J515j4953m6812p0143o5165l5088m273M787p328k0649j8464j646
119481b76901J8208L3082M3369N1045M9864K6043k2843o9346p3258k8771K0755L4151K5140L7149P4148R1527N9059
119464I2421q41m8327o8450o4015l7550k510J3722L514n174Q864K4015J1815j1120m879L0327N1194L1242r791m0010
119445b5553m8972m0805k0253L596J7745J8079J0909K049l219L928K1289K5363R29k5341j2125L6389P1293O4999
119427A00300M1947L2085K7822P349k6243n2366o1022n4060l4437j1616l460j6809l7485m9278m7989l0390P495M9814
119409a58343O4440M3815J7811Q663J596j6791k3077M517L7655L0781j2299m7036n2942m5609k9850R118O0578Q1516
119391b5457N3628J0547j2439k3953m8212p8724q9915p8280o3077n3326l8511j1397J8097L5614L9595M2665N7892
119374b65253Q2809R8901R1834O7586L9210N206m0284p9636q0634m0155N110K3393K1494J9737J7425O684J513K0899
119356d161M9656M8226O432l8245m7101k5724q165q559p842J3314M6090O6373O5374N4056M0157J7538j5210m0646
119338B11563m1297k3810q148Q91J2151K1739J2590j4525l2180k0237P986K5534K4044J4558Q455R526J4588J1822
119320B35250j0633m5155o6665o4292n5724n6682n3227k4908J7539M2402L9653L0297L3318M3436M5504L5653K1785
119303A67551J1110J025j8163m6516o1733l9945L838J8725j9780p0543p6936m1361j6313k8430m8751m1919j0412
119286c18553K1735M1268M7964M6651M9653O7781Q7711P8118L0557k4201n3115n5560m8062l4694j1556J4700L2848
119269b6755M1661M3159L3281J5290Q469K2628L5093J7408k0847m0243k3820K195N963j0806k1476j0329J0344J4277
119251I5492j2156n3906p7578o2990k3839Q512J9177J9703K6578M1127N2359M9963L0593r45l2118m9764n1506m6959
119233f8257m4336l9142k0198J4207N0185P0246O9820N8924M7768L6900K4921J6954J4195K044l1783o6760o1757
119216G3931j0258L8654L6580k440k4455j0963K491j4300m4480n8577n9828o6281o7632l6430K1945O5135O6765M4973
119198d5170K6019P101k2669m5874l3553Q218L8709L2463M744j7341k4685j8766P04K4801L1907J3483j2043k7384
119180e9336l9606n3974m5845P213P5940J00317O1845K725l1282l5879k9211k0372j1698o600k66J5268K5807K199
119162d2755n1508q6253o7403k1034N283M734L283R240Q900L703J3401L9966N9304N5619M0746L2491L2002K8818
119144F8537J5593n336k1394j8965j908P699j062j0687l344R386P785k07N437J6357O525k0164k9820r823J3391J4472
119124D2472l714k9648n7632p2799n4298q928K5836K7552J2890M383J742K59O073J3437j904m1569o5905m6014r110
119105b56877N45j6539k8064k5063k2527j7310R727N0975P2819O4897N2964N4308N3243L3470N947j1198j7561j9741
119087a5985j4994j071J2982K0022K5762L4557L7152K4636K669j9163l8584m9081l3967P329L9225K3972k4535m7211
119069a6285j0231N0174O9498L0989j7928k3372J6901N7898N8143J6890l2548n5000l9346k295K7987L4638K1609K560
119051A90282j3894k3733k0505k113J6578J2938j5916m5528n0508l0232l541J1949Q733j1049l4662m5025l7313k3435
119033a16974j3562l295J2187K3395J9280M115j3147l5066o1383o8237k9891L7461Q0300O6889K3416l57J2603L6491
119015b5775L8358J1223k3864m0511l3500k4283l4288n3727m9477p724M5323P3745P0377N2922L2987P934j9403l3118
118997a2801k5099j1355j4907l5704m9004l6006o604J5092K0350J9340J8961J4367O364Q697K5207L5088J9753o501
118979a4762j5417p624r040k4504k6432l45K7778K9610J6377J6608K9581L2748K6784L7357O7601Q1552N0292q179
118961C09985n3073o7960o4937n5851m3366l4750l9661n1284m9482k7602J467K9871O2488Q8411P1014n716r4913
118944b5359j24679p8812j1529K2191K1877J7196J9699K2235K4618L0975L2128J7220k551n728P531J8690K3214L3197
118926D2113M5695L6843j574m2689n6729m5765l2008k5774k1343j4652q528m316J9O296J7597L7015N7654O2072M1766
118907I3692J0872r846j7598k5928m2142n6759n4790l1070L830K8965K9347J2717M328J8787M3645N8243O0437O2770
118889A89500O7492O0183K9831j4942n3034o9586o7138o1094o1938o0454l7583P031M6699N7400M6088L5206K6541M54
118871A40656m7525q7997q5765l9001J6462L9082J7358k1129l6156j4205K0993M0281M1568L9680L4985J4178j9445
118854E4020m1073l7116k2533j4274n897J5495M0904M7534K9042J313j8403k4270j7411m074J944j0712l5007m9476
118836h9994m1636k0774n992p214j7735k0385l757K1805L0446J3025m132J0689M9161O8709M7358J1318k298Q721
118818D7315J8493J1031o934k2407k7957k2268j3715j7684l5399m2583j8142K0942L6214J9290K773J4042M1160N5796
118800E9967M9848L3825J4648o414k2740k6151j8176p037J092N95j2811k9174k5642K372K2558M73n1727q3839o5793
118781a64126j7345K2505L5011K4387J761j9578k5779j4798j767q69n592K214K4563L9737K8445J988o857J4315L5331
118762b6454J8547k6971m8761j6827L6657O1575N3108M2508L9339K1904j4211l6811k1284J4201L5213L0963J1131
118745A73827j6139m2415n1760l8243k0763k0045k8181j9818J1838M7743O7732O5891M4253Q537k8043n0328n5130
118728D8956n3107n5917o5719p4676p0279m5764r826J8916L0383K8629J7764l461k7169l3458j5271P365J2813O103
118710b83718O002J4595J7806Q709p324k4817l8867l9006j9274Q913K7727L2248K7915J8501J0550J7262L9573N4882
118692a28323M4589K0788M316p518k3045k3382J2863O1106P2163M2545J7999J9902J5812j9178n7213o1803m0867
118675d9246k4334j8049j2412j2481k4817l2351j6285R269J6137O444Q331L2872O1709P4686O8292N0818L7330M1217
118657B17130N3001M0670p027n3227n7608l4315k9773n1565o0842l6455m150R282J1894J6840R653k6302p0968q2607
118639a56369m6153J0804M6510L9894L987k6595k6818m482J3463J5424J2033J0513M422n566m680R494J5161j541
118621i0499k0210j2703J6483L7594L5141J9919O542j977q563j6024k5420k9700j5063J7957M3019L6518J2583O779
118603A2376K4679L2151O802k3521j4011L5269P2462N1724j5451p4094q4056n4720k3084j0694j2078j6319k0525
118586a13090k0065n504K0185L7087L4515K7810L3154M0056L0812J5507J8363L3509K7287r167m0254l3228n58K3232
118568A19651K7382K5630K4206J3099j2568l8744m2094r045M8149R0244P9131J7606m9569q3062q3455o9411m4190
118551A2960o283K5021K6472O286o830p177j4913l5284m6737l6725j9261m957J8198N6721Q8208Q7764O1206L1378
118533B36047N814k0215l9718l7964j7962j399j385p986m492R482J3759j3320o6075j03914q8081l0138J5007J3770
118515a38770r332j4314j111L287o373j2059j0545j6787k9235k5971k526J6474J4286M669M632P551j028j8845l3309
118496b69306l8069l0902j0109J4366K0990J935k3752l4248k8511j3819J2398M8971P4186O7742M2930L2618M4139
118479h8441N0768L1536r55k1487k5609k8917l9634m4898k7090J2007M9508O4892N9688M8811L8773K5724J1235L311
118461A19222N60n738r204Q681M1065M6846M095m6384m3979J2251O0901N7298K2706K909O365O328j2241l4222m0728
118442A96731l3458k5871k1763j3462J115J0443N106m785r4J9289L0831J9031m685k0431k4173k1416j1709J641j309
118423A01031l4837p6744q5492n0340l094K2461K1866Q514m358k326K5304O4890Q0932N4636P131k7673l9848m0906
118405B1147l9108l3634k4631j5351r915j6310m0120o6904o6344k8080J9820M3399M0829L1621K2750Q472o547j0380
118387a69286o731j0707k2924l0115l0014l1111k7122m11M1516O1377L9756M630o103O761J5407J1793J4836L3193
118369a05255M7204L7073J2824L355K1141M6949N0620K4376o402q505K1678N0476M1230o567n7727p8188o3668l2100
118351a486J437L2983N6498N5623J9028l7767p6616o9587k4253K7197N7460N6205K3134l2055q2153r4902o4983k2538
118333a76775J032O465J4337K9630L6918K8000J5406J3505J9936K3176J9338J4161J3960J9562K4897J8935m492l5417
118315H2574n2455m2884j3141K2033N2133O9277O5674M2289J2035j5682m6103q2498j05437q7476l0783K5479M2970
118298f1995K0828r855j9197j170K7768M4719M0169K7594K8439M3543M7285J7866l3084p1159p6203n9304m4144m1123
118280a19023m1541l0082m25L6633N9009N1916K2659o059j7938j4847p619j829M184J1673J7264J6479Q792j650r895
118261b2299j4361j7064k0174k2693j9698m476K4629N5296O3566L5507j2330m4634m4051k6228j2937m107J0565K3992
118243e1497J7372q241k6815j9875J450J5175J6040J2959P729q922l9152o5408o3005k7252J4513K5708P43k4614
118225b23092j3053K9666O3967O6570N2301M4159M3468M0109L3434K6868J4665q177l0575l6077k4022p080N800R658
118207H8589n450m3995q6849j02389p9733l8900p409J202j1813l3271m0368j8860J5142K8151J0950q994m875J7823
118189c21049L9221N5661P2306P8862N9152K1533m945q739r202k4035m1729l9379j4880J4236L6733N5373O9165O4402
118171A02686L2402j1044l4387k0631J4409L6614K6378l783k5098k4173j4904j7660l2075l7573k0241Q557K5239
118154D716K1948J5572K7946N9856Q6185P7345K7282l7618p7924p1939l0337J5516L6998K4535q509l3401k5673J2474
118136A24972N0424N6666K7836j3863m7405o7669p6203p1069n0872k0412J2197L7402M1791J5572l0054o2163n4161
118119a27011j2672K9397M3680K6946k185j9961j4794N510K4463L4075L5442K6063L769j4244n47L9024N3948Q245
118101A39148o2599q6510m2959J5806L4388J3019j3130k2591j5726K830K5672L8077L1837J7236Q230M339j241p160
118083G8666j0833j7319k5218j6289K0196O0706O7100L0574k1188n6566o2345m0354n158J6110N439k0381k5287J045
118065b1102L1889L8865J8199j9825o1535q3087o1753j0038K5885K1118M523J4964M5883O1012M9724L4431L0371
118048A19524K9886K5342J7529j140m1958r0381j08097p7528k4042J7279L7073M2872L7556K5371K2206L8290O0264
118031A30046O8310O1981N2124L6893O506l3090o1139o5791n1885k8850p258k746k2153m5178m0748o733K4578K6584
118013D1451P359q631j1614q869q597j2672j8289j9777j5309j3452k2168l0920k1290O25N027j6788l1830j0372K7343
117994a68773L7580J6158M071K9526P1707R0370P1092L0734o853k8445l3479k9240k2721j4305j775J1134J5861Q212
117976H0854p097j7057l828L9303Q5523Q4488J6835p0544j09092q4656m2549k0019q163J1613K9968K9487J5201J554
117958C1821r975j6453K197N4029J04187J06764O2887J7113k754j2248l3051n8313o7237n3006k2757J4538M6480
117941A64222N4656K8525j9607n9778o5238l2346J2512L0603R541j6584j745N4857J02842R7499M6733o631l2800
117924C67261l2191j7844R44J9749L5891M5544M1465J9404r988k5629j9547o896m644j0371j2771j2131j4942j5765
117906C47539l560J5810K2388J1131J670J1741L3781M7136M3188K7351L874k6694n6045o8224n6815l2810q314J9608
117888C32755N7037Q9559Q8317M6753k519k0417k551K5643M5943N9248O4446N1853K5337P486Q377R061n219j2767
117870H68342J7582P5673J13550J00736N4734J4191J248J3849L5426M4335K9020J404j6764k3263l4076m9309m4058
117853A202620o500L5962M8359L1408J2967Q923J5801L2062N8027P6321O2128K0414j1522r749Q996J8644K1179L2622
117835A658662M8291M9293L7640L6850N4167O6988N7374L9128L4146L8754L6838L7241O8064J28336J73107J65280
117819B730159J25409J06562J28109J60308J74121J77588J90273K05901K04381J89155J86078K05372K26989K29748
117805E240153K17462K07735K09623K23590K50613K85486L08075K98808K62707K23671J93238J59909J15002P2875
117791H268947N0357L5612j432o4846j17218j20018p8659l3909j5223j8838k9639m3526n9506o6378n3318k5711L942
117774G630637L5234P4716J15393J39458J43657J45672J61106J89847K30674K90037L63104M23940M57112M90962
117760A0891549N74275P16401Q68958R72573J006565R86376R29768Q42395P29122O01333M68969L34054J95791N7120
117746B0175249p6615k02246l20037m33493n50914o84357q39621j002386j137646j211747j219596j186618j141171
117733A0168802j090786j030573r65865r10549q62137p95184o90581n62738m45658l56486k85396k20150j65594
117720A787105j32375j17315j06310r2413q0816p6886p9278q6106r6973j03083q5885l7962J8468M7347L5543M619
117704G97680j5628j4734J86J9576L4306L4116J7954P19m993j0723l8198q1220j00021o4727O534O4766P8821N6155
117686G80569K1316r952l2002l8826k6005k523J0167j587k7685m6640n2963o1295p9701r3130q5876o9305o7517p9399
117668C7646p7359m6851n219K6984N1581P4712Q2348N6996J0586k1216j6786J3266M2225M7695K1202k4686n9179
117651B13945n9271l4637j4056q939o005N081J6717J9852J6451Q846n041j7098r002J8677L3978R843l7511o7154
117633H4676o4650n2710n0567m5485j5417L4659P3527P6014M4088j672m1284o4832p2692p3081p4170p1149m5347
117616c60092J2653P9650J13792R7719N5436J9554j968j3775p957K1670N0669M3465M371k2071j0354J5396K2710
117599A20868J3882Q591R078P289O572R986L498k1551m3057l4703p150P493L328K94L397k79n232J1170M3406N2443
117579A89323K0842j9912l4904k8652k2709j9022j0082k182k689k772L513J506j7707l2213j9345N355J0788j476o124
117560A1538q32m728j3588N54L7532N7264L7775J2260K4243O8154R8351Q2529K6140m2990r3261j01628o9695k7548
117542A02070p589j4246k7408l0666k5567k1486k2556k5054k1067n582J5851K9722K8675J8799R316J455o964j2777
117524a5074j1308n112k085o830j6396j9344J920N5510J18419J42987J01536K0975m1600n6980m4550l5855l5811
117507A50402k9912j6453j2517k6589m0565l0455O79K3978K0252P14j4348k3076l3333l7845k0873J2759L8928M7601
117489I347N1874N8196N4607M0839M0836O1776O6482K0671m8342p9049n6266k4787j9530k2644n485K2196L1336J7875
117471B19932q73j9017m1137n5278l7809R247M9051M9383J6876j8518m1277n8124p4717q2529p3529n4248l4379r243
117453b56189L1891Q1638J14263J14464R3191O7909M1092R883j5631k0969p553J0781K5096K9540J1385l3585p8656
117436B18550q5409n0339j0197N110K372L5j376p549r693K928K1709K8848K0610N070j4260l5608m7002l6211j1548
117417c960K392p931l0467m0374k2291J5990M6643M3879Q554l3737n9913o4650m9006j3937K6374M5645L6178K2977
117399g7634L1003N2819O4588N7492L5323N97l2589l2111J2938O0414N8358J1476l1485m8321n8636p1281o5952l8020
117381g1021j5404j1530k994K1429K9243m293m4132l4797K5530Q5271J02037P4690K4615k3151m6266m1746l3806
117364C3675m1901m7872k1603K7065N4323M1642J7244R596Q063j2633m7831o3900l8969J0004M1459K7542j9459n8444
117346h1999n9286k8065R120L6768N4768O3175N9237M6694L3890K3695J5169J0117O838m317k4842l7620l1620k6330
117328F5392m5176p0831n9414k447N6044P3523N2917K1997l967k3123l4000l9602m6330m4339j0560N1018R5078Q5341
117310A21521M0857O245p049j9098l5418m0432l3533l4111m4817m3003j9679K948Q020J0889K8285M2917K6426j4500
117292c532m3591m3689l4344l6559m2726l3698j0575P437J1610J4556K9653N0275N7019M1245J3905q585j9977k2303
117274g3879j4417Q302M0248N8382L9113j2539n6241n0580J077M7396M1858n044l8110k1393K3938N0433L9412J3737
117256I1693L872J5484L0340K8951Q701j6514l2863m1942n4534o8244o1895k1848L2110N9636M0004p032m0642l5383
117238g0106j154K8144K7878O596q687j0727k0610n0122p4032n9880j3718K8334M7955N5859N5530K9060k6508p5387
117220a31575p9081m3288q254O47n388l609R747J8186P407j4784k3053l330K5857L1490N818k4590l1152r701K7511
117201b51142O5826Q5932O9996K6703o892o867Q112O507j2259k5056k1927j0313O817K9173M2385L1834R853J383N489
117182E5554J515q494O19K9683M4576K6976K374j189P604P890L994J1248K3846K3702Q165j3379l6785n6204n5817
117163G5878l2245j0252j0621j6974l097K0920K4312Q313M638K1958L2180J7066n839j5640j6081j6112q754J2643
117145H2293L6519M7796M5213L2063O311k7614n3049n9471n2753l8951j6581N342N430j6446k5273O741N9893R1754
117127A29217Q7914O4600L4993K273k1486k0671j801J0792P611J877L809P903P574K200j1907l5863n1221l3793Q044
117108A92065L3959K3153J475j94Q489M10j5954l194M2808P0758L4494m2189q7525o7053k2839j6212m9536o8545
117090C4370l7291J7949M9618M8824M2671M7184N0164L7032R668k1891m7160n4198m0361k4295k5949l3752j7014
117073C5569K4101M9036K9371j4642m5764n4122n0936m0822k5055j5454j9637k5062k0522j8654l1248l7646j1250
117056b72737L2084M9337L2226J6665K5931M0666L7063K1690J0858K980p616j0864L039K2811L0364K4293J3628J97
117038G2615j7587l4345m4932n1509n2541l8826j2611O039P475R617K7928M5737L8079J0112j4667l1203m7749n4588
117020a82956l3237O214L1924L6363M1697N5118N5093L2655J0247K192r918l8878n9523m5591j6513j2522l5201m5838
117002b08674j8830L0979P2896Q8290P3772L8285P08k4072l6813m1849l2934q223J2116Q636m074L561K6101K6779
116984F654k322j9923O169N0217O4466M3290K1763K1069K5762J5306o787k2712k3220j2837j925J84r733k5600l7256
116965I2565m1691m6423n8638p1997o8796m0296l253J4128Q271R655M1657Q0207P8995L3841o258k375K5450K9668
116947G4710m530n1396q1609q4602o5374m1938l7026m9136m0751J7073R2905J18892P0653l865m2350k9982M835L0465
116929a23026L3069J8667J0200K6630N2998N0406R201l0728l3255j6313j9080l6900k9383J0551L8494K2357r850r684
116911c5646K5578N3051M2169R034q764L543K4706K2847r305m4858n1255k7676n929j0994l0767l3327o515L0644
116893e3464N1539M5549K0254q129k5018k7399k5424k7750k7383j2379J1325K3554J9728J9439L5519N1242M4431
116876A15634K0626R59j3310l6901o3783o6377m1130k4793m4622p5177p2036l3616J975J5173K5204M7112O1905M8076
116858a35081J9845R552K2575L2689K0121m677j8607j3982l250l406k0949m7956o7992o6320l7789J0839O2407R4997
116840a46984R3868O2862K1499j1460k9533l5284l3624l1087l2961l4903k4023M444L6830N4618N3636M2530K8002
116823A8430J1379m206j4199j8648j8503q821J2681L2431L0483M806k6675m9485o2453o1685l6203P687L6910K8063
116805a18008K373N44K8034N1417M9852M0719M2781M2010J8016j4402k1258k21J6627J3736J3352L1381M1188R721
116787B47862m6161p2559m6188k08K3042J8701O979j240m970L985L1273N7967N4239J8974j4848k1787j3545j6926
116769B24590l7156n7080o2459n2706l2043n386J8352L1748L7724M2093L8915J7466j4691l1404j8274Q253K0563R495
116751A38000j2968l0407l2060j6187N113J2488J933q590p445j0401l2546n1664l1493K0723N5636M9333L3725M0681
116733A23871N0071K6213j7708l2995n798K4150J8271j9049o0120q6569r0455o7411k6141J0423K7905L3465L6264
116716e5613K9700P264j6185j7778K888K2934K6721K3973L1593M5427M1074O193l5550m5461j7121J1247J612l8714
116698B4204p0955p2448n0827k0181J1027L1291L2680K7916L5100M4407K9945k468j6787o530j1068m9641q0287o0096
116680b04718j2753P340o589j9372k0378k9753m2750k4077K9773O9344N4874O578k7926k9153r704J2835K6285K5365
116662a94779K0933L3171O1416P6629N8730K6359J2919K4656L8476L3482J0951j2060j9235q481O896J4626J8031
116645B02720K3475K0304n156l7990m5445k4526q857j7292k7740k0710j6929m2237p8481q2731m1885K0172P5918
116628a07390J05492Q9575K8409l6651n6009k8990k82N26j4119k3867k7090k4041n380K5725M4058L2507L957k1128
116610a4698m1071o1077p1022n4180j0753L9714P2784P1016L6717J713N375M6544P3595M3083k3644o4777n0607p896
116592i184K2962K7578J1784j6091m3468n1999l4424n666J3060J5127P137m383j5644k1762k0159j4567r087l002K932
116573a48856L295j71O563K8101M1094J9857j9708k8155J4042O3736O6071K2802j5328j6271J607O544o526k3779
116555A4918l6284l7821j6154L0300P4482Q1321M6849J259k7371l7659m1800m3624l7227j8159J1035M1084N8710
116538F3859N5260L5616J3037n776k3048l6892l7439k1820l689M69j1095k7387l7427l4277j4588J5269L7948M1563
116520I583L4182L0851L0117J8694j047p173J0197K9115K1677r154l2895k7716n71K6437L7036K7815O845j0706j4464
116501A78823j0807j6340l6205n5053n3022k6514Q047K6506J4453j9453m7579m8575k7449k414K1271M6793O0880
116484A3362M2950N595o100K5591N9868N1579J1364k0910l9876o7548r5744q8621m6712j7380k4270l1039p50M6868
116466a81773O9655O3759N2838L8389K306m8672p7607n9633p440M4738O5608M2533o627m2047m0183j8144o225r829
116448a18354j6963k4301k7052j594O1225J15457J00848K8172k2966n400L9791N0067K3277N76o48L020J06n187j4475
116429A85599l3836n1985m8214k4496n899n146p954P11J4673J9169J0922k676j2536q435J7173N4599P4798N6271
116411B32738J2755j8450j8931r709k1744n3175o9060m4585M138L9261M1032J8350j1132l5198m4942l7493k4823
116394d0968k4117l3373l0898o238K3528L8350M0164L8697K8031N32k4825j7131K0112M3519K2691k1269m5833l9905
116376b8933k6437k2348k0501j0802L894J8912L4627M3494L0617J434j1523Q603L0504J4938k3542l2602J026L2552
116358D3913K8707J4232K3316M0804K9121j0325m3093n3976n2616l7009M082N2177O5540L3788r328l6705n6098p5900
116340c9370q0009n7827k8995j4336o115J0332K8025L5664M3210O2749P8913O7126L3247R065J0487K0905J6734m601
116322A85204k3029j5535J8582M9712M5647R298k6749m4395n4812o3966n5457k4500K003L842j351O868J2308q077
116304A5593l7970m5348l6033m1197o1191o5000m2641j7228l602P163J8545K0274J5323K2249M3751O2103O9569P3400
116286b240O9692M6656J6331N284R116k372k7123k5457J0394L0761K294l5867k8190J8077N0995M6553K1712o838
116268A99778l4159m6526k9652K346J7121M656j6054k8551l3085l0676j7059L390J4806N617k0712m7365n1379k1998
116250a29502J7591K3670j5716n7745n4905j3740J9686J8826n837l5799n8214n5931j7734L7182P0824O7337M3808
116233a46199K2356J2801J9037L6939M6703L2154P272r20P146P992l365r773r805k1225m0714m0268j6350k274j3237
116214a11730j9943k975P209j8459n0767m3066o097R022p644j1606K4470P0897Q5049O0291J7144k3883m4774l2098
116196i8960K864K4428J0849k1320m4195n2278n2922m2338j6646M975j265k2901j8362K5747O9074O6200K3687j2754
116178a56117j7993j0029j4586l2433m9640n8024n0417j3915M9376J04367J10924P0425K4616O026P814N529j1311
116161c5388l6065n4684n0177j5245K9993N0937L9956K5583K8485L2053J5939o440j3403j7138m2092p2634o5682
116144a86002j6426K9504L8714K7878K5015K8492K6374K6201L6790M1219J7605k4784n5713o2014n3295l7611j5090
116127a53143P128J5029N839p003p482J1301M2434O4208N5610K4779P989K4287M6609L9280Q370j3785k0727l2086
116109A18637m7744m4186k2225j6316l9482n5668l1832J1966L3936L0303L1452N0553O7192N9216K7315j1505l7479
116092A24133l8096k0347q779j7008k8044j8758N291J9934J9617J9470K2629J2638j6463m6079n7714n2368l7172
116075a17116j2270J6898L1271J8165j0275l1459l7006l1903j8318M739K9610M2119L7330K4663J5958J4872J9481
116058c241K8982M1894M8223L1193j4016o4200q4493o7954m4875l8902k9135J8015Q6677J16175P5677L287m4788
116041E8519n5909n0434l7208j4391L35j9515o6055r5265p6408k2242L4125P0393P7759N6119J9397j0155k2924k4355
116023a78214j3698J6572N0660M7434o660o2632n9227l78M8954M4282Q258j1737l685R702J1900Q857J0469J5365
116005f3778J6123Q971l841j5959k1551k0554j6079o058J3154L1085K5429p841l8938l7073j0687O996P638J4391
115987a18572L4650L8780N644l5640l8930l263K8873L1225J9570J2707ol2029o2138n2320N28N3741O5452L7914P327
115968f487P97J3800K5216K1709L908k1064m2939m8570l1529l896J2444J1161P634J2969J5103K13j7669j0936J8594
115949c9542L4473J2668k4348l6054j6353m69j9708o1834q2787n4976J224L8937L7900K6717M3361Q2385R9778O9681
115931A11053J5425k2768l1351k1956m661J5424K3927M632l4820o1755n2030j6936J0314J1481Q71M677K5935L7827
115913A5289J7788j9092l5395j8993K936K884j3327k3798k3080j8819j0149O838J9056O656k6571n4118o0860n7646
115895b90401n7811n6676m1928j1768K3476M8155M8009K3412j135M377M0806P6256Q3123O6171M6888L4002K1459O445
115877F2860l190L127K8403O0168P1133M0600j7454o0614o3839m7704m6646n9884n5361k0003J7374K2170l106k5465
115859i7431k2720l889R966J1747R509J1276J9501L7340O6357R2691Q7690L6070l9576r4355j02142p3132l3168N65
115841h3701K0768K2873Q720r063j6351r324P262K7730M4189M3001J4275l1921o5742o1336k3474J1541Q004l1747
115823a24296o6592n9979j9931J3526J6616K999l314K330J1533K3395M2689O3468O9322N0947J6264j6289k9842j8683
115805b5837O426K3644J7931m315k0266j1428J8602M4253L8980K719l4319m4041l3067k9553l9863l9322j2157K1003
115787a20610L0763J8395R603J8499L5312M4158L8148K1147O551Q278K1559K1049q866n1185p8039q3626p6414n1330
115769a96608J569O4486R8286Q7314N4238K4262j998l1119n4957o0891m9342k9042o174J3270K2234K1459J8617J4435
115751i961L769o235J169K3548L4184J8620l124o647K942O296K764N371J4587K0260K1531K2172J2902j7219n4434
115732I2495o9097n1944k0793R529M1169P2335Q4857O4964K3522j3963k9622k2640p542n520k5077m8652n1054l2143
115714A0824j5268j1237m571J6316L6062L4085J3094j0611l1892n2964o5231n6982l5621k1203j6572k866K9477O1238
115696a23922O6377M3885J6850M474N464Q888J0523J1452P025r299k8333k5813O867M1779M2285Q014k8333m9068
115678I115p0169j02234j20241r5176l8432J1038L3694L9113L7422K9164K0795K1570K2587O364j7880j7886J1632
115661b19524L1975J2092k7777m7976m3893l8539l5278j4408K4366N0882M6221K8540K1888K0300L458k4598l5562
115644b47833j3983K3566M8859M7819K2594j7289n6197p5650p0921o0301o3417p1034n3136k293M8042O1946M5804
115627d33424L7539N7122Q6050R4921P4169L5689K88j2459K037K2470J7558j9080n9785p3323n2987j1324L5523O9005
115609a30011P1549M5225J6931J0330J9722K2969J1399m866j2846o573J0406K2517J2935j3260l0453k7370k1336
115592b732k2400q478L5387P4212N8525o362o5203q3649p5683o0681l6860p338R766J5948L9270Q2551R9496N5049
115574A00818j6370m9373k8546M249J4332J0459J5486L0765L9760L0127M329k3398l9503m6607o0753q3726q7591
115557a85542m4630L0159Q4944Q4370M5195J3486J4606L2435L5166J4402p801j0670j905j977j0653r255N814J5536
115539A03680R206l37j251M65j81M028R529o475m9243q3817p5663l5636K499L0612N9567P9983O9292L2896J409j3240
115519A37323k5462l9401m0126k6940k1165l0054l3746k1352j1588k0988l5623l3123j4229M884J6735K3530K6798
115502a44527K9215L5513M1068L1961O507j5640j5979K669K6656M8259O1357N3607J7194l8143r0112j16135j01002
115485a67532m8296J0156L3525J1938k4027m0421l2359j3005J0536L5905N4191N6591M5864L1075J8217J1665J3611
115468G634J5993O193j3461k7138l1502m0112n4268n4004l2035j1057p122j042K6412N2760M2690O043j0392J3622
115450a10786M9545O2958M8623J8483j6190m1324m3542k9300k1053k3624j3785K2841O2196O8868M3399K2275L0957
115433A30541N3517N5853K9032k817j7140k1452l5835n5690n3832k4056K87j1949m5830o1362m9284l8344m5920m8708
115415b42989j5730M6480R7801J06905P8481M2262K4054K5985K7926Q080l2521o4690n6192q077L7432L6303o516
115398A04994l7926j8775K6812M2423J1319k8744m2006l5095l0908l2505l3178l8263n1252n5714l8135j5881j4615
115381b87449k7188k4107j81J8761J6797Q618J2843K5618K9293J4563j0684k6729j9235N92L241j8550l1403m978
115363c20178M0258N7936L8273J1875k928j7175l2903k8653K051L1085L2881J6089K719j37P368K9459N9862P4453
115345B335N6626J6117k7586o2808p8822o6158l6878k0138k2765j8934N684K8699L0599K8787M3447N7342M4585J7234
115327b634M739M921l571j3979k799J8165J0280k7530n0394l5742j5220j7722k1493N389M7255O1100L8111Q941o068
115308A749j8522m0606n9365n4247k5132Q197K6646K4590Q275j0465j9824j2988Q487L4133M7818L6846L107l5733
115290g7034o0605o6623o0968m7437k1596J5745M9223O2068N4163L7381J7276n939j8928K85M7273P8574N5517o901
115272E1474n5848o2297m6296m0743n2189o4425o2385m2189j0299J8056K9045K4467J6922J0022k568j7093j7680m33
115254c24459J8983K9377L6251M0774K8779l761l3734l7994k2300n827P564K3095L4534L1869J9593Q261j872j1406
115236a62273r823O583J9430J4850J0994L0495N7209N2732J0302l8607o6392o6849l7145J9369P1455Q1010N4035
115219D7375L4842M0342L8583O811k9673m0704l7056m1300m2281j6181K6112N0674M9280M1388L3517J1568k4689
115202A48608n1143n1921l8494k7067j6870k179J0049Q537l646r152O081L7332N9853M6493l707n5478o7954l7361
115184d8019K270K1855K4271K2199R883k2843n9924o9342m5839k0216j7683k7332k6969j9705k3632l6841m0319l3612
115166d11798l8731o0800o9926l7789K4907Q2861J14142J18128R8792O0906J8913o740l892K4693O1257P6507N0226
115149A01656m96l0965k1794l817j1914l5187m0288k5310j5000j4184n789Q983R860l58O144L2311M3811K2878q99
115130A9642M533K7949L8738L2518K6312K5396K0567Q276o720k1398l2570l3403k3235j2282r216j4845l0237n3127
115112c3102o4070m2054j481J5921j537j7890o578J0710R580J1681M6079Q6255P4900N000o6534q8108o2513k4530p02
115093a48973K001p498j0555L055K0351K0590J487k3178m3248n2468m0380n959K9099M3192M2393M3056L9480J7236
115075g0319j1866k1663j2649p460r722l643P754M580o453N961M1008N3811K0459k2363k8020O70K9166L9921L2759
115056D1931N61n7280j07760j06455m9168K1834O5132P5688P2069O5706N1399K2070j3310l1338j9008O533J5103J
115038E3708j7582k2745k6004l9782n4460n2915l6201j9486j0239l492O894K2719M2587O0790O9286O5003M9962K4213
115020A12256j0137l7392l6971r667J9154K9059K3796J6312J1250R129J0721R466k530j3636J4L5486N5961L9652
115002B61923J1624M856J1991L931k1113l8686l7004k3291J149L8706O9246N9171N573n1911p1947m8678o419K4006
114984A93127K2262p666l5946l7112k3776k9232n3707n5590r213N3639Q1588O5566L7477J7381o900m3773p0162n9292
114966C8671k2229J352p137k5181k5340j2476r082j7239j8705q680m180j4777k8527l5706m3975n6674n6933l1851
114948c78669M007K8362M0011M8363M9660L8023K7635L5491M9324M1911J4081o163p654p971j5653j1801J6122M7262
114930A2341N3031L3513J0929j659r194j9161l0401l5345k7719j1620l610j6924m1832n2353l5208k064K7627M2776
114912a06873L8728J6821p664j3878j406N914p669k7103k8169j0038Q248J5660J8210K3299K8229K6041J5546L731k18
114893b591N510J2958J6608K4910M8795P8642Q6748N8116P872l6880o1390o5333n5456m5387n0145o8589p9291o3370
114875a88273k4064K2708O4723Q9891Q0786L2384k9434o5213o0238l5331j9396k0898k7631k5987j5818p767q253
114858b37811j1011q217m942j0844j9580j3754O043J6859Q280K287K0967M9715N4605K8287l146j5468q650M797J4841
114839a26742J5439P589M098J7214L8221M2739K1340o192j3198M397K5120K3762n009m0496n4138l7544r083J0274
114821h2209J8268K1510J7956N498k534P506K3154J8057q723k8289k0527M845L0695N1317N9252L9400n353m2761
114803A07062m7216l2372k6294k7865j4539J4570L3351K7691J3023O217L242m982j5334k4719m1106o4173p0170l9898
114785b03512N996K6001J2000k423M999J2517n477k9238j7685K7469N8312M7300K3157K3376L9692L7960J2426j3083
114767E9787k8036m3206n6069m5563j3194L957j6964m6395m0749k435K7133K5369R457R05j642o785j1503j0962j0732
114748b07627j5172j4649K234L0299N3126O2230O0830N1857L2623K295l1664n5898n8263l6016j173K5415L0596J8632
114730e0325K242j1396k1382k5231j8506j234K0987M0917N0621M2664J7489j3248l7650n4085o2838n3973j8656K9031
114712a64573N9161N9200M4384K9719J0170j9191m1245l5329q080J4703K1423J9214R073j7791n3971p0576n1117
114695a94826j3287J6762L5851N1818N4382K4593k7896o1792m7509J719N0414P8184Q4891P2243M1270O395r198j766
114677A62248K134k4152p1836j02950r0505m3500N765K9408K0799l159j4066J983K7063L0995J0125q790q002j808
114659g8248q117j7736j3144j722l128j2896q613J0130J7944K918j8819l4157m9412o3817n4926j0240M6985Q3599
114641b13399R2692Q5974O6296K9842j3952m4749m9849k9649N014L0902K4734o423k4155p737J3664K665k9983m3209
114623a11322k7494j0474m815P765L3363M6600L2111J3584J9050M1094N5011N7301N9942N9073L7828j786l3547l8783
114605B34501k7786k2756k9804l6261l0973j7854o851Q96R009R352j4452n8784r0025p8930l6253K760K1084K6600
114587a46527K3879Q434r219l804K8858N9677O3148M6615L0510K0225J3040J2839J8055J1363j6460m4536m5993k5124
114569D4980q932r055j4647j7586j9750j5640O297L8037M9729K6065r583k1501m206J4521J0693p474j2434P053L0740
114550H7307L0010J174l1096m1877k8707n649J3918K3114K0404J1631O976Q300N402q303k3709k8356k4437k4002
114532g900l0346l4479k8252j2318Q398L0210N0554O4674O2275L1727k2850p0689p7145m3252p395L8j2965k4545
114514a24260l1934m0151l6758o943L4909N7862N6725N5040O4723O9873N7299L7821K4727J1128j5250m7360o4239
114497A03212n5444l0170o393K977k019r830j0819j0194k0785m2681n9489n7419l9781k0159r205r655j5387j3306
114479c06547M794K9969M4127M1309L1495K3157J5138R180J5921L8730O0776N9120K9039j1279l7784l8779j9011
114462a0645J0124M1731P1163Q5029O6413K0417j8083j9683K402Q182j9517n9111q1186p5717m9641j8923m661j4994
114444f6700k7456j1710K6513M9130L8635J8235Q577l243l1362n6985n4603l1339j1064M444K7816N1477N2743K9023
114426A2131K42k1042l6723m4076l7062k6803l3137n0463m6196j958O1879J09251J19991R4941M8454K921k4829l8662
114408H8859n3041o6381o0684l0192P795L5312M8162M2809J1456l7308p1672o6479k8467J8286N6513P4007N7611
114391B6586J0389l7102n4595m4854l0489j6673R190M3515N8585L6581n858l5989l6238j2573J4991K3421J219l7436
114373h7330o0995n2047k4601l594L801O334O596l121k2683l5197k2420J5374N6314P1033M5179k480k8484o905L5132
114354a10094M1645n005n9166o7962l5084o551n569j1866l765J2142K3069L2779M4624M4346K1245r724k8339l7539
114336a60814m9406n6570m4977k5223j9716k2118k536M3617Q3855R3730Q3091O5723L4200j5447o1077q0550p9248
114319b13466o8028l6645J9597O5825O0544J6910p406J5953N7297P9878Q3283Q0637O5478K7998j5660l7644l3225
114302A61326k1334j7431k3119l5593m9332n2696l9371k0101p977L550K9427O1287O8112L4981j5290m7676m9593
114285b0830l2020q880J2346K7336L5206L9716M0843K7857q790n7398q5969p0034j9363K6402L3027N867j4128M629
114267f4183M5018N8000K1779k9613m7123k4355K167L488j2525k4153k5911k4063j8528o850J718n405k1828k3631
114249a95998J635L7123N3698L9283P480j7591k1245p988L570j523j8017k4563q068K0086L7977L9627L7968M1087
114231B4541L7581J4461j7645l1238j6070N261M372j7238l1651k2705o515o083j5912p710K8428O3847O2014K1452
114213H9190k3636m3107l8607k9304k2784j0851J0866L0882L2125R442k3970m4728l6450n367K1569K0774m818l1998
114195a00772m4829m5952m0331k3198O295L1878L6403K6302K3911L6084M5597L6744J4876o039k2132l5332m0502
114178a00997l1206j4812q249j7297l0025l2915k4466r367J1387L6860N8082O2646M7057J9485p936k4680k3678p320
114160i7431R282J2346Q968J9876M6884O1819M0311m585l8022m3864l1912j3701M335P598j6324m8346m8494q090
114142a39350L5458N0355M7718M7154L7395M570k6634k3933m911j6286n8996q0740n0252L104L6779M3897L7628K1239
114124c5805l304k2178k6842k5918k6539k4751k3862l4174m3026j9608L1725N9958L5891l919j4803r432k2397m1225
114106b50209k8001Q919K3881R086M118K6706M7513M5759M0807M9173N2749L4348J0563L257M589m673k2011l0012
114088B6562k1921n104P618J701k5890n0451l9828K08K6666J6699l667k855J3865K5203K8223K6987J3238j2186k1926
114069C142J85K2347L447m1919n5638j2282N0282Q0238O3407K0024k3550m8547m8094l1947k0375k6990m8959o9528
114051a84757o5556k3751L7752P4283N8667J4555j0801n88K2770L5465L4953K5823P643j6329l5872m5659m7276l7507
114033a56185j1142K0275L0140P332k6761m1381k8466l446J8762L7575N6382O6408M9691K319n1474p9941p7496o3113
114015b50521m4479p353M7896Q4632P0448K3761q719j1886r484j6253j7170j819R824p471m8096p7114o1767n47O9990
113996b56128J01001P6997L1273L469n586j5596k0708M89L5584M4518K1842P887K2087L0253M848k4225j8196L609
113978D3418o543m6008o3003l4352L468J0853l088k736K3285N2138N6250K9771r282l6234m1261l5046l1810l2224
113960a22404k7848j4385P901L8192O8177P9314O1301K7851R12j5148k9754m3327m5649l4075j6984k97J5378K6667
113942b4178L0521L1174K9011J0071l2066o9250o1387r027M2391N7115M2447J9637q355m0635n5257l1566J5489M8967
113924d898N3196M2855L3122K2492O224j2360k9260m4519n3958m7304k0815J4607M1375M6900K8951j744k4885k8291
113906B1688k5015m0387p5311r4606o5363j525M4874L9233n23l0165l0238j8505j4743j0812J2989N1469P3493O0967
113888a02480L3287K2125L2404M2599L6774J7741j0156m9501r2820j15814j02094o2877j8917K3924O3527P9995N3707
113871a48576J441l5481m3480m7269n8392m7211R061P7885J06745R2319P5899P4707N9472R369m8576p6645p6093
113854g4825p3253p3007n5193j2724L1510N0541M1819K4883J8060K0386J4176j3107m9368o7426n6425l3821k1079
113837c28853j9550j9100j7379j5964o943J8977N4600Q1304Q9814Q3708O6779M2001K0572J5817K6801L9462M2501
113820A74547L1069J735l8251o2805n2868k9643l3423o3793p3158l5477J0207J2806j7773k6330J0506O0437Q7499
113803d4715R0969Q3295O2085K3580j8837n1597q0958j13919j30373j00523k9433L7976O2689M8059K5311J5647J4743
113786a06001O457j6782m4999n9349n2015l5164k3372j1787J4198M8483O3333M6618K1207J3367J7716J2263m176
113769a10003j2234k786J5407L4831N1853N1677J8682l1840n8057l9853k719J7210J1955n600k4807l5768k5478K761
113751a44769K1552J2693n214m138J1995J8443J0838P114J4339K1430K2582K2626K0894J3623Q761J2762Q317k3101
113733E0747n9964n9640k1720P980O021R26J6447K9527J4604q265p686O464O067k752N311K3872K5582J3487J3513
113714F0521J9980J5m2702o0709l5525r971k2628n1761n6418l7751k0774l059L2583O9625O9678L2355K499J0115
113696d3927L5865M6703L7493K3483J4629J2687J5730J1443j6981o2374q6563o1255n746L5273M3738L7140L0504
113679F7842J5913j2735l6478l0652P99K7133K8147J7940K3713M6044N3116K1743k5262m0216j0412K3243J8855j4419
113661A74314l8433m4756n7831q1856q3475m2938R327L3298L4163M5718P2779Q5237O7203L8246J7953j462l1817
113644A95670o0064o3274m1589j8037r559j1607j0111Q93J3792J4762j552k2473k7989j4977l235j0107k5627k4209
113626a19293j04K0145P127l3713o2053m5237K534L2627J6675k1335l6168j3966K2099N0808P2304Q5581P3869K9534
113608H1434k4027n5498o0884n7729n2697l6397q410J3511J4826J079j1603j2365J359K5533M8246N4543L8717Q538
113590c1824k3357m6116m9877l0786j940J2445M974m11K3488O5904Q2011M6494r528l0896l391L2155L3907P027j5627
113571F4652k2716k8876l7206k9094J14K2298J2534j2808j5451J5534N2924O5258M4117J88m8838q2474q4661n6706
113553a41211j8487Q123J6528J7004K2511L0672K1683j6622o1834p2153l7267L438R019j2472k2763q981Q631J8800
113535b35381L5934O8397R7287R8559O7363J2693n1261r9174j02927o2866j5749L491m397j7718k5038k5629j5282
113518b71698O490K4142K1425M597n279K866K6506N9296Q4832P2526R282o6301r1765n1569L863K0170k119k4478
113500a77214k4327j0254L106J0800J2471J2062K1194M3712N7174L2133k3440o0700m5464n08K6594K4738K2398L4574
113482d0951L8844J5005j8365k8701j4185R43O968J7386L6722M5449K6322j1998m7190o4566n8025k6972J4022L6934
113464g2358K9772J5206K1630M2506M5513J9322j2713l0019m1074n7660o3098l1776K5812O3561N1599R085k4410
113447i102l3773k9470j8376P55J5094N47m0586o7408m7275j476J9664Q30k4059k1029O398L5295N4217O1398N0633
113428d7723J9268j7535l6603k7994K017M1062P2600P6789M6729L227k0285j0389J6075L3777L2736K0169O385p213
113410B03092k6647n1370o5145n1154j8819j940j9189m6472m3426k722M1769N4895L4942P033n990q40J0561J5623
113392C4201J0756j610k0240m1276m9258k7051J8138N1972M7598J3515k2796m6161n5119m6591k1290L022O191q163
113374a54162j9074j7102q402M013J9484K3767J323l4294m9222l3929j3018l991M836K3241L5043K5151Q059P483
113356a80794K3967M1711N1680M9924L0232j334k1142j8620j4779k6411l1603l414L8413N0078L1007K3755M3064
113339H5734N0727J8358k4531l3134j0005N766o252l3756o0918q0160p8098m0146K3163P4767Q6267O3151K9848J781
113321G2562k0332l8752n2213n8265n5187m2670k4254p434K047M824N039N435Q133J6678L0754L9247K7130m583l0321
113302a22162k0803K5169P5040R1768O6144J9669j8610l4545l3953l2336l8873m7347m4853l0490j8467j7674j6910
113285a99233j371K2300L3351K9004L1085N2388P1161N4791L403m5512n8316m0147k2686k3707k8732j5392J1219
113268a26394J8391j4942o6700q9713o0170O68N2494P1982O0512L1453J892j2332r313o977k2834m7772n3880l1595
113250c05230m787k86j4085k0796r264P883J9448L2818N7488Q3356Q8510O5174K7368n829k4778k7204j4027O273
113232c7968J7741J1270l643q870J828J8493K9420L1594K5640J0100j2343k8177k2508K827K6862L0072J4567j444
113214A05461p954j3385k6592l7914l0573q393L153j1089l5653m5129l4211j4789P160L3497N6371N9773M3465K7913
113196G1111K6264K5471P209k3025m2144l9602k7354k0058j6919p070J3668L6281M7801M4366L2103J4501j3284m8648
113178H0671o7931m8344m745J9304P903l887J6713M6646M0068J486j7163M319K1680p015n6580o8771l1313J1547
113160e5412K0734L904p644l35J1639M909k8933p0021q3083n3193l771L2808N3694P5324R2717P9170L1182j6159
113142H7530l2967k9157k6643j9725R164M7650N9125K9930j3889m0190m1048k6756j0983q756k8690n5044n4371j6116
113124a70936K5345K7309q982m1123l8916j5584k40L054J3271L6881N2716L8280J087k5697j6693K2177O0265O5018
113106B7232K2478n0497j10333j16494o8041m166L8487N9123P5055Q6677Q1000O0746M3103L0186P780k1350l1090
113089A29896j1945P871L32k3292l2318j8940J938K0388L3298L0470P946j1685k742K1654K1113j6458n9104p4091
113071B4331n8561k2959K2820N6090M8582O329k6642k5549j7284l0623m4072j9748L2045O3688N4813K6087m621l7283
113053D7443o0506n1782j8865k428j9166l4903j6108K0026L3219J6741j092J357K1243M6388O5396O7823N2856L3292
113035B00934J6660p858m5893p3041o0119j9896p45k7094o8050p5803l9600R651L7101L3991J5754K048J293R929
113017i0738K0038K2793R283j8628l6977j8371K7691N3078K8794j3426k3975m686J613j5953j9609J1027M0597L1150
112999C701l24j0110R584K9890L1962K0773J692k3037l7390k3095Q697K4531J2634m170n127K053j84j4878l4151
112980f949m9266m9033k6937J144O057j5705l1553j6172J3510K6035K1192K2568L4227L3653Q864k1495l2703k2778
112962a05341r353q047j9068k8058j8908P164K7382K2605L912o02J5019K7189J9706Q247J4510L1432L3749J5746k585
112943C4699p453r908k4872m6003n4383m5285l2529k6515k0107j947K4082M1414M0501K7987J5360N892l367j1987
112925i4421j4852q792M194K0062L5405M7038N1811M7578L3858J2942r177k6334l8202m8692n6663n5225m4977l9201
112907a83648m5231m6968k1175K8952P1322Q0013N9923L1557N843j5319k5695j8496j1J4160J6601J2046M654p931
112889c9403k6260m3968n4027n3441m0161j3533J8286L8636L6909K0118N200J153K534K76m530m86J8728M0368M0547
112870e3054J1151k5661l8226j9613P364J9501J6873J2944J1783N259j1896l4264n2320n9234n1341k9938n105R086
112852b86691R083Q542K3562N0144O2999M3004K552k5394k3612m204J7963M7163Q4525R8709N2780l4719q8961o1063
112834b3618R855M2870J0597l9770n4294k9865N4Q795p386l6224n6591n0848k3550k75J218r566j2911n823j878j0256
112814b89466k3441k3281K456M3318O8240N7670L2162K8812M7013M5567N805l2845k5133J6557M3249L6531J7867J133
112796E2214k2191m9076n6530l9370k4256l0261m1462l4833j2809Q860K5999M0579M6078L6221J7431p69j6992k9560
112778a30727l1040k2538j8628k6208l3661l2479l1060l2281j8288K0968O1276P0890N1778L1428K5114K9360M0271
112761d5825N1468M4144Q735l0116m0384k9507l1910n1640n3533j7977K9507N5940N9093N3021M0705J9094o977l1390
112743B2448n2831o4318n3974k5978j859Q962J9230L3918L5449J5337m792p198j0402l8312p4291q0458n4830l4318
112725c68217l9429m7196k8088J3547M7645N1978K8912K84q169J2048M1115M9161K8629M76j1997l865J7834M5299
112707a70033O6128O1435K4001k3470m1991j5153L0464N1077L2019P66r978k250k644j7963k3211o14L0296L8619
112689B7498K3953J0809Q305q36k9091o2158p6009o2589l1399L293K8569L5118K3817P698J072P770K2934M2112O2069
112670D2935P3355O0581J7882l6963p3184p7267o5286n6699m5172j3570K6718L8717J1691j5598l993L2303M7377
112653c6173K7534K655m396p573k6298m9785n1677k7159K521J7525J7029J0061Q70j0722j9393j3326J2334M4346
112635a11627O1244N5048L6470J8711O818M256J4285K7463K4686N011n756R488L1510L3929K4308K7098L6303K0851
112617C20096k3068o0134o4048m6865l0077j6802p802j6079m2846o1430n0477k7843k6208m5705n5956l9889j1465
112600c06598J0171K2705L1028L1798J8791j589q865J3550N7888R2628Q9419M9512q41l6880m8606l4924l570K2647
112582a736K0608m333k1486j4861k394m895j4626j1003O767K1213K2361J5824R997P605O946M755K238Q205K3892
112563G5077K6854o469n7481p4282l7648J1841L1989L1210L2980K2456k4609q0768q9565m5581k199M233q933j7693
112545b08588k6320l6469k6114J1234M0434L0415Q96q516M311J0701P49q354o860l089l67P211J2194n209m2476o2913
112525c17130l5449K4427O8301O5413K9376k962r030M924J7987J5146m542l1132m9708m8173k7177k179R850O177k275
112506b88156m064N388K4619M4869N0847L4817J0580J577J2325K2593J4253o369j9025j4624l283j531j4718k9306
112488a59208k4115N221L7086M8543M3329M0677M1950L0953P358p773q190j5411l8174m6519j4770K8923L1791j0849
112470i178m6668l4124J0041M1111M0196K2952J1534J4487K5923L1678K1007N76q683M413K6784L7100K8283N652
112452B23084k7096o4016q3963o2983p692L8703L7287o038n1680p1942p0791o0668l9573j623M2054O8340O5997M4960
112434b7640K3322J2582J3679J9394K1013J8037J8336K2741J6150j3799n2719o9356n1429j8474M812J5050K3385
112417b4916L3333L6130K4737N410n904K09J2577Q277j7339l8505l1427j0979j2805m0381n7077l8587p407M87j7104
112398a81271l3284k9125p583J8382L4542L1533J6960J1897K2642K9224J7082L903J4052M0813N9307O5071P0233
112381A84378O8747L8959j7392o8880r2687r2823p5152l4192K2321O1988O0357K9326j703j8397k2246j4757J319
112364B9166J4812J6193R436L102k766j0240j2082O67K3784M1943M2792K4099o572l4287m7031m8394n0337n0289
112346e6004l1666M303K6525J1298k2883l9239l1308k3544k8832l2371k0834l045P494J1583J5140J6957J7781K7704
112328a50941M9597O5358N5599K8167J0223J2320J6133J957k5195m4727m6080l5503k3159j4069r849j0079j1180
112311a31428j0775j2728k0168k4485j2141J5174L8499M4227L6516K0695r445n2754q2875p3136l5329r272j0363
112294c29788j0215K1317P4021J10924J10898Q4346N6176M5500N4181O3481M8655P628l1366m0973k6035j2401j2649
112277B13700j7714j6305n499J5016M0612N2280K8356k6135p4915q4937n8324k4165o311o293j1333r381L368K3050
112259C5070M1948N1164M2463J4990j5838k4337p23L1333L5432K280m0841o1448n2335k9241j0477m637q435r930j179
112240d741Q330M22k5033m4359l8873j6730M296K1153L5960L5724P374l1346m4018k3557k405m201r992P976L7660
112221h6360L9356m5m9266o9555n0391p467L5127N5858M7641K8237K4496L7360L7432O920k9663l5017q868J3291P314
112202c600j5409l2266l6457l2216k1133n642N812R667J5352L0910M6424M2812J3908k7924o2804p2398m7337k02
112184a92503L4529L1101L325j1583j733N484j5016m9659o5731n2176k1746J6966O4230J06441J14661P8108K3603
112167F8301j1538j6251n321N742R626j137l1097o8163q8247p8938m8914j1589K8276O6538R0477Q8010O1154K4565
112149H1494m530j2575L689K9495L9536K1978j0042l5400m3914l2999j458L8775N7609L4358j4373n1841o1253n1559
112131a3010l1637m244J6571J1816j1783k3362j0524L483k092j3597o587J8547M3503N7557N6515L2944r320m4018
112113G0762m9795l9106l7509m5487m6310m0369m0405l9598k0302N869N426k0980k7829J1506O2207P3953M5121J3951
112095a18895L640N894R576J6538K8806M1121M8952N0220L9480J2293k6239o6243j00619j18159j00180m2428K5508
112078b90735O2984O0491M2898L2887L0658L0382L4165M1774M4393L8072K8736J6297r285m4932o4576m9137j3925
112061h853J1895K2653L1446L5570J4981k9780o3205n3827j2994K0918K7800J9054J0558J355j5428l3732l8162k3803
112043h3554m284K582n543j3199n165J5392L0458K9012J9416J5763J7196R937j0861l1937l8622l1864k1300q676
112025a15249J0857L3711M6250M0224K0154o909l7910o4288o8603m4700j5323j2344l6365n0069k0326M1123Q7772
112008a91995Q4257L4394l1496q4949j13033j14399r1357m7244J0303O4908R4226Q3572L9992q587l0531r886M3994
111991b67831R9703J20732R1519L2401j6926l3359k6405j7155j0603L120K5843M1301L0361q653n5571q2322p4893
111974a48738m6451k5826k7684l7994l4932j7888m102n13M725J9584L2827L1018K0294J8786L1498M3732L9615J9641
111956h2408k228j4718j9315k3940k8671k3295k900K0026K8556K3387J9703K1743J5534o306k5187j3637L2745Q6964
111938F053J10195P8513J983p5827j08288q6525m4559j8556j1628o321K902N750m316k2805m1147m8251l3245j875
111920b97947J8620R785r592o722J7914L0382J0803k2412l9492k8834M510M6720P4277O8406M1665K9711M5188O1123
111902E4105N3179L4160K6391K3203O533j4579j8570j6613m3918r9793j32406j02453l6893N499P982Q530M1280Q9874
111884a14489J08713P6348J4881l7731o1390n9325m2586j9252M086J9897K3328J5798K284j4268l3645n1572n3889
111867b22812k5961K3888N7624M2650l350k3966P268N0135N0739J3965p800J0496L9267M3989K6118L076j9225l4992
111849C1109k8240J581K4963J7950n021j7158j8787k2122j5091K0648O2407N9384J104o0518p2581m0305r267p366
111831g7310k1768k2630M714M6437P1145N8914K2030j0511k8432m5435o6284o8624l2695K3264N6563M6979J5424m973
111813c3192k791J1535K5777L2159J9095k3372q1586j16652j01953n6285k2513j6534j7647q450K534O319J3902L3846
111795c35808N1903N4287N1240N3330M3721N200l8985m6681j3549K4839M3718M7812M1328J8636q107j0092J4665
111778b543L0736J4271j5764l1224l0734k3518o334J9786L5297L1380L1104N2389O9851M7175o513m8291o1861p0290
111760C4917q9540j05042j01842q6605o5989k9052K9096Q2541R5101O1486J4017j0510k093K1905L7135L0324M303
111743g9848k6107m1756k9933M501L9083N1030L5921P132j8707k9287j7415J1037L2276K4825l131k1658j5888K318
111725g5607K0003L6782M6637L3461p5k3511j8918r510k4871n6032p2004o6749n9373n5988m2419j3665J6558L7997
111707c27284N3227O2472N9166M3719K5639J1270L192P344K3937L7703L7131L5741M9178N8625L0842k4306n3470
111690A34126k9268J1843J9547r184m1091n6278n8567m9016k0432J9808M5320M0680K4724L0659O2608Q2647N1563
111673B59689k0352p8603q5226n6842l1137j6295K797K3956K6217N331j9768l7060n0310n6232m2124j1536J5453
111656a72042L2506M8865N6780L2508j9328n8468o2381n1636m2912j6636L7944Q1780P2243K6603k655R33J2911K0687
111638b298L4270M6759L0010j8687n9587n5336j1967L3783N0913L3673J726j5648q829K05j1964l6756m8889m3893
111620h2515l4763k1417L478K4027J5154j0651j1498J8895L5155P640l2301m0941k2391o620N080L0337N6447M7092
111602a9792P15l6023k5780J5112M4058M3650K8881J6600Q077m19n703k625O206J2387J1524O090p15p120p595M614
111582I2142K2615K3440n150m0749m7267k0637N281M063j1049j1851M830J9717K2347J8253Q513j5268m9125o7101
111564d6996m6909O90L9256M3440K1692J597r30O748Q591k178k0254l4801l4583j4734J3644K7009J3262j0703j5991
111545e2150M937L1837M2412L3161J4591j686p970l074N949J1970J7562K7085L1236J4411k0870n2728o7269p1372
111527d1968p3360o8576n2893l3740j6999J012J7532J7842J420m821J8858N1634N8284L8502K2293K1344J5799o726
111509c4563k7662k5498o844N395K078o899r522l430N274R990J4139L2058O8104R5164P2915j213p3538q3818k8928
111490C202L6967O2961M6872J9056j097j8177l8180n2260m9843l6070k3936j4212L139K8160M5796M5361L1735J1748
111472A01222j4788l9682l8976j810M1697M5217K86n2726p1327n2875k5411j1850j2091j0897M895L2693N4324N3834
111454A735L4374J1845l085n949J0807M7387P7553O5259J0805m0420n0342l2758k7782m5389n7605m2240j2146K818
111436e5133j1721m4672p0815o7460k9341K5244O5623P1244M5799J1290j0916j5410j0949l273J5468N2154R0423
111419E7555R7691O0588K211m3760o5827p2729p0338n5538k8284L135K7091L1742J1541j8425k5628L656L8014L3699
111401a3606p583l8896l0907p380k944r447Q764N6764R4827Q5766L6432j5737m3737m9356m9929n7578o8819o7743
111383a81109m1174M145M1938N0643L6580K5460K9410L1186P611l7309p2538p2514m1681o121J1336N892j0494j9534
111365b38273j0626J0539K9261L7448L6504K6720O674j3784j5969J897J5560O509r000k142K5686M6027M6038M1540
111347D0609M3469L8045J2839j8954l6583l7899l1440j7658K781J4371L334j7209k0645l040J4925K1553K6940L6998
111329G2436L6104Q010l9180p9977r4591p7983l7263R793M2307N3586N6232O2447O5567M9802J3303k6786m8916m2155
111311B2736j4116R751M816k4175m2181k4008J3356L3957K9936K5129L6488N5659O9430P3728O2193K6591k0637m8292
111293B90361m5641l7673m4772n1862m1082k9969m2119n8041l9302M056J7517j8478n6751m8872m828L6016N8961
111276a12479O7524N1620L158n0595o8628m8042k2662j2892q427L84Q233J7474M1401P2494P7638M3146j008k2923
111258C5416l1740n1679p0901n2543M805N1417M4269n72l0596k0637M755J1799K201M521K7699M2862K1577k0411
111240b7758l6936q138L4935M8266K2114j8014m2652l7954p234K8824M0658J8358r265k837L7215O5581M5164q695
111222A41632m8072m6748k1397l194k748o613J106K1250M1203M8305M0356K5573J4877J4211K1543K8225K3369Q25
111204B93703l4086o4862p4612n9332k9611J588K9213N0907N6696L4526j1299n6526p8810p8444p1821o9842o9713
111187b32325o2778m2258q105K6557L9437K2237l388o888J5716M1801N5018N8161N1519K3758k2464n6582n2566k4007
111169a77157p325j6812l4649m0919l4037k0747m050J2794K3100K5628K9596M4049O5420Q0076P8098O1954M1098
111152A26117K0388j378j9960k1666r66K4581L2994K8221L0747L6933J6254l7966q2584p3721k3136K1231L6717L8144
111134A50950L8466L2027J7950Q294M581q017l2225m5603k9492L312K1809R544k1824m4337l7344p602J5587J3347
111116H9423k215j2688k4368n0240p2482n8428j3318J9992K0875J3682J8849K0363L731j0240j081J0443o291l8652
111098i2645m6898k3375l61j776j7418k5785j7376O193L4994N1308M4803K6481J2662J436j6135k9380j8851P492
111080a04631J6195p175l7384m2323j9503R001K4232K3638J5735R613O747K380l098j334P976R064p278k2142r667
111061a29954K4260M5944L7152J4226O5m111j0354k0401k1003o41L1196M3750J5452l1507m6173j1762K8173K8323
111043g365K346q294l326j2777k9740j4562K8246M0110j468m0405k6326R116R182j4561o691L6059N7230K7579j6400
111024B7953l0877j5365J0609M1129P1228Q1183O0719L0668J6566J2816n125m0505o8940p2335o1599n9013o8055
111007f8943o9566m6041l568L2478M0940K1766p419k6176k4074o522R632J2128O897R630K2863L0783K0823J189r556
110988e2736l701J0302J8214J2548J315M783L3018O6003P0394L8993k713l2127m9587n6088l9531k004K4771J7987
110970E9841j300r47J0116m274n1003r8613j19571j08969o6314L076O6699Q4889O2712M6305N5202N5960K2484j5579
110952G14j6713R003J8670K144j0265n9J5327J4780K059n934K09J9683M2934N0599K7619j3599l7365k1870J5939
110933A13875L9618L0268j074k9653l7544k3916l874N270L134Q301L3598O3543O9341M6759K2892J7361J3817j1941
110915C59775m8112n9110m0124k7204m1425n4401l3904R02M801k5292m5408k6712J2838M4090N9271N6930K8208k0059
110897A45064n4671n4994m4464n6329q1113p7502l0650K7735N9604N8821M3502K7604J0304j3313l7149m0877q411
110880a26839M6013Q1779P4391M4361K7614K6353J2857k1479n0272n3634m8337n7563p0020n5733j5347J3908O623
110863a65325j7295j9177J2276N4950Q3128Q5712N9659Q111m7658p3367n4265j3392J5309K3060K2031J7247N007o611
110845a0600k058J4970K3813K0066J9958K3591N299m0520p2963n3336o90L3013K9170J0306p936l1900n5689n2734
110827a48240j6259K3110L8313L9149M5505N1649M3352L2660M3019O5088N9238Q988n1681p6699n7966k3848M43J3084
110809H8905K0024J8745O036j0136j9761k7160m4600o8939p8531n9927k7194n736m419j2539j6656q857J5101N0071
110791a85573P4741O6263K7078j2305k2689l074K3027L1594J7047o331j9794k0338k3779m3115o8382p6502n7333
110774b99465k0817J6735M1142M0913J7806l389N154M0161P0021P5795P0141O8633O4924M9577L3470L0470K9599Q586
110756C39456l0230n9824o3296m9313l2250j6264l604r00p824j1753l554Q970J0763l370k6909m9609o0585n0220
110738a10316j9070J6467L4691K5956k314l3821n1562m3136r394K9877M8055L6301J2333r5L704J0985J3562J6190
110720b1587K1018J6050j0479m8799p0875n6066q660M8080Q8042R3543O1878Q296m0996o5606o2844m3227j6932J2237
110702i6927M0640N8015N3296K9487P229N277J7920K1023L095k0066k7861k1585j8090k5269l7669n1121o5079p0989
110684a98674n5021j7698K0492L8165L0311O398j8031k7139j5661J587K384j6112l3681l3687k2074j5316k0505l1452
110666d05714l3470j0538L6518P5769O8493J7160l0295l6033j2118R623K3187L8544M6178K7000q330k3654m398K5873
110648a96205M0429L6910K4435P188q575j0673K944J6864J5686j736k8760n6143o6645m4089J974L7396M0352K2082
110630a66566J615j9882m3855n4513l9278j6041j1980k0975j0028L1512P5475R3229Q7028P4030O0351M4834L2118
110613A17074K6057K0963J3582J3876K8295M0424K6759j0605m3697n1626l8966k0116j682J3926K2586K6228L5588
110596B18666N3644O3829M7128P657k9178m2829l4360j9734j4553k4073m1061n3777n9499o5041p0164o2506m0472
110579a66323k7075l8820n0198k0798M0769P6467N7465K7945M0457P5095O7171N140m7902m0882j340R328k1499n1829
110561f6829m7500j7815J0045K4252K8093K6935K7767L8570N5173N7366L2467j185r574J6091M6749M9486K3129q765
110543B84455l0396m4196n2482m6687k2357N534J2727r989m5940o4700m6294L62M2426N3141L7520K1068J4825N410
110525A14427j7333l9676m2327k7207j2051n797k889K916J1640K0671K4629J5675n288k2258k1143r991j0236k9547
110507e5785n4160o6153n8651l7291j6320q028o449R159M1583O0030L9734N519L421L2017M0645N788k8969j2476
110489a06386M4597R0737J02625R6601Q1353M0847k6139q1762q7530n3957l0196m3908o7282n2726M466N5185N5314
110472B1839K1785J1041M5502Q5165P9955K8883k8263o0792o6365n0551j4957K9386N7213N0637J8740j2269k5546
110455A91403k5771k6920l3068l5526k9113k3662l0485m2258m1593l0221l0018m5805m6868n054O0490R8981Q4940
110438a0548M0000n57k2310k8784k4278j2165q37M02r735k2814k5616q276K5551N6396O3918M5778J7134o200j7187
110419E9872j5011o199p059k8809n5683n3637j1137M0258N8334L5587K11k0926k4040j5556K901K7741M4627M0758
110401G2232K2670J0481J3707K1470J7888j741l2771o7875r3624r0323n0268N685M3362M8882L6997K6613K2326K3030
110383B8741L2019M9074O5013P4091P9686P7172M6735j7887q4369j09821r2104p0810p4373q7869q1903n4581k9431
110366b50617k1461k0103m346L3057P5314R2631O8479J8906j9375k4638r749l265j7224l8593m6814l2958n086J8481
110348a87361K3141J1651L410J4743L9471N3874M2738J7126L435J5907M2226N6685M5452J7163r832k6248l6325m7178
110330H0078n7695n7859l7919N2L9014N9139N5889M2713L3047K5104J0576o928j3625o870l803k1476n3641p5750
110312A0046p2365n2171l2889j8319J025K6814M5110M5634L8284L8434M2559L4119J1386q912j8513k8846m6689n6766
110294d2059m3229j4905P570K0312L4712N4107O9080P2185O2319L8763O648j6012j4809j028J74j6921l4599m0049
110276A42259l7472l0358j4719L367O694l798O91L8958Q7058J04021Q0979M3515J0188k6523p2684j07821j04059
110259A20296o1949j1017K5056M9077P0380P9220N8644J6976j3514j6509j0859j7757k6663j3747J8086M2227M6453
110242C54400M3300M1330K9892k61l9347o9699q1179p1137m4056j6384o086j0211n752K1652O2170R7326J14468
110225D20426J02783N7120l047l7844k6208J1168L9649M8175M7004M2602L1357J0120j9656n0977o6707m8923m121
110208E52921L4806M5664M2692M9690O1327N2424J7486k0660l8837l2422r366J6798K8472J5329j2244l1580l0922
110191G41578j6582M02J4945K6765L7244M6904N1609M5455L1177J9557J3514L696j2949k2890j4332O661K8596M8503
110173A049853O1878N7499M0084L8592O7061R3845Q0341L7904J0912J0300M818j8374k7274L168M6603N8743L4904
110156A650857R271Q280K6556M4711N3965O0913P4923R2746R8565Q4976O7463O3289O0653L1736j9872n0410k8509
110139B330113K3444N8567O1826N7357O9393R7224J26243J44316J44196J24359R4022O9729O2728P3766R9835J38367
110123C775485J82457K19638K41341K49693K49598K38511K14219J92360K00922K45854K92576L00732K75961K66716
110109G146063L03542L60364L87982L70299L31260K97401K72430K44924K05513J55606J06449O6653K9037j8002o2481
110094A0197040p4084n0536l4302n8296r4967r1515m2360R305L5212M8627O6330Q2197Q8952R5325J08795J25121
110078A0410844J43925J71624K02452K22179K37997K77391L47963M26989N02751N95673P19754Q50319R53594J027434
110064A7090889J088272J132246J132352J067239R38785P69140N89210M19691K58557R9174m4092j54646k56504
110051B4130313m00133n94758p93235r59399j106161j240966j322559j318964j273354j256330j271549j262558
110039A1330347j202069j118425j032477r22867p70888n99490m46519l25648k30412j55918j01269o4100m2393l2153
110025D285719k1196K854L8029P2128R7864J13358J16739J15226J28416J63516J98744K12869K17917K35846K56463
110010F234492K53179K32672K30188K55773K82874K94462L03413L18063L22620L05510K77551K48211K09986J58396
109996I927390J02556M6493j2372n6923n5723j1862K3966J0635l7941q3438j11570j25616j17842q0013k8124J1931
109980I401547L4658M9769N9088O1339O8507R3687J31228J70723K20116K89134L57709L92127L95894M18254N01192
109965A2644972O33412P65690Q61228R22873R76319J032779J069653J050216R61770Q26902O75533N17957L52367
109952B3291671J85058K7376j21924k76613m44783o19249p86113r37609j076161j205837j316418j380315j377561
109939A3961522j323604j257726j202260j150078j093584j040225r87735r10034p90192o50456n27013m28306l41352
109926B258957k66827k19774j99748j86076j63759j33440r5701m7354K133K9951K5480N936j092J4033L4555L4781
109910A092055P730k4202l4374k8078l6000o3837p2174k8017M1854P7759N7036Q364l4998o1251o1280k4404L3134
109893H49317O7745N7579L0811K5844M1589M8025L2009Q809n964j3333j7516j2627P923L5047M6401K9150k636k2208
109875A205965k5650m1633r2578j54203j74172j31839o1008j0153J131j8696n3458q3166q5888n8191k7263k4690
109859A64508n0453p6027p9528o3890m2895k5390j6032j7349k3283j9533O90K5126L4440K4471R316R79n773k1178
109841a81801l8797l8863j5096J4554L0974L5935L9995L9679K4973M159r81J2240J9874N273j5777j6352O585L1517
109823d1909L9376K8730Q011j5788m0437o6637r1765j02950q2932l0215L0732O7743O9612N2873M2410M8984O3016
109806b1146O5691M6896J4339j5251l2129l7366l5583l3423m1550o2045p1893l9240L2423R2841R4867M5646p776
109789d699l2758l0095q349L0141P2367R0698P1935L6032J2581R317J4606J8692J7889P551j1768k6809k7978k9506
109771B09847n2548q7293r5816o2338j8340N1J090J7920N1550O7341N0758L2094L9037N2794L8574J931j7671l673
109753B25308J9018K5008J8025R294o387l3815n6014n3256l3081j8782j3074L257L4566N4216L6530p600l9968l6036
109735A27209p879J2888Q361j2272k9868l9687n2488p2130q2202o3259j8506K7693N5754O5886O6366N7720L5432L215
109717H2233k3711k9687j2260J3806K7184J8958J072q997j1212k1916m6692o4988n2447j3553K0849K9394K1835K0221
109699d9911K9139L4606K6382Q734j0382k7926l8997l3079p229K3552M0521M2402M0264L3562Q542l3890o6317o5958
109681d5985m7260m4394o4253p6284n2891l008M2658O5308O4880M5067R270l0264n3698m8053j5188L2485P7337
109664a44273J01653R8876Q0092O0754M2561J8500p047j8597j2172k797m312j4347k3600k5499j2216K0170N3092
109647B10838N2725J2338k9860l4900j0350P974O559j81k639k812M325K2042K7508o152o0070q1156n3937k2138k2219
109628A7895l4295k3956L628K5144M4731P6958J02989Q6779K9189k9522n9046o1619m9212k8628r719j861j15M740
109610I4080N918p921k7735l6521m0133n5580p2600o1366k1019J2842J6207K499o256l999J1752M4792P9019Q1825
109592A5804M7228J2711J5004M6079O6579M7699q006o8836r1439n8720o178J4081j627j1165K599P926j3095k6734
109574a0090m881K1629J0017k4797l4472j0653J2920J9075K1823K6830J9797k390k2043k5666j3486J2206M1926M9825
109556H7570K1361j5121j8493O168J4371j1351l9857m3196l2670k8755k7288j5844r35J733q712j7636r767J9760
109538a18662N7302P3110M8251N50l2560l5890k2349j311L0952O6406P9767N8917J9795j6749m2656n2129l7504m802
109520G0438K6969M8793O3421O1795K6258l3592p6181p2836l5174J0088M6298N8460L4466p320k3953l552J4381k573
109502B06186l1757l4237j1714R278K2978L4151K4702k2528p7801q8923n0247p122Q598P978O857p69j8778l2013
109484e5161k9180j7373k838J6784L0192J1989l6943p3565o0128j0375L2574M8572M7532L7634J6257r034j7898m650
109466g5611J0106O984n324m349J2213K3495J7067O607Q685J5581Q329j0305j7942q627l874j9263m1204n0109m6535
109447a74076l6339r289M1369R0781J03644P9455M9959L3484J8651n625l2136n3288p0958p9637o3908k4543J3558
109430a18898L1066L3075K9236J8271N185Q496L0035L9956J7098j4162j6061P479K0213R372l378o002j4164l4874
109412D1943m4336k1054K0840N0378N5544M2966J7869j3998l4599k7207%K1032K0898L394k3413m9444n4652k5140
109394a8979J8132L2745Q537j5685n867J9759K2315L906K965L2321N7199M3828K921k8866l1185j0913J1935J6193
109376A61261p212m0642n1858l2561r305l439n44J9997M4613M3793J8442m056j3528k2884l1395j9521J0702K5226
109358H7089N501k2082k5672j3355j4338l2615m6071m0836k1539N661L6321N7881N8482M4129K8212P949k6386o0625
109340B7706o1939k1784K8612N5069N3336L6185J0222j7639k9784j8089n069k0716o0279q6199p4336m0286j4484o571
109322b46045k885J1052L4220N1111M5641K0230J266J3762M7117O0464L1643j1514k2044J2485O1532Q9627Q5364
109305B83026N5854J3311k6866n0602n7533o0173o5150o4967n4059m0997l4311k5207J735M2988P2533O6025K3957
109288G9564k7941n7513m8820j2218K8016N6668P3733P8543O1839K3775j1749j9354o958j0390m7831r3573j06439
109271d0648p5168k4638J7002M2506N4829M7829J3398l4705o1712m7262j0671J2063J0964O132J2347K0814K1404
109254c5516K0934K4906J8791j1568n0558o5392m5003q210K4292M6720N6822M9408K9966J9126L1354N5692O5735
109237B27499M6060O505k6102l1725j8480j6590m1732o9608o2501j9473J9444K4125J0058J1931L7015O0817O0372
109220B17615L6217M717j8295k6479k5204k5201k8365k3070j388K2754K4626j97k7197l2212k0936j7800k8651l0249
109202F85m096L2220M3903K4895N930J2678L4302M4343L6984K5912J7943P888m328j0759j1237j6894l4161n5515
109184A50693o7969o3424m2757j7649l161J160J4476M5737P1905O4561L0309J899m278M208K3971N6553P9580N7087
109166D02901o491n6824n5322k6213j4600k2778j7647J4564N0562O0915L8187m64k5198j7407P020J2031j1001l0393
109148C01842k2664p601j1562k1604r572J6696K4090O640q467k497J9568M9964Q0845R0099O1013J6933J66J2805
109130E96694J5251j0121l3580l0077j7481j9346k1783K144M5860P6315P5777N3199K3631k376j5118j0700J149M758
109112G34196q440l8070p5666j02372j00131p4331n1928m7449m4964k4577Q334L3555M1752L5540J8746R15K69K3826
109094C29205N2635O2092M8018J9431j9085n6510o1522j1110O8450J18219J10197P1693M0175J8091j2673m9802o6554
109077F60950m5972l927K5941K4528K627j2586l859K2767M7019N2445L7129J4045K678J2605L1799L8616K8561J9299
109059I54665K4239L4028L3694K5187J9161J5772J0850J1482K4206L3040J3707k9273o2981o8875o2537o0951n2357
109042H63057j7419L3307O5092N9986L5865K2004K6064L0384J7397n427r495K2606P1699R7778Q2590M7266K4389
109025A467143K3575L2225L9589M5987N1815N1922M4337L5293K9839K1556l083m8615r8607j21628r5996l4329K0370
109008A461393L1977O016j8843j4684Q469K2980K0497J6266K1342K7987K8207L0854M6207O3636O4376N4112O0607
108991A931399R2384J20224J13429P8558M4548K2816N677k957J5577O2210J08497J28180J22770J05714P9855M6618
108975C075499K2514K4590M4657N7016N1844M5643N5813P6535Q4898O5413K6684k989O19L3292O5500P5085P0057
108958C872670P0921Q0368Q6647R0629J06788J33830J45725J23198P9477M2467K3242J5604J6201K6642L9167L9047
108942D992623K6151K0971M0865P7389J06016J16064J22530J44366J75952J88792J64582J19866R0743R6306J24417
108927F607633J49348J53166J33761J07414J02892J33673J71516J69669J23268Q3522R3479J31972J48498J34883
108913H444694J25061J33241J37407J29699J38385J79345K22441K35203K31945K45283K68859K68054K39212K17474
108899A1216303K21088K23621J96472J52626J28263J37505J66363K03368K54873L26081M00276M47363M53717M39243
108885A4967162M41040M80122N46917O16495O68776O93533O92096O85658P08489P73694Q50700Q95312R01161R04467
108871B4825622R38694J004150J084433J169744J252902J322258J377411J441873J541615J672336J800135J895042
108859D1326215J955885K001338K042535K067745K054187J992410J891591J757369J577845J347062J091733Q48229
108847F1954144O15417L64019J02962j00159j92767k05854k14162k44211k60741k35834j85039j26255m6081O8440
108833F1293879J94328K98094L79433M63110N60652O67917P92846R55302J156919J376060J599106J836404K101605
108820G3675655K398213K738994L156404L669225M245140M813430N310538N700303N958706O060552N981884N699522
108808A29408566N191848M464762L583248K652692J749618Q78872O338q82819j772495k645897l504697m361667
108796A34768369n227140o091340o898468p545139p934377q045516p945107p731328p476114p206050o906095o533397
108784D9228298o051725n468145m827049m167995l510290k883363k342107j928880j634546j416282j243012j106036
108772A2648868r97059q99690q02589p06473o18825n50458n09772m88390m60684m12177l60699l31975l20633k96658
108758D892786k49006k00330j73430j63124j51902j38069j33899j43075j53749j54438j48177j46716j52587j51286
108744B632998j25458p6771k8452l468n080k1251m0885n9518p4832q4632q7437q1064o4327m2679k5534j4708m250
108727A792652L995l589l2109o3437p1898m8398m350L6860M7209J1369n0548r4590j01898r7252j02312r6735n6937
108710A068032j0799q957m9879q0981p8042p6782j09970j54514j67100j42875j10633q9101p3205n1694j9434J7778
108694a38156L8765K2043k2863n6509n5197l6829k7036k2152o822J2332J7991J3180J4562K4589L5204M9333P2228
108677f5337Q9365Q1105N4988L5730K6158Q486j4679j3743K3111O6562Q2562P1252N5071M6935M6658N3342O2499
108660G10065O0761M1495K0158J8310L5276N0153N1547N1242O3878Q3010Q5783N9016J4767k1476l5119l1926k5257
108643A231683k0979j8301j8338k2840k7278k4853j7776j5825k2608l2143m1013n3188o7574p1980n9960m5898m8382
108626F22747o0223n1542r465L8452N3260K9628l840k6158m4713o7496p6475m9948o41L3795L7966L3175L9790M8003
108608E46315L8116J1484j5411l5288n1659o3970o6495n7053l5480j430L3942M4755J7791k2854l8653k3644j0492
108591B69974k8231o9694j03084j01939o2166m016L9906N1211M3117M1075M8896M9452L6121K1419J0853q373m2157
108574A92364p3009q2527p4182n9402l6217K86L7393N4563M9435L8216L3224L4048L7916M4080M7539M1119K6366
108557C11212J3587Q691O286k861k0834l7717l5790n074L9382O2820M3145m932m5493n6619m3132k2693j2679k5343
108539A71956n8590q9762r2962o6269l0545j56K9329N8743O8986M3108n026m1718n0027l9556k0535J1818N7967R6070
108521D2831J02598Q4847P2341P3931O4563K5331k2472m3879l9329m1060o2059p6298n9068k3599j478k943j4054
108504H0203k0807j7878l213J6748K3547Q226q956j505K4069L5611K2351Q343J2034J8256O032j5899k2040p738N840
108485A63224M37k0032l7685l7827j9610K943J2456N530m906p109l167j250n273j6643l3616m2358k4222J5924M3046
108466a0138K9212j3836n3776p3945p1395l7687K4975P7434P2966J8984k4124j6575J7954L4933K2724n185m0444
108449d7923p2381p2853k5075M0906P3733O0258L4063K6779L7047M8329M9842L2946p478n4394p0697l7734J6934
108432C2302M2992J4945m8175j02087j10756p0725j1754L0113M4354M7670N5778O4865O3730N1476L5591K2132J5281
108415A77732J7934K4683K2320N616j4766k8127l8373n1314n5550l3299R871M2294M0611J7478N236J5660K7099J5932
108397B01037q507j4094R465L4575L5218K4882L1545M5781K8200k7221p3076p0108l8989k3799k8088k2931l787L355
108379A03458p701q097J7681M1170K8584j2275m5691n3610m6257l6472k3765k625K6035N1301N6117L3374L438N9
108361A24724K6151M0123P687m4986n8058j4553L9629N6131L4599J465l0626n8012o3914l5222O472K2494O327j2118
108343D8313j4342j5340k7595l3152j3291J6907L0874L1557L8970M6224K4630k4352n7637m6204j5164q166l1448
108326d9216n5867o0927n2069l9626k3883l423J7747L5942N1080O2575O8235O5251M7427R548l5431n4266k7368J8969
108308b5302L5568Q739k3593k1719P277K3996Q266k0697l3652k6384j8335k1956k4722q741J7519K3106m445l7762
108290a42837m3339k4247r427q881n411R450J9602J3904P513J8348L9998N4036N4691M4911K1585j4890m5388m8397
108272e8779k9229j4301j6440k2607j7256j592J4792K7351L4888L4809K7891K1653K2676K8724L1609K5196R803p001
108254A12187j3560l593J5035K4911J5142q270k8135l1287k0585j3604k4626m3914m1172J652O4112J03258R4883
108237B02434N1271J353l4256m8498m3324k7774j2620j113R503J6793J4787R601J7310L6032L6187k516n3790o8580
108219A02800l6491m64j867l0516m5238l1378j6610k9442n9177o6699k9702L0388O8088N8376J9122j1467j4935l528
108201i8740N234J0840K0775L1958L4269K7105J9705J7039J6277J5844J7135J7982J4797R999N838o671l7082p3112
108183D9192q6751o8042l6577j3523m43N346m089k9124m6265l2356L870L3904M4822M2876L1159Q812j1438j2066L63
108164a20330k13j9989l3738k2132M58Q595K3o965Q26K0193L6816L3976O668k5915l5536k0686j0637k0889k2441
108145b31916K2469J03454J64548J62708J05980L4309j8798m2344m3927m0502m4711n2785m9978k9783j300K3736
108129F1160M2023N2382M8163K6401R80n528J1845K9130J7406k1597n1919m1003L672M2698M6844K1835q780l2628
108111B43084n2174o7756p1087n8479m1598l7009m5742m9568l1608L182L4342N0860O0076O9655P2583N7897K7511
108094A64169o421l2627m1004k4881K719R121j9134m7323l0943K0846N2943L9099J3627J4458K8375J8525j8080n1056
108076I2413o0661n2418l4991r927J7957M0972N8937P2425O8853L5220j4573m4596l5457n107J4781J3182M051L220
108058A64281Q932O730r331k6452k9149k0040j3559j1878k691J8380M1415O1227Q1342R1767O8136Q650n0738p8172
108040C08850q3225q9844r1618o4709j4520K2593K3741K073j4950j1095J2677M0582N2616M5250L4751L0214J9453
108023B22839l548j9617j6565j6646l8889n5509k8473K4212M5625J7888k2933m7160n7949n5607k8491Q701J7774m410
108005e8758j6959k561N691j0281j3658K4081O5589O0050J9014q235q443m605l398O086J2968n315l6466m2451j7330
107986c4981M615K758o046m517Q39M658J9276M8848P1064O2752K8285r725l3995l8066k4285p871r769l2264m9531
107967g955l4330Q345M2026L4771o511l9430k8912J2755L8524K3423n936j0291Q985J6271o599l8548m9591l3241m499
107948h0743J9375L0784L4050L8461M3991L8696J7715m383j2837j4081k0967k6846j6906J779Q093K730Q194L0626
107930I7731N0452N7543O5011P4267N6998k669o8666q5882m5055J0329L8827L9179L1204K1531K566k5023m5366m5927
107912B27050l4391k9065l3574l0272m655L0164M3492K0515k3049n9662p4083o7015m4712j2113K6201O1990Q1347
107895G8168P0741L0511j9143n1448n3011k9974m99J4719M366j9393k5098N327M9976O6484L8732p358l4403k8028k99
107876I0370K8324M5853N4514O1632O2542M0946m465m5198n3002l7448l2022m7163o1866o0160m6536k1085K6685
107859A921Q3870J05309O5293j604l8163l0243r501p73M064J9870M1457N1575M1606J7840n488j8498k7078m7546
107841B53911q0730r8547p3301j9203J3688o172n6161q6241p1734k9564J0893L8019N5554O2669N1522K6118R794
107824E15K2362N5659Q3989R4525R1978P5890L6626j7715n3029m6401j7730m401j4465k6861l1118l9516n7117o6231
107806H6960n3101l0646j8358j2794M083L4923O3855Q0226Q6929Q3775O2777K8770O477J0126J7971j901m5738p7149
107788C27185p5816n7555l9395j3200K8415O4800P1919N6676L8823J5099k3715n2560l4195J7524M2695J5972k0765
107771C61907k4826r055m422p544m387j1806m6291p3861m5298K7551Q2120R0188Q2522Q4429P9605N5008L3466L3983
107753G03289L7563K3610J0023K3722N4026O8177N6035K9005q540n2879p9080o3680k5609r646k8067n0899n6209
107736F30841n4711n5232m2209r025J4172n292n5610r3546r5791p4171m5955j4949J5157L1284K6250J1804N974J2601
107718B01592K0017J6954M870n306p339r206k3459m4974m6714r156M9033Q3471O9451K3047k5017o0532q2364q4857
107700F9511o3206l0716j1805j5738l0039m0476m4400m2896l4904k4520j9662j5867L565L9051O0578M1751R02j4064
107682a72935J6336N9504P1959M8885K2110J9241L6894N0825M4189K5963K2375M4633O6571M8149j3487p2642q6857
107665B31713o4749m4008l6763k5921q410l728j1467J087M5646P8802N5527m120m2007m4076m9099p4022q0789l8402
107647a14786K3408N4769N0308L7391K3484j374k2587j0775K3428L0222q325m6324l5257J4446N9033Q0264Q4550
107630B41875O4917Q086o4055j01216q3077m1475j3864k489N550N277j3869l9936n0505m5129m0283l5667j3003K7069
107612a91794N3038M1550J0677k483J3409L7672M8752M4179L1629J6864M493p89O94L630N379P896J1296J2170R127
107593A57389L776k859p487q39K0480L8929K9307o955l6443l3157j0294Q7j1970k9632l8160l9927m1130l9438k9081
107574g7404q279K1782N7583Q9290J01255Q1323L2493k2091n0225l9030j3867j3759m1751n7830l3609O027J7795N52
107556E0255q547R016L2176L8207L1926K8242K9405L0418K8784K0078N01j9665k3232j3212j2744k9240l9559k3467
107538A29342P077K5942K3552N703k1068m6135n1186k8542N544K9042L5624K8439R190j1132p980K7474O4861O3013
107520B88760J8294l1727m8458k3382K1728M9979L4013j5877n3697m3787R07L9931N3515N0905M1660K4382K276j2426
107502C96996j2440K10K1041L9776L6814K790m0924o0145m6167k1497j1238k2907m7135o0692l8113J8012O6981P4034
107484B95396N4388M4532M1270J0376m5638p6230n4516j9570k2671o1468r3847r4320p0353l9211j3557m53L157N898
107466a36817L561j7975n0246n5737j4288M3005O9962O0242M2086L2544K5948K0105K3488L4878L8999K5315n362
107449A39708m9683r6939j19316r3772l8510k246o164j7949J172M1845O0977M0750P849p915r801j4918j6038J1173
107431a69777O2624R3974P0857J5948j6161n340J5631J0349j6125l0987j5772J7726M3269M2077J6740r951j7908
107414A07174j4598k5254n5154p7882o8452l2027Q547L5717L7796R265l1515m5549j8120J5585J5589o648p931K1058
107396a32399M6429M6080L6121L3415K6558L227j9494j6322Q909K8149K3851K601k0341l5699m1533m0609l6468k7390
107378a14915p583K1990M9379O1943N5440L1961l25k1885j2205K2201M2623J8758l1680o2380n4147l0067j3413L696
107360d0609L5115O5104O3251K7239j3661l6618m3114l6553j0176K9440N2422M2192K3914K9101M4679L0175j8937
107343B42964o0652o4946m9667m4567m8448m2292k3478n084M938N941j827j0921p105J0352K4098K7303L6153N5888
107325D8650N8236K0284l2822n6097m2347j9416k210J5244K7044J6051j0455k3657j8439k0573m0428n4343m4992
107308a80270k7596j9313j1458R425L7000N8404P0231O8497M7293J9218Q059P588j6945o6178q6121m3275J7423L3847
107290g4171J5053J5220M1225M8322K1228m657j0906k3183m9968n1926q177L3964K2372j9273k6285R202K9466o26
107272c3120m6918o1744m5997l0218k1440j479L2068N2905L8612p14l2178k9578P776N4801P7167O0264K6962J4326
107254F1495K5469K0204l0589r5383j13618p2849k2641m206N5K5212O1340O8625M0873J4038J0953J3982K694j2315
107236f661j0269P765K5534L3295K7767P298j6785k0771J007K1705J7473P93n857j1808l9047p1572o6579k0305J7769
107217a09248J1090j8575l1851k5850k0049j4405L575K5625L2161K7963L4984N1933N3576L2953J2491O040J197p961
107199F5649j570L0627N9217M9444J2337p351R679L5287L3553K245l2352m8853m9959n2397o2473o4395l9119M411
107181e6020K9321J1350l0754n7090m9465j8808J9022N3077O7747M9152P387k6560l3863k3369r223Q522L0646M4153
107163A5225L8655K6984K9779M2134L3855j1525o9798r7265p5907l1200m334j1278l3075m2917l2532q523K4441O2615
107145a44666R1071R0817O2237K8457R559K948n821k2784m3089o0684p2352p5970o9886n1744j8378K5923O1938O8534
107127a23890M7080K1325Q392K945l267l096J0044K1437J1746j0162j2975J4756M5858M7669K2066r6M29J0140N800
107108A16201j2805k5840k5801k8511m2342m3452m416N8308R2325P0196J9031k0475m0691n5460o3901n3680l0357
107091i1670j5229j4007j0292O793K7217L6488L1314J4665r023k7160k1630J1547N2580P5102O8233L8840k76l9095
107073A34397p2357r7297j07990r4363n4015l925K9705L6544L0230K9536L8821M9266N1571M3537L1131K5494L3427
107056A03712M7719N1948L7921J4073n450j5366k0386k5932l1103l0044j9778o603j170n346r991j0073j3593k6688
107038C3850l8353l3962j8209p376j654J3394L4578L4120j362m2685m8606j6616J4483J0604k3492n5907o0107l2466
107020b39766J1319M8941O5005N9589M4978L1524J6857p381l7160n1320l3892J321K1295J2434m533n843M343R187
107002e3102J1479K6923N0620N7079L7448J3397O013J1048J4732J5251J6371J5966J3618J5325J9125J1479r798k6792
106984B46182l0637l8939o1926p1189l4442K9278O5329N3620K8706K4217L1711K9899K4270L2309M7900M7592K5233
106967D49113j540j6830k0830j9016j2575l020L904K185j1701l7832o6970p8949n9119j8445J2744J4327p875l6537
106949I1034o0059o9217n1325m822M4815O1884L8349L875p230R634L2553M0143K6906M07k4809l4055k4272q607k418
106930F2786p671j7532k8926l8806l5165r796K1994L3486K0487M676n3l159j2215j5634n127N299K276k171Q819K5619
106910I187K7022J6715J6343K5686J9002j5415n7293q2169q4647o7393l0681J4772M4338M4471K8132J3611J855j2542
106892h9006k2234j6201J070J5459K2185K5191K4093J6676R831J2625K0340J9537Q241k548p855j5106k8534m0293
106874d6529m2753l8448l0701j4430J3115L8485M1089J6610j7217m0078m7319m5750l8567k2413K632K8229M5643
106857a98402N4039N8509O2876O5781O0774M0590P018k3810l5285l1570l2989m4980m7453k7015l141j360j3053r330
106839a18801J2078K6033K5342K9561L9951K6249j9645n4442m2123j1801j3988m0296l8475L19K5694Q817j4035l083
106821a62645K3637K5456L456j0806j1066j8715l7482m5664l5378k5003k4466j7858O723L4449M6729M7943N1785
106804a48905N5114M4434K0638j87p808o273l513l913r174j5925j4383m56J2473O583j4307k4391o156K9308N7717
106785b9124O7445O1988M5066J6019k0155m7927n1824l0929j008J9334K5933L0365M0848M6559L0753j451k2514j6222
106767A63156Jk124k4579m2287l6071j3041O925J4240J5303K1027L2368L5962J7325j9117n0597o2355o3590o6949
106749g4403o4131m0386n216J5356J6218J8013L0667L7616K6154Q972O2r211l0248n0944n2145l7969k6234j7371K913
106730b52287L4274N8558O5856O3512N8470M9366L7202K5719J0233j4692l5047k7395M257K3266L715l8207o8231
106713a431p3077o0960l8423p037K4114M2569M8795N3576N8276N0890K5249o017k3693k1836j0915m063m278n064j118
106694D5557L823Q54j3043k9287l3926k0925j266L110j8881m9800n5607k0782L4278P5503Q6116O9170L3000j0120
106676I7774m0665m8001m6472n5986p0155o6905m8943m3779n6205n2345r448M4196O4436M9053L3183L6912M4698
106659a68652L5432J0217j3594k1404j2096O22n11j5318k2455o642J9738L6022M3382N5322O6020N4177J9200j1199
106641F8261j6574o904j591k852j130O142J2492J0917k414k4071l8457k9236k421J4803P603p013o775J950m588k8252
106621e0110m2599k9544m323O995K646J893J0631R104j7769n0974n5053k3038J2692J9862L675m684J2227M1288N6768
106602a00313M4501J1043k2147l5011k5673q565O776K5293M7740N6150L3964p797m2054n7034n7733m3164p386L6228
106584a45182N7075M1453O288k5909m6296n0152l2754n298P766J224j134J6611L7799M3994M8164P0392R6835R4776
106566B15652O1459K6477O168j3492m1987o0867n1304k6086j5305k8945m9154n5597m5476k8819j5374j0621j7030
106549a50301l0774l8991l0189j1206m442k0012l9293l8798k1839p521M678L0638O0765N9408K0782r108N185L2922
106531a88096K2846j4878k0317K5586O9580N7708K88n2792p0649n3187j0412M0826P2524O5271L1567L973J501J7067
106513a594L2637L6220K7530J5574Q865M997m748j9695k8788k7437k2618j7192m287J5597K7252K0409L295j2405
106495E3612k4651k9700j7480O206J2987j0730l7272l4796j6244j9334m6690o2159m6844k2627j1693n870Q513K2783
106477b81989K2382J1436K972O65N230K1302M0981L8638M400l0342k4569K2676P4319R8541Q9118N2660L915k8933
106459A23402k4451M77M770k2288m4509k9510O556K4376J5325O002J5274K9824K6474L850j6386j4903L933J7079R909
106440A35204m791k237K0471L7457K6161n108l0557l7961l4342k8312k2070j9199k5904m0666n1321m6672k7808p903
106422a65558k749j6756l4003l0356k385K2998J8895p804k6651k2956r689j148N568J6345K4029J8299K806p237j20
106403b18472K3984N3212O9378O1698L9786K4447K0906J1392j7483m8865m9531q720M4889O7441M0540j1000m2616
106386F0986l3169j422K2767L2195L5092K7499n04l3659l8884j3716L287j0819k4848q45M1382M5707q10m7782m7581
106367A4876j1340J4415N338k3233m3760m4952l4642k3785j2383N097K1340J6413j3655m1617m0407j9980r214p580
106349b49069J3253N5404P6852M6414q846l6804k5758j0290j8528l8751l9964o783M9442R8765J08235O5561k681
106332G6452m6090l5063J1725M9747N3813L4175J3231L22o509o468L638J8750K7348K4866J5664Q73k4026n5801p9946
106313G6701q7336q3315p3060n1851k1281L58K731O388L6106P7407Q8652N9164K6199K2049K9896J2942k9139n8477
106295C4134m9952k2250j1692k6904l9003j6005L8083Q3285Q4224M5593K237j9994k3142k0506j6648r474j911k465
106277B7610j5567l4096m2414l0804q355O734J3290K9260N7689O9886M5070J1137J3141M7481O4163L6889p293l7571
106259B46250n8213p7325p4959l6287R545K2550J0219J5534N1686Q3899Q0461N1689K6025Q600j7998n9412r3074
106242A89190r3472o8104n4076p0600q7933o2640M069O8333R9574J01912P9528K4804m2491o9269l5492Q011O330
106225b326k3909k8601j181J7199Q286n515r868j3569j1825J5377N6897O7872L1500j3778k7182j3485q99j568j1633
106206C1792k2759j6838K2834P7727R9192O6668J4382j8539l5003n3033o2449m3303q549P122p505l3712n2869n7014
106188i1856l7696P742N9827Q8484Q1797N0335R799k5761m2939m0176l3461l4601l2867j5937L002L602m415R002
106170d6119M7127P5285O3261K0060j9437k8663q205J5823J2445k0706m6718k9543J7177M2686K2527j3760k5317p470
106152G0453J6980L3794M3290M0501J3478l4489p5644q0641m7901n589J5606Q748j0302k4094k6355j6063Q518M3429
106134b6281P4646Q7572P7032M6838R481j2473k670K2585K4361o948l0990j3273J8101P705m4604p8731n6519q980
106116H6852J3434L508j1327j2945k437J4448K6775J7662j3000l7574l4956k3671l5045o2413o6324k9140K2337N1952
106098i1864M8841K2896j0794l3342k7175O576M5768O8947O9249M5977J752m5205o7796o3482o1530p7529p9252k7188
106080b75151N9355J10191Q3718J2351m0620m6831k3099K377J3581Q811k04L722K1404L0108J3315j0513r515J5384
106062c1616K9360J1098k1760m1725m3942l7630k5207p783L205Q0m574M936K0658K2112J0583R403K7282M2259L0376
106043b885m658l8267m8999k9894R362M1923L9334J711l5791m0129j8393o038k1721m7835n5162l4203J7K4438K6635
106024b40555J5076J2794L3859O5031P8006O0642K8103K567p787p573m745q783k6226m7808m9908k1641J6260L3398
106006f9290K5192J1243L205n353j5937j5130K244J8624J7114N362J69M67m757j0343p79J9031K2932L25k5911k9795
105986e1387j6137r976k0473k9894j7713J4106M2198M4437K0412r790k6581k7345k0238q935P250K2667K7699K1567
105968c8133J1276j675k0141l6865l7462k1438m197O130J5711K3384J5059p200j3693J4044N1002O0844M6638L9757
105950A03041M5845L5929m328m6715n5408l0048k39R912oj5222k2495k1584k2189k5335j4024K3394O4093O6904K3412
105931A14937k6346l9398j4962J6490L1765K6156P42l8046o9654p0789l9835J268L0403M0654L4540J8129M222O270
105913B6546J9355J7790j4937n8822p4525m8471p128J8119K4992K7907K6115O985k3081l7714k8099j8194k8207m2956
105895b14325l6310j0642J2681K9510M9449O2272M2825m815l9605l2983r2L2264O1180Q8532R1068M4990k7098o7650
105877H1251m8955l610J8273M526j8252k6417k4446k8575l8831l8092j7774O253J1531k679j6356j6435j0216q688
105859a77492j1002j2578j5718k2260k6436k5379k5982k9154j8858J5398N3060O1261L8389J7457K0710L0378J6469
105842a11737k0693n2166n7609m3324k2672L611L6417N9059M9339J3708r394N307L2924K7151j6847n1996l9248L318
105824a94852K7823J8868O533K0462N1275O4588M2209j11l4020n0377o3101q0424q4078n1739M920M6746N6397N8007
105806a60874P5330R3159Q2449M6522J4706l97j0358k0589k3644k4810m2610p3272q3217n4722j6770q075k4417k7850
105788b59439j727K8893L6184K8789L7897P0465R1723O3484l920n2144l6874J9425N2046K7756k4725n9170o3098
105771d4435n2154l4421m940L1149N4240N3515L9691K8986K4244J6774Q6k2017l6973l3279j4631k261j3428l7573
105753d7427m6070k8687n819L580R930L1531N7134N6418K7301M434R972K1726J0634j1202r641J5905L0698J8515K752
105734A51684L811O899r219l6392n2651n4237m8475l1727j911J9793J1063j3328j6196R705L3221L1438J5255J172
105716A9905j3280l1848m1707l1750j2552k001l512j0472j8415k1116j0370O572O085j8089l6570k2111Q154J6645
105698b16432M327J2103N7348R9830Q9790L1248k4709m0411k3153J422K1619L3338K2065k2117p5321r3184o2698
105681a84935j8548N905K0081M5114O3993M2425q593l5575j4651K0388L6122M3672N9508O1392K3134l2888o1841
105664F4703o0288o0221o6961m9548J660M9894O0301M2250K5986K1573K0215J8686K2585L2870M1464L6690J1065
105647B12924k7159n1862m4067j9761j4557l8326o5073p0969n8500l6369l687L1027M3011K6770J6358M1833Q0742
105630B2335Q3813M0621j0894l7304m1394l8398l1660k4149k9410n2047p1743o4965l5743j0490n847j3046j2297O492
105612c26126L6238N7999N4226K3984j3823l7120m0200l1844j6438J1686N0368P7391P0126L5845Q689J1840L3178
105595F019M5087L7312J8441n889l7030o5889p1694m7793j5111K377O374J4761K9556L1805J0039k2008m3897n2219
105577a59759n3042l9421K420O0634R2567O9681J6893j4206p642N054l622k2723l1919l4802l8574k5867J7064N9977
105559a07287N9885K8652K2943N9205Q5914O1339J4585n195m739k5971p0034r2367p0552l2952j2816j0559j3580
105542a13529k1601l3868l4854j4319J1912K0066J0023L828J6106L7096M4209K4082j5381n0265n8968l8623n425
105525b19511J8578J9172j260k2359k0614M879K7203K2341j187j5604r561N844K0940L6472M9420N1773M7629N1291
105507F5446O1738N8524L2163M12j6770k1287k2859j8253l009Q846q43k4562l3959j6253R931J9993J2367L431o6
105488A14990j1181m0733p3007p7287m6641j0911j86q265r429J41L277j325N057K3732K8712Q054j2557o544J5574
105469i8529K5339J4384p376l2777n3029m9762j9158Q731L822j9399k0213J0616M0800M3247K5165Q184M236J4952
105451a00767L3039M0177K2719q196k8770l1248k0892O076M9456P4602L7878m6169j02434q1108j4481L4262M7282
105434h8574M6665M0547J6918j8766l9509l4189k1693k2478l6447n2837o3667o2105m2802j0540K0244L7114L4184
105417b97935R159l1206o3612o1532k1811L0827O9303Q6375Q9016Q0813N8766K4835p588k4109k5480k7155l7847
105400a49181m4457k9301Q74J9190J5003Q682K1296M5154N7475N1027L6678K5656K3796L4348N1077N6232L9884J3481
105382B76914q941l0164n2721n8724l5216q825j9344n8994p4337l7520J7287M2479L2298J1370m718j3127q349J0493
105364b0139K9371L8214M7573O5125P0214L9856r319l6580l2498k7581m0934n1096l1924O331L0786K6306M386j8809
105346H9282l6303m5980m6234l6982j9064M751K4272K5793J0642J846J7631M1615L7898R61k7455p263M4043O6065
105328A45518K8437l1825n8226m2494k1669j7496j1865J0156K6331J1222j8420k5965j2253j3511m0735n8755l8737
105311a70287Q41K5830L1549L1391K4300N381q157K418K0361J4463o473m8M4220Q5657R0813P2804N4042K8546r319
105292C38332l2621j8401O592J74k8901l3881l701K3017K1110R338M981n858k7268k3906K8057Q6312Q4314K0600
105274D48290l3955k2596L5813Q2114Q6686O5249M2087K3444Q595O441K4840M8430M6579J2729j8649j2359J8615
105257H62353K8303J009k8383k6013l809M929p198k2055k8326k9137k6601k0887j7746j7475n138K6661N4310M7946
105239G92743J4714q190q88K3692M8115O5131O4485L7445J451r587J0002K9727K9671K6122L6292M7320M1932L0439
105221A280616L2815M7465O0336O7636O7003M4805k57l5170k4275K3782O5820P4028N3035J7320j9934m1689m1546
105204A671790m3042p6171j33055j73256j74314j49402j13783o7716k1721m390k5591n7405p1588p4069q1868q7214
105188C17205p0495l4848k216J6737K6768K9775K4164J6968J5584J1458p737l3770m7137m7409m9750n1419l0794
105171H3084J1587L8866K2814j6970l9574l3830j9557p333J4234M7399O6469M5703m963m7400n6847m5254m0244m7780
105153b9596m4659j0897L7124N7527L0200j7585m2156l1907j0289M155J7988L6615M1189J3075k9807m6316k2781
105136d8120J0377J8522J379j7545k3355j6822j579J6111K0489K98k8292l1300K838M6629O5927N6732L7755J7579
105118A27623j1312m7383o9355o0935l4420j6601j6023j7656r667n08k218q889n941M632N244r348k2043k0001j6847
105099b31648l3238o3621p9876o5553k9197J6950P1653J29072J64981J55231J03067L6870j5345m0333l6129j0458
105083G2426J6757K4337J0943k498K216J8517K4168Q162j8829l9792m9703n4888n8124n0804k3083J9750N5155O0836
105065A5546L5348J074j3791J594L2192N0398M0118R603j9824l6659m7108n9541o7491n5112j9026K1396L9239K5072
105047d6972l453j6793J75L4429N7178N0953K4536J964n29J3689K7784K5916N613j9245l0061k2842j3232j6752k7504
105028D4854k5939p107J0640R977k741q588k993J302k733l878J0572L4265M7579M0147J8617n761k5178k9330p415
105009I6290L2040N4825L4003j3370m2290l5265k0684k7707m5970m8426l4593k3846j7230J837L0528M3102L1107
104992A4351J6458J1840j209l3336n3523k6929K7643N2632K2478k8851n3815m0391r311J5892K5141K2563K0832K6918
104974I383L1193K1608Q018J4266M1282N7795L9741L527j4793l017J8892K5506O611l1360o7146p1296l0731K8092
104956H7571N5615K9381j9485l9450j4373K3389L4434J4858r306k0138k5325l7981n4655o0845m7679j5663K6450
104939g3202N7307N2796J7367p477J0757M9689N9329L0349K619L250J2080K355j7321k3864j7221j1904r644m420%r85
104919A31860k26N544M127q728j5671j1606k4992p0408j04096p4726m507L3785J7463m627K586J3748L801j435K5817
104900h2291N9034N6743K9603K0950L7409M4955K7100M583m708r370j9979k8649k3268m824J4565J7718r581n7298
104882G2692q2279m7453K6849P6571O7100K8422O100L228o864k9804m3270l6370k5788k4260j6531J4364M9482M7481
104864G9670r92n2141n5128q372M4983P0001O8683N7576M1315J9485P19q203j6187l2220m3095k8093M909K0455J610
104845A64975k2243j0061L5326O4694M0388j5716m5516k3289J5031J9597r933k8003o629K8291L3433K987k8818l0636
104827A83878l936K5920L5322K0170k617j1930o329o228k5629m9240m9530k1798J1303K9041L2436L1947K7809J1784
104809B32373j6031m0397m3562k2722P362K8431L0840J1481k8542p3213q8910n4126P446M4333L3594J939j4280p987
104791H029Q304K5431L3539J8314j5756l6393k2375M235J0484J712P801L1730M6500L8705K1577N213j3330k8183
104773A45537k5540j1527p521j1447K509L4913M7649J8512k2315l4922k2751j5003j6856r523J1294K8138L0632K7032
104755A68811K6288K7728K9142K8730J8269r660m4819o3361n3981l0301j1743O64K1745N7270Q8342Q6592M5889n946
104737C79659l2224k2800j573k209l8580r1126j17216q7365k2485J8510N397k4032j6780J7965K3646j5169m6953
104720g3335l0008R505K3603R740l440r773k2539l3348j7014K4745O0169P0356O6257O0197M8676K9952J4494Q522
104702B36759M709l803j4787k5517l4683l4821k0676n981j0452k6530k3901L711K2225M976k5321k6636N015L4783
104684E9070L7711K0574k906k8879m7641l8482J489M1192M8306K6955L415j4644l9000o5546o8442l7040O030L4857
104666f2981M6866M7874L4936J2228R80R037J0267j6952m7932m2533n309K3565K9397L2048L5845J9294j5167k9015
104648H2448o498J5608L631k3130k7245o305K0051M6579P0014O5413J6526m5051o9810n0473j9970j131O653J515
104630G8825k0405m1198l4939p191J1464J2586J8227L8819N5590N3347M1540L1598J8219l963k4537l0296k1629j0104T
104611A55849l0719o0780o7070k8547L0566O4714O1368M5801L3785J1812k8257o4769p1286m6802j1202J2279N612
104594A2354l1792p2488q2132n7135k3239L277K7840M9820N4582M3323M0138N3626N7934L0384j3633m1246l9839
104577A1774j9877K679J4351J1866J1472L1035N6443N1724J1509k7461m0233m3916n3623m5528K837O4028Q9506O8107
104559A96693K3696k4913o5949p5809m0470J2036L7487K8911J3439O440M086J1089L4088N2043L7205N800J550K2548
104541B79970J5021m1120q8133o4667J0637O7504P3610N7873N5612O6106O5935L9593p610n2674p0703n8872m1857
104524C06225m2324n0847l8259M984N4951P9862O9647M0237J6878J2981J9568J7580M744K031K3686N0256M9763K3029
104506F44992N522J6945L0390R609l5870n7359k9104J7825L3639P695k5653l1575r534J6089K5932J9553P744L01P20
104487F47861P072J4863J9732J9862J8301K1628L1473L7208K4833k789k3127j9518j884R263J2942K5644N0796O8431
104469I62591O0948L5122J0831j530m936o032r036j2878r693O461K6057K9437J1226j1015j9189j4821q446n02J3472
104450A058067K6166K3110L904j3211j1166Q711L1995M8162N7099N9479M8040J7858j5324k1823P062M3229N5638
104433A426996M8983M8899N9094O0630M8898L8997L2801J5438p828q557J5399K4163p357m9975o4450n2804l3668J25
104415A595784N5559R7255Q3636L2615L07L46l984k7536l8158j5597J4763K7050L0145L4282K3611p231k3898L102
104397A882051M8483O3907M3834K4437K6693L5250L2157K1436J5658K0066L4306N3010O2556N3263L6768L5655N2661
104380B542191O5366N7033L9674L7885N7704P9194P6230M0315r965m0193k7592J5674M9393M2068J391l4803l6816
104363B954749q458K4135M1040M1511L4421K5286J5217P844J2287L5969P1349R2018P3358K4241j1636O49M7911Q6721
104345C568612R3361P6503M7556R727j9081q014M2324Q4528P9139M5372L1018M8168O7978O8042N4092L8915K7531
104328D355771K3404K7217K9817K3736J6898J8561K2459K3863L7711P2244J01293R9583R2228J22792J76496J87678
104312E431751J33336O9877N7319Q9721J24969J45354J58378J66852J69140J69714J66864J49857J25390J20627
104298G279149J40488J52530J39513J34294J67812K11417K14847J82694J66270J87344K15360K21316K12924K07451
104284I833409K04266J98102J93958J94408J90196J75351J58740J52804J61455J82881K11833K34777K35659K14429
104270A2542268J92379J91615K11326K27935K19359J89439J65517J67472J84110J91235J88769K01476K41339K90134
104256A5404373L25218L40800L35646L06249K67992K57085K87199L22862L21085K85489K55694K56535K82155L18899
104242A9567281L58570L96064M34213M82254N32284N52160N23722M73415M41886M39118M53608M83699N25182N46888
104228B6210344N22926M82090M82649N37849O02934O35531O33089O11259N83275N64700N64513N68021N59398N57792
104214C4116370N94341O58650P13560P61661Q43681R63054J069740J138939J210851J322519J449307J549850J626491
104201D8019014J702715J779376J855309J956152K094484K228571K311994K366827K457478K602047K757551K889840
104189G5021358L012830L153716L317854L497865L688350L881277M066707M243241M412579M565166M685964M767568
104177A22314475M799815M756223M612222M367745M030755L594098L060970K483258J935905J451696J013707O12520
104165A59033389K73909K1725j51800k63861l17387l14880k70917j92905o8742J09749L27059N61723Q08509J070259
104151A60625830J345248J639592J976722K372356K807074L244884L680496M154758M720382N401278O189097P072677
104139B05230394Q058830R151199J0303453J1403751J2319507J2956210J3264845J3205585J2734543J1836815
104129C20465132J0555743Q977918P196601N289516L311001J288515p68665k850120m937887p017529r078762
104118C32431463j1095450j3013971j4765258j6275131j7460330j8241607j8589095j8553416j8235543j7721168
104108A68480494j7042919j6190785j5144877j3908352j2529474j1093809r683281q342488p092111n965735n011375
104097D6475288m251240l655886l168660k748232k381262k065332j795887j570257j391160j257534j154976j060868
104085A9973994r59655q52546p55656o89973o65172o64003o47050n86939m99524m28139l94115l79391l64406l60352
104071A1727073l83910m17728m25805m02452l75834l61086l39509k94285k41530k10056k07676k21768k38309k46378
104057G360747k37111k13105j89559j75206j62561j45743j32398j25293j09749p8630n5266o7299j05684j34327
104043E428816j37495j34192j44159j61437j68585j61779j54705j66353k06462k63411l06982l14264k92935k69427
104029B546630k57427k51112k45623k45870k53060k59557k62470k67881k75330k70935k43691j99513j53319j15576
104015g54734r0956q1049q1385q0348o4899k6414L3806R7159J32849J25132R2862O7208N3735L5760J2579P128K8428
103998d93139N2540N6050M7365M6605N2457N1834N1054P1846J16611J56157J56865J13043N2923J5729J5442K3461o14
103981E86229n4005q3414m7128L0383Q5465Q5739N1777J7701k212p578M04J5314K5574K5974J8740K799k1904l7358
103963F92500j5958M1981R4373R7550N5083J4079J3921M7201P2849O2546K9243P705J0959J6807J688k5124l4823
103946A182580j8193O637K3053L2511L8214L1064L410l4087o0448o4232m8843k3890J621K0677K9994L2188L4710
103929A186966M3418N2761M4605P635m0147o4215n6694m7605n7812o3944l8981q395k2380p6709j08692q2364l4165
103912F33282j4546k3392l0285k4446j1565J1298M0859M8969J7347k4416l3832j6157r989k2164k2711l070Q997J446
103894E25625j425J2570J8143J783k803L5281Q7993J04636Q5659P4035P9637O2088M77o3171p7508n0678l2175m0853
103876H19314m7743l0244p215l864q603P880M3652O5413N5825L2853J5720j495k7554m8189m4844k5017j0693n526
103858G79670K756J2373N457k1639m6722m5853j5039L1397O7027O0376R30p5337j09181p9310k4729K963p090k8393
103840E09656l4265j7327J1879K9485J4968k0986l8285j3671K8274M9147M6730M5265M7623L2537N97j2962J2295
103823F90960M5281L8612j2039o3600p5215m6968j1717q95j8644m1301m1273j5142J3838K2935J2365m495k2634m3805
103805D26263n9381n3114k4348N457J5783O190j2508l3603n1555n5345l9554j6904n788p104n407Q733K9161M4844
103787A71820M7107K8738p175l6740l3316k980J5976k67k9865l3590k407L6776N4397M5598L0533L4892O2182Q2422
103769D64101O3704J8803l536J5248L5880K1942k339Q654M7568O4864M3550J5235K013r871k9560l9554l0319j8123
103751F68260j0471Q889L9518M6509J1382l1685m2253k8136j9930j7750l943J1007J316k3769k7305l853Q865j3458
103733E73193m6767n3927k9883K686K4368L1752L0844K8921K8252K5131J8848J6188J7665Q275k1435n1636n2053
103716E50422k3633k7l983k1507k5994j1895M081M481j2097k7765j7698K4284P1795Q8287O4120K2369q844j7376n297
103697F53723J5312K3928O662k5660m7078m5154k7210j536K7498M5779L5942O030j0200N615L2121L7755J8987n168
103679G47346k2912l7016n0826o2612o9279o4814m1375l227K7340L1754J8793J2730J9930K2462P958q661l208K5658
103661E50041N4173O1638M9130K7564Q63k7629m3286l5091j9357k4430m6835m9079j4956J9080J1760k4316m2395
103644D46875k6961o273n914k2898m4727o1471n6725j9288K9668N1169L7211J6117N140o209j6681m93M3351O8575
103626D30466M1647n782k0715j738J0621O9r693R19K3877M3678N1177L7157r00m3570o4045n9536m9232m3489l5932
103607C04979k3336j0839K055J9099L1126K3068k857l0260n2550p2955q4420p4755n1219l3891k3396k064L0306N0815
103589a094M8878L7813K3940l311l7863m7444j8675J7155K7642K3648L3690N7068P2855P6793P6196O3312L0157n40
103571D80220O73J8575Q412l2218n0164j2637M2464N9923M0126K2866J8576r08m5758q3154q2225n4799l1753j8482
103553B79737K346L3392N3509M7843K7295J0441J076n797q135k347K768m183j4955q796J4130K7361J7719R845K9797
103534E13046N8491N0984p15n3985o9915n2756k4622Q143M1268N2182K6777q841j8836j1310k3136n3809n9249k2510
103516C51207J3515Q421j8360k5884j6182j7145k1470O187O3445R9123P9057K6380j7130l7451m0247k7988r156p238
103498D09084l3400o3242o4264l7952j4170r751j1668J080L3715P2357R3309P8521L1966k0710n3766n7690l3432
103481C19987J3187O1087P5057L8023k3606o3446o0772l0873K446K7910M3809N0722M9309L6849R419k3969l7952
103464D87187j6689K1383L9836K3860q784l2975l8981l2175k3335j9555j7031o882O271M367j3631j8114J2577N3619
103446D20948O2201L6692J5706K0361L1677K9989K2053J6246K322k4732m5077l9106j3644J4810M3787P1474P8694
103429G44401N1522J1564l484J3103L1758K8391J1592M499J5312L2089L7436K3770j18j5462j0464Q543K5236L0411
103411A040099K8121K7493L1463L2320J9729k697j3780J071K5405K8894J0260P71J6051K8630Q913k4774k5363J9803
103393A252409P1302Q5037N6181J1118k5292m4285m7601m0381k8135j5384o305m236o581k951J5422M4834P1829Q5039
103375A472020Q1358O4924M4940K9891J8513J876k0192l2684k3866j933J7836L4565N5341P3347P2373N4623M4997
103358A987929N9543Q3517R1397P9607O7374O8242P1949N9187L0299J2141L0657P8163J16595J17378R0447O8067
103342C112492O8968Q8311J14215J38406J53400J55574J53778J62302J81473J95404J92368J78639J68578J67392
103328E231300J64280J37346P1240j7228p6701o6283o959L2841J2364l9320o8140o1658n0177n5168o3662n2824j8681
103311E072570K3404N2079N2315K8808R038J8313M8559O6544N7125M2476N1839Q8771J38127J88266K31349K57956
103295F427539K72698L03240L67530M37838M66926M50939M34173M41530M39455L86881K98629K25463J85188J48255
103281A1286284Q8374J4156n5611j19820j85368k48841l01148l38768l63084l80011m03140m40883m75995m77626
103267G598519m42327m03199l86596l80140l59467l25942k95240k64830k20863j70100j38028j35343j46697j52098
103253C777649j41187j09046n9714j5551k137j7351l0891j9892P893L0021L5950L3896M0736O5668R5307J00231P0106
103236C861688L5575L5081O3835Q0115O2609L4857K7351M2539O7590R5094J15784J14649R3328P7071Q1233Q9797
103220D978196Q5895Q2047R4839J08538R5911O4109M6856N5700P0679P8807R0226J10719J26688J27250J18475J06803
103204F441738Q9609P0985O5418P5170Q4348Q6591R6979J21922J39203J28008J00624Q1915P3182O2642N9118Q3213
103188G860665J27984J59447J61014J51276J50621J55216J55462J57348J68499J79998J80948J79790J92179K13498
103174A0193945K20507J99744J63714J40565J53749K04032K61929K86815K66832K33557K24685K40872K55523K57423
103160A3303892K59532K68781K74204K70229K67495K70931K68457K53587K40459K42010K48808K43933K25098J98850
103146A6836266J68843J46586J57878K15976K97276L63558M00227M14358M07875L80439L53951L64880M27566N24025
103132B1459704O28535P21246P82749Q05924Q16835Q53403R14611R59561R67965R70688J002919J057507J110389
103119C3052036J165911J242700J331076J402176J454957J520121J614077J717755J809427J895072J993697K107802
103107E2306807K220129K310774K369241K394890K389423K345072K242314K067579J831992J564477J289955J024775
103095G6357428P86456N87753M20318K65920J32003N6872O5642J34864K16947K91009L73711M85622O25002P76568
103081H1576115R31893J094765J273044J468975J673808J872510K060345K255039K485028K763705L082524L431896
103069A05969647L821012M273575M813354N458004O208857P023346P800084Q416276Q792636Q910731Q763656Q316654
103057A88567832P543518O492096N282375M031161K795023J587430M21404o87390j744127k772609l786705m780287
103045B02949721n747004o688523p583771q352988q873052r051908q902131q541489q111397p682815p229246o676429
103033A09508968n970634n111693m145287l134484k127492j138706j56686Q32709J834981K847099L845035M765941
103021A01849751N526046O073944O413223O556095O469093O093332N422471M541491L577532K617234J672308P13719
103009A57526239k72235j264355k237067l197542m179623n202222o243140p244632q119504q755761r063465r053455
102997I2693238q849415q586544q303677p954031p495473o926545o250600n469521m631546l835854l156521k589012
102985A8644499k095241j670783j335918j084796q83692p11633n69882m55007l53328k64168k02367j71494j54741
102972H691449j38033j24477j19928j21106j25858j40450j66209j89922j98326j94751j91585j92572j93558j97188
102958F397486k14309k48410k87996l18768l36013l38950l20741k77002k23426j90445j93075k14888k28954k26000
102944B778509k13709j98726j82452j66413j46291j08272n0793l743o90l1252m7861k6235P472K0038J3411N747k973
102927A645767j9761l2295k4311o529k885j2418j4360q832k1526o1957j03513j16701j03192q5149p5161o8979n9813
102910H28385n0287n2148p4236j06436j21706j05552p7625o8240p8177q1933o8658n4826n1482m4257j7817K0478
102894b04517N4856Q1373R9870J03083R0733P9799Q2237Q4717P0211M8885M4298N4718N2880K5390q745k3339j0838
102877G25611K2460O8957J16171J42927J33879R5759N1251J7630m242k2099l8876m8513m3522k5155m051R580J3518
102860A211285J0279J671q093p374J6583O3103J11603J31501J02250L0262n1626j06904j21262j03568o5102j1688
102844A202920M0169N8414K4596l9705r1566j07620r3790o3444k6811J592R577N908J1512K6243K6163L375j4841l922
102826I68770K0595K6765J3769Q407J9483K4897J0089m849R301N1621R0887R8309P0425K4192j9836m8108n5071m0112
102808A269534o772L4720O7686P6352N4908J1276l4537n8252m8493k1402q228j9997l4193k7247p939M24J480K1385
102790A270705O1623Q6437P0919L7344K2904K7958K0531j5743o0947q4293p2262l2711J1856L4744K5603M109L8J8009
102772A426824L6031M0428M4273O3549R1425J08628J08059R5866P6923N4809M2155N3836Q5090J07579R6470O0022
102756B591967L6824O0064J23169J82773J99068J72020J33701J08860R4638Q0017O8460O8689P3630O6344M4654K3568
102740D128446J1253j636k2499m1232m5949m3879n1000o4871o4067l6885L446L7638O1399P8131Q1833O3222K9479
102723D122829K460n235q05M854J1957K5061M2141N8355P3645R0145J08692J32675J66017K01801K26200K43719
102707E504511K82493L54981M24809M39415L94893L43397L30208L44928L44724L07426K47486J90575J45690R8376
102693I753912K6776o9599j58476k07101k27579k69541l58025m58078n16008n20007n02669m96966n09536n28004
102679D959099n33715n11660m66012m22985m02422l90156l54595k87665k12917j55004j17383q9727o2269l1888o045
102664I14656J078j2324k5956k0929n337J779L079J3929K6319J4362k0116m0451k5749Q60J1318J2251K2824L6672
102646I08265L4675K0327J2562J1923K661j4926k1942j1969J87M883Q475R751j0191n7371j00670j00069n4917p462
102628F34192K272k6290o2039p4834n6352j9163J5282L1078K8346K0105J5699J0828n02r834l160J4094J7380l995
102610E33107k8660l0351j1060R083K3639L8252M2645J3826m4440q9597q3700l5074J6024M0807L8039J9373k736
102593D49177j6201j3828O82J6957K5842J9719o475m5128p2550o6974l0187J3882L9965L8020J5610r202k0816j7599
102575C20894r315l609j571n798j9937l5444l1739O60M4616P1373O5749L4471o20j5976o477N503k868j8176n443
102556C86293L5358N9732M1893J3855J3275K2947K124m2949o6537n2630l0621k1693j3476M371J9378K4278L1697
102539D27295M6306N2011M0627K5057J0828j5663n4784p9446p2973n4127m3809l3692j1473Q453P614m367q221o746
102521B32890j0208r240O569K0513J3765L846K0299N2557O2938M6087L1844K7859N912m2019p6515o2168j5032K4075
102503C33972L8314L4893J9969n73j1380l622Q654P805l71L822K4395M3981M1155M804n5745j04694j02356n1321l882
102484B27820l400l3982n0601m0625k4334r461J4484M1216M9396M3849N3709P7874P3916K2592l4311m9700l2792
102467C25650k0537j5520L897K8938K5963m544k0306J183L0045K7623n773m0510n0231k3016L3554Q2829P9536J9540
102449D78321m9480q2492q0320o3008l1021J6533N0873M2927J2359N196K5052K7824r414n3271o1782l4408L304L6005
102431B33198N7254N5769K9857J423q492q022j6660k9554k5457o143Q4j9179l6721j8651K9996O6166N3333k601o1575
102412B94025q7870p7513n0527k4169q03K1537L8764M5972M4937L9905L1114J8635Q378P552J5638K4032K3525J0935
102394C84067q328k3369k7645k5576k3863j8751k392J9215K9616K6596K6782L7367L9930J6082k4155n5177o5823
102377C04576o0023l8927m963K1449J3885k6982o9056q1387n9259j9133J4287J7053j5827n4981n8779j9977K5604
102360a12440M4059L7863K5718J1847m076o813J4343L5765K3758j1423k1074J1690M0603J8891l1922m9507j5176
102343A2106K5881L0859J1215L718J6511K7501K2291R898M675R869J7986J6010n662l8576n6746m4147j4535R227
102325E8081K4756M0241M6226K5348j2946l6453l1305j2146R864L6729N5806M0833k334k6889o418K6235K9048Q873
102307B73549m398j1838k9098l7649n432N0576P4347M7984J2465R63m674l1969o9562q6143p2245m0744n638J9738
102289H0232K0463l937l1437l8930k3155N011L2237M3501L0276N782o537o223j5182l6932m4397k1951R195K7233
102271B5249M3252P2030R3437P6103K5901j9705l6875k9445q686J3093J7330l520k8342l3406k9785m5158p2610p1967
102253a3104k6711L1424O3573O2774M2591J3827j2831k3635j8915j7116k6337k7239j337L6375N2362L5352N381j3910
102235A62524j6384q251L004J0736J0391L923k378p184j5300k5320k2636N029M4931O4348M6905J5510N723K0829
102217B96400L0902J6617p154j8293j5544n698J5288M5927O0834L7037j0289m5566n8997o5251o2514l1563J9429
102200B01565M9259L9478K1314K4525L1985J7066r10J7445O1495P4126L3093j1529l427M3530O4126K5534l7027p0838
102182E80810o7781o1388p4591r0874p9724l5577J7993N4461O4171N3450L6332K6132K4341J7762l398k5625k3159
102165D13335Q909M5217N7719M1697J2007j2360j5213Q526M1036N1890L2527R088Q755K5205L2255K0935M925l072
102147G83381j249R907K6390L3850K2695Q952J7103L9164L6394p938o1572q6334q7180r3094j03930r0813n0065k1437
102129C74224l4874o3850n8855j5005K4194K9524K0294K3962L1050J6707j1173j9793l086Q875j571j3565n072J1528
102111C13514J3347M218J219O20j1869k7625k5847j3863k0091m2554m2459m605L0493K1377j3329k2133N263K6990
102093A92666J0523k7142m8976m2374k0072N114K7615L8857K8292r46k6627k5806J7K1712J0364l0110o4271o3594
102075a4758l6305j0505M375K2743N1180P2287O9048M8912K9514J2893p495k1908j0748K1198L9631K2330r676j8328
102057B64388M210L2295M4711M4365L8363K0845j1213l9593m0389j4238J3203K1023J2731N737J0936K4699L2828
102040D64901K0635j1980m1747l6947J1063P3822J07440Q7580K4856m6293r1285r6663p5565m9826k5695N155L9063
102023C58514N0249K0935k6737m6348j5677M1923Q4538Q8859O0344K0279j0619k3599k3427j7839q391K751M364j1049
102005E49070k9289k7470n855J3916K6210N1270R4763J24012J09371P0375N0084N4270M9529J9107j4035k6285k3958
101988A085085k1876j8698j1624j3276l2063n1980n4803n0650o2835q9498j04616r5599p6422n9224l3951J2107O6912
101971C86989R9067Q8832M7741P110j1350j2003j0239n529J7223N6199Q1120O8919L7590K3008L0399L4751K6521
101954I66348K5852M2930N3561L3203n185k9220k9279k0641j3556n533L05o603k4755l9427m6222n7404p6912q6833
101936F80629p2068m5264l0883l2461l3167k5594k2334l3339m8795n3232m5206l2385j5833P039K7252K6808L5l6919
101918B14283o1785o4377m6970j5827K0707N0919O3595N3298K2473j6390m1776l7794j2405Q942J3104J0546R962q48
101900A69657l1174n8700n1397j4924R108k245k4269k1338P480L5282M5457M4200M1293L5093J8097j0795m0197n1084
101882I9544l4283o583M57k4159n4317n4474j8559K5979M7081L4202K614k0069j7593j820J704j0128j1050J3362
101864b8092L4287J3239m0799p5075n6366p304K7459L0548J6211L055j193L259J1156J3739N698j0394k8137l9108
101846a27817k9876Q499N9301Q2627N6291Q164j0511J5415M7560M0042r793o2409p7089m4651J0638N0431M8888J2595
101828G8305k5117l7644l1835l2588m3094l6599N137N9788Q6334P2345M2943K4924K0322J9362J9972K1251J1347
101811B55153j9547n8846q1609q0780p1543o2655m1151K460M6808N7165L0274M017J2441M1396M4105J11n6128p3154
101793e1483l9124J0694L6902L2030J4767N216J2682L3976N1718M3498P121k7719k8053J817K2384N884l1068n0090
101775E1152l7179j4168p179j7374k8429l2714l7354m5176m2864j6335K8048O6215P8088O0769K5661p773j9835o459
101757b906J2261J2554l003j0284j2R708M239m159L029K3795M5297O3437P2975N4878J893n2638o3697l2208l896o563
101737A24700j9540j6687q431j7472l4783l1232o115N496j9846n9145o8124l2367J8570M6660M4424L3334L1408L5607
101719B6457L6477L3979K9927J8936J206p840L59O546j0137l1792k0243K1663M3411J6296k3496k6632L10J0722j2091
101700A14058l6785l3017o392K0806L6673L6510J4273k5849n9779o1298k9018J1160L0573K2980O457Q74M452j366
101682D5312k1781l4551j7173J9617M1189K9586r86k8934m7487n6995n2941l3831r818Q666K2761L4636L4211J2364
101664e6155j6637k3452K741M2196O9716P8595P3551N4325K0560j3780k6688j1105J6239K9443J2414l0667p3100
101647A48196p8733l4159K9516O1745M4424N907j9720k8438l1930k8586r880J6155L0518K7969J7898M914j2486k6859
101629A16451k5731j1569l10Q11k281o974j5765k1574j2066Q772K3679K8876L5159L9040K0174k2180n5900n4546
101611D4066k8580m102R361J5100J3783Q747R094J2670M952j2083j4694K358R518r628k5384j0612O690j5604o0118
101592d4466o8348k4739K7164N1770N5962N1981L4867J0776L998J7257K2974J1976J1465L2036L7235j198n0748n9881
101574A20081l0350q908k0111m3102m8187k5582J7951O4159Q8263Q1549O4044N4545L9504j115m8122n9693l2529r314
101556B03083j7748l7144l9977l3484l5823l6712j4284K0678K9934r49m0601m9122k1161J7703M5405N9936O5099
101539A14833N5586K5871j2003l2444k2130O707L3821N1952O0381M8510O802m6001o9392m5959m015J7967J5966J1892
101521B18344J1517k836l5918o0812n0541j4638J1048N629j7113k7357r116K5962M8165L6666K982j7752o504J5649
101503A33375J4310j3623l7764l4140r412J7080L6648M7951M5988K8018K047k1319l9053m9580m5690k5822o892j2174
101485B9948m4833p9996q4022m2113K6265P7266P8270L9671K526r295j0893k3902m1235m0619j9341M495J7384J8904
101467a01520J2406N922J5466M6612P6172P2132L1351j7802m6269m2904j2551K2514K8362n593m2021l6194R63J4485
101449B1531j6207m7375l2913J6821N7952O7676N2606K3627j0921l7080m1885k6430l372J3284J4095J804o444r6M570
101430E1243j1568l0170j3648L2793N8986M3452K4986L5842M7120J8535l3450o3023o4074o2630n8215k5000L2809
101413a6012P3123O7666K7786k0269n4554n7644l2969j6946l8938p2998o7020j5907L5725O0671P0985P0397M0663
101396E3759q042k6450M399L6022J8840k8652n2598l7804j2599m73k085j1072j6072J562M3164P5710O6273K5525p305
101377A22102j4143q442m315j853j64k311p568j4439k5853l6959k9537J900L1238L1995J5864J2551K1952J9749M054
101358A15821k219L441l482k5870l0282j145K5921J3508k2153l8106k7413j8339k1176j4508J2689L8676M0842K6519
101340G2724J7057J7178J6128J0577J0604K2019L1170J3537l7412q8834q7789j6945P3827J11451P7310K1019p293
101323B56328j1153j8609k8058j7446O641J0184j4374l1368j2940K1733L7189K8876J6130M072j9994n7041q6932
101306H3238r2128p6655n8417n0413m9030l6960m132L0814L4314L843j6553J3629P7281J18698J09224O9747L3484
101289A89984J5383J9054M2165O2928M7440j0657p3181r6778p9670n6280n3356o3952o1631l1871J1278L9817M4520
101272e4807M5140N8101O5413L7856j4905m5814k8893Q494K3451P104j6691k4491j1481Q909J3005j0596l8757l3589
101254a2551O496M0305M2028L6756N4180P4534N6269J440m3641m6817j7329J9662M3322L4840j0085o0989p4633m5024
101236I8763o853J3845K2418K2575k461n4376r4513q4188l4723J0063L0888M4500O1728O3279K7723l3741q3613r3022
101218i1708o3106j6474K4290M8722N4744M0855Q550k8295m5957l1333K636L0113M0852M6064N2279M2275j969o1288
101200E1250q6948n7050p911R527p599k0124r086J557q897k3814k2863k1522m4160p3227o2896l083O1960Q6492P0069
101181a68325M1645J8936k50j9054l1334k9214j2967O874J6932J4103R995J6323K8154K9635J4679o489j9658j6914
101163a06929J884K6686L8801K7204K634j5242k0770j9297p465K2424N8502P2457N2772J6567j6758m2995n7473m6852
101145a3850j3139J3564P309k0249l6763k9535j1161N934K0359L1341L5348L1971K0862q03k3354j8217K8232P8804
101127A06653P5029J1705m5724l6190K4820O9837O1855K5594J930K80M881O326Q699J2783P115k1598p2357j22563
101109A19075j38460j03188l9203P698J5479P870J8872M5959N6511L5405L985j1836j2917j7644l5702o0026p4551
101092a82673o4137k8603Q450J9590P906L383J7104K2926J727k0227n898L4651N4296L2741l64q398J2507M1692N8545
101073E218N1403K1924j0477k3019j3688J581J4723K9304L8202K3269j3374m0664l5820j3608m249j6181l4594m4857
101055f4907m2705l0159j5447j1782k4326l9805l5468J712O1874J10737J06772L8140n4464j08429r8132m9911R85
101038b55315M5098Q4126J08364J06936Q3471M5612n544n9930q9481p5777l6572n786N023Q710J4734J8441J5036Q515
101020A5661N812R793J6013J4248J505o869M784K1647R974l2485o5650o2264m3957l8559l1608L895N1693O8403M5272
101001a2692J4752R39K91P392K1212K5515K234l0468l0817P211M2688M6287L4726L2597L5618L2481L1259L8247L6115
100982C35587J0828j8919k5854j3088m750r947j9041k5226k7964k4137j6132j9601m1943o1150m8327o411L4209N3814
100964G1948N6384M9105L3511J8347J7900L0390L5836K2720K003j2414k2812l7959n5356o4038n8910m3654k3105j36
100946A9760K0906L2730K9444J3827J91M357K5191M0319K8299p121m2200n9189n7960m6628l5145l5787n0635n5266
100928a74907j8207N0132Q9585N5969j7538n4401k8338Q509N77l8003m9442j2945L2725M5259K8145J3094J3278J2731
100910d3777m345l0239m3830l6391k0717j3425j2570j080K5067M3238L1002M96j1181J2822M9574O6749N6760L2867
100892A01020P048j4750k6447k5917k0204j6375j3615j2253j8669k8007j5360L4386R4350J16670Q6184L3196q359
100875B72898l3248m9382n3158l7508j2296J583k916j1197n900J2184K5030J8482j080j5997k1038k6025l2305k4995
100857C132j668J0378j0554m1565m2800j6629j508n883O557M8778P1947L1221l9823o4388j9065M5765P7264P1583
100839A22742N0110K4144M21p680K101R169l394k2580k4838j2320r072k4876m3234m7965m4238m5537n2097n2363
100821a81507l8322j0025K9481P2204R9949R4144N7256J7348L779J9378L9998L9005R453l3346o3903o2635k9363
100804F2894J3352L4567K1263o372j1249K1826O5113P4845M0942k709k4394l4015n7350q5137q1368m3265j5843k9607
100786e6507n5001m5425k611L2418L7274K2604j245l3401n8265m9020n458L9249N8636N6156M2681J9550m577p963
100768a0905J4596L6493L1418N219j8000k5623j9615p261k293j8168m6326n9355m9915m4889o1205o9640l1208M4243
100750c32434J05494J19858R9159O9501M1867J6773k619j1126o970N615J5600J2774J213n010n180j5185l7834n0245
100732B1251l7168j6343q453k004K3177N4022N9583L7581J0998j3110m2505o1658l9305J7643N7910M8917J3751r967
100714A14320j6415j8408j7054q098K394R469J8561K6709J5618j7020m0625l0063l803J249k0662m4247n0575l9002
100696a17652j3004J7743K8917N728k6580k6253R080L9300L9783L0889L5820L9411J5332k4262l8632j4483J6181
100679A7318K1578J1390J6916M2307N6406L4245j0219m2442m7805m0075l4333k9351k0958j5805j8441j5028J2454
100662f1843N6985Q6987Q0465M7903J5894k454j2164j8365j6346k019J6320K3917J6158M315K778J2930K2205J8402
100644B92068K326j4097k0158j5892j0829j4420k6661l7497l6627k5289j7805k9467o1140r5622j10830r7903o5274
100627c85117k5021J8843O2444Q8931P9302M0714Q336O273J7304Q338k0837l5855j5284K2838N0306O2946O9132O1728
100609A15321K7311k1874n1665m7361l0864k6234k5730o661K9495N5367N2926L1704R263q959k2982k7822k3085k0998
100591G152k8535l0127q623J9530J4413l4933q8500r9036o3158j4052K3460M9528O6912O7249M7489K2815R653L651
100573c5112j1591l5135m1855j2853L4734O1183M7931J5240q480j9547k8518l2538k2688j1747k3758n2171n9742
100556b36647l2572m314n602j6370J599M3635O8305N5630K5377k34j9039k9703j9845J4069N4219P8983Q0149N9335
100538A16975K3161j3625l4940l7401k6966n069K5657M6876L9256J1638q257j3146k0032l2629l1525j1065N738M310
100520C8956O70P366O724j6349m0868m0505k8030l4004n3505n1466j8370J4000J7675R18j4063k2973l5405n2484
100502c21713o1127m7043r957L0737M8550L5538J2181M236J5277L1488M4878N5782N7674L9474N836k0428k1569j060
100484a01246K4719M0957M0596K7806J7197J9598K8018K7739J8891J5257J9943J8863L870j3637k2474l1478n4143
100467H0476q0456q1806m6558J716K8594K5369J3600J5417K7805K9977R769k4807n7011p4166o8613l8070P269M5399
100449a86096N9412N1404L4646J7027j242j8713l0874l5578l2831k0601J725K6086L9139L4752J9251L803n766j2706
100431e7162k5564m8741p3744q2299o1966j8163K9915O2215O7291M7185J8129Q30L964J9083L3618M3583N0809N4917
100413F3900N3405M4816K7929L321k1493l5843l8799m0788m8997n9324o4353n7390k7943K6697P7752P8465K2556
100396C911l0553j8680M4867Q7613O9255K2028o861j6867l4339n6213m9565n453L6871L3682r658m5127l8121k169
100378a5379K5710K9758K2577J5507J775k5851n5625o6215m9795j8979N111R095j478n456J0597L2042L2193R817q021
100359e2617o237k495j4758l0227k7070r272M733J5303L6608O6094Q4870Q4375O8707L5742j6222o4492p5814n1591
100341D5637l2708m7837p8602q8683o7882l1193J0750N9462J09954J40317J27635P3826J2371j8356j2505J154Q32O38
100323B04810K1938N0184M7806O453m2197p1136q5628r6909r5279o8455k9105k623N657J3949L6204O2704P1136N2592
100305H2101K3648J0028J7779K7476K1093M461o037p121m289M161J8094J9670p671m7103o1465l9835o865J5924L1834
100286I5883M6883N2980M4026K7379R164j2862l4352m2455l6061k7288j6985P320M1185N7403M2173J2069j6771m8361
100268B01330q0454q8831o1875k6235j1866j1419j58K2200L6915L8275L2856J9726j046j0850Q272M2894O1288N1982
100250B23004K8195K891j6929k0160l341J2530M284j6682j7397O709K2770O844k5890m7231n2047n5159o4382o8992
100232h0983n2657j4970J9352K0172j1886l8221k3332K5104O9942Q7455P9243N2700J4745j8533l1210k8970l0753
100215C7198l7288k8952N52K9054L4096K1814J7097L1749M8939L8989n570m9964m7390J056L7522K0245j5997q321
100197A24829L8616N4026K542o4893q3394n6372l2139k7288j4477K3930O6821Q2044O0065J6277k4548m4942m8256
100180G2841n4959p5566r1819p8027l7211O7J2903J0432J2157K3184L6448M7477N5819N7979M9632L2859J3055r514
100162G7757l6315n9327o4512n0576l3352k3098q207K3413N3896M9229P968k5785j2834L2046N9441M5593J4168l22
100144D9183Q294K1088K2869J6919J4392J6502J0908j2942m7208p0381o9837n3186l5336k3102j6042j2000n575Q341
100126a77113K2464K1169N873J381K2165M6579M4523J9356j933j2507k9471n2161m8171K370O7218Q7136L7530m4905
100108A1503r6400q4453l4857j626r771l4198l8155j8508J063R379J7121L0666M0841M1245L6026K2981r220n3762
100090a70125p3205l5347M2139R9574R3629M1662J400O626L1646K8113j0754m3073l6404n847J9287L8542O3200P8121
100072A69184N7865J1486k4950l7255l9891l6552j3598K1966L8597K7878J9549L1210L7428J2191k7980m9945m7633
100055A49550l2171k022M3817P9629P6153M3590K0272K0834K3689J0135j1634k7364l8639n3665p1563q5550r1169
100038E3892q3690n6302j0563L5108N6613M7099K5184J5741K3075K9496K1928R245N369O717J209r165j3434j3007
100020A44515j5819j3938O019L0580K8740N5j8558o608J0555M221j5522k3856k1220k0584j5795N043K8120K7136Q99
100001A33983k8372m6943n5128m9720k8334o090n69k513J2016M0872N4376L8446J4042N472R771Q094o726k4234l0202
99982C8241k0938p395l962r742q603N826J8151J6349J3422K3941L2762J4942k0257l6356k1609l972p055j8770j7558
99963a2583p799j0351k9600m6189l9212p448K8861M4442L1180M699j3746j7027r283N477J9649J8332j879j8740j1363
99944g2580M507n338m1365o5865n6149l2580k1035j5173L031K5612K7608N748j3458l920L4344P7737R7195P6722
99926B5041K5173k8160n4905m7321j8707J0911K8076L0456K3543J4400R245J3804K7499L5858K1328j1629l5891l6272
99908C2449k8721l0119k9108j2862m393l3811p9104q1110k6352K7229K6961p104j7817J2864N2837O7282M8618J0709
99890g1552k1302k2997N176L1913L1941K0371K8820N5361O5153M1167Q051l931P00o534l5521o1694n6665k7299j2711
99871c1553l6524p1617o8875j9846K9514L4718L011k5020k6761j2118K72K86j3294k9321k5217R202N0382O2339L9891
99852a30531J2979O269J3385J6976J5725J8759K5205K4172J1524m273j3128j3488j0810j0627j4920k2669l0420l1579
99834a37451j8471R866M1333N6706M5278J4185j7362l1399k1726K867K5956L8195M2643M1376K5264r779m2490m3188
99816B1803j3510J1691R694l610m972n74j0545l0726l5516j5701Q350J5145Q834J1013L1564N1513L7486k0333q6641
99797a5035j11352q3552l7257L01L8398Q5567J13291Q9390K9648j9419l9606m8382n4327m4549j9152j403l757j3440
99779a34636j9944k7175l0294j3497J5923K4904N027o687J7080M6277L3367j9269o6017p9699p2126n7997l1553J3960
99761d02356O5116R5262Q4767L7535j3795k8449K373M3527N6430L9429J2984j7223n5676q7610q6275m8502J905M2705
99743b57853O1189M3957n233m1425j6571M9121P7020L0753l1920l5509J7962O4557O4320L2628M02j7322j6817m282
99725A4977k288l0147p2320q7340n3335J0640O8105R3384P9408L9039J367j1137n043j969n507j297J2922K2192K1945
99706I3596K5076L3796K9145J090l2080m9105n2730n6085n8043m9622l3793k2309j9700k2088k4315j9506k036K0213
99688b38496K9406K3019K0192L1166L8846K8546J7813L1881O1625P3744N7355L4190K3578K1018J3245n649l3669
99671B27810n7724n3197r811M1534N2898J5791k9194m4948l5292k0634l648K0370L7781K5823j7750o9153r8120q5447
99653a02911l3605K7190N5401L8138Q546P483L2439M1597Q571m3018o5639l9695P217L0668J5681j0143j2330P052
99635b7358J4457n880k6125j1032L3118O4478N5578J9719j1916k2101j2291Q589K9115L7265K9020J4872J1641K6565
99617B27714N1004O7847O2112K6886l2822r6465j32813j20808p2563k9292k3973m7954o1771l9051P373M2793M5237
99600a26546K1436k373k066K3694M9960M9748K5201O057J2915L2687L8569K4494P344O50p6o016k0546l8772n3657
99581D2703n9019n1710l4882j7099n930k795m038n432m394J291J3370K7778L1444J3849j3615j9728J3347O3365Q7086
99562G5591O4753J3945l7584p5610r3890q4858m8539j421L3474M1305J9447k1181n5361n8795l2682k115J6231L0933
99544b16357N2240O8670O2499L7102J2630J402P94L261P41j3403l3773m1148k4041L993J9751J5283k409k3972l5084
99525a11821j5035L9655R6833J15643Q9706M6625J0466j4903l0140l2379k5286j8720j6681j9290l0537m5493l9446
99508h03J728M5647M2671n690m4172l9674k2390l1342n3818m9536j0465L7251P4909J00660J06389Q0058L2536n416
99490B58543j8118j7079j6885j9756k6356l9271m8242l2914O833L8407K9176j5950o0085p0823m3458K454L7356L8924
99472B756R694k2362l0921j8770r279j3088j7669j2342o366j0427j3140N636M2238O7945O2021L0827q812m7710p7228
99453f6997q1005n0891l871L2061M5994M7336M6391M5085M3467M1006L2245J5194M027J7318M8732O3866L6468j9252
99435B97174o0994o0724l0784r117j9204m4474m7489j7582J1642M455k6765l4087L917N4073O9364M0717j062k1262
99417A07798r002K0292L9984L6578K4248K6395M0877L9532R072k6485l8479l2244l3063m5073m7946l0870o299J3036
99399H8351L0305M9651O1011N2100K7148K595j2552k3751l9066n6706o6340o0396m2105k1888o433O973K3669M0481
99381E3047M4943K8800J762j3089k263K1954L4889K7840J3192J285j1221k2037j2465K3919N6811N2118K2584J2647
99363C34716L1436L7244J342m7180o2877m2498j4888N080K0632K7069J5945j968q481p125j1198r964J7644N7511
99345C42440O8260M1787J7581K3374L9186M0522L9802N3878O1164L1355k0364m9368m2339k3609o691J8831M9431
99328F85240N9200M3078L1951M5065N9503N1123L6402M1577N3388M0057R064J303K7079M7845L2503k081k3911l0193
99310A208193l5736l8858k7508q475k684j2450j5752K570K9402L9163K2109p218k4772j8736Q99J5261J7951J6246
99292A159605J1781m508l1171m6489l3830m078K1646L7913M6076L5582P54l4347l9462k3921k7334o1627r2905q8530
99274H25155n3504r888L1459O4032P7095P2730P0058P4128O0839J3174m5567p6749p1034m8713l0012k5363m0667
99257H87173o8483q3940p1566m7700l7016l8683l7446l4178l6989l2246K084N5737Q9583Q2948N1991J9810m159j1620
99239F85300P416M2661O1019L8738j7597q4641j37527j51239j15274n6115j9109j6004j5337L004J3868j0652n1574
99222A76937o6220m3856p800K5128N3415O4656L7242k2464p1217p2021l2342J0354K9811K9425K8609L9150N1731
99205B30538M3747N730m0473n8881l7199N91K2197J9462Q219L188J261j0848l6783o1116o1903l4111K755K3995K3354
99186D3723J2871M571J292J932K804o491l3927o6249p3298m1705N823L7129M7822N6481O9078O9375M7453J7911P5
99167A96670m472l182L919J5337J4221j4487n6878q2147q2100p5487o8997m1842J5180O9908Q4224O3983M3481K8423
99149A05754q850p1319j11244q5723j6028L6602M3490K8745K1157J7887P294J485K1385N8877P8091N7579J4845j7212
99131A82815k5886k2656k1437k4349k5641k0578j0538l740p711j6972j4817M919K4916K4544P647l843k82Q416J4768
99112F9575K3140L3003L2833K0012Q843O610j687k8608n7926o2504m1021j8236j2055j7078k0573k0428k3539l3701
99094a43340m3213l6229o348K8640M1926L0960J9144J8555J4180r62j985K9747O6076O4476K8547l88n293q108k2480
99075G3905l1220j9258N259L2832O2911Q1226O1834R831k9768k8784j4857k8802o6087q8648p8037m8983k0906j041
99057a28593J0203J6606K3851K7709J5351j0429k5575j8594r892j6464j8091J2578O1669Q8099P7231M9350K0884r971
99039A65922l9677n3367m8086l7087k7602j8112j8139m1107p1400o9438k4422K3258L1238Q447p02K6168O6557Q3334
99021d4215O4082K9859J0668J3365J7073M292j3579j6416j1867k6283n9231p6048n6113k2696p558o461Q427M4804
99003a47897Q0090Q8001N8787N31o1485r1047o6024k143N6680P3941M5274l735l6570l1739k123J5894K672k0936
98985d1829k0665P132L2856L1376P020j8964l1341k8312j8127j3140j8732k4580j4798J0375L1878L6176L4454M8325
98967I104P8794R8579P9364K2602m1560q3709r5797q2222m5163P316M7719M7043J0591k3422k9253j9707j6615j6481
98949e2817n295R326P434r721k1136j7242n252J3201M1500O4158N4670J6050j5270j8760j4437k1121k0738O394L4578
98930D5522K0576k9961o2874m6268p857R996N343P239K8045M7975M4841K2728M875M299R918N069o961q263L267O946
98910A04455q377k4054k1091j2109j7015j9387J6174Q2330J21883R5642K8302k9410n7855o7963o8208n9506m8442
98893A5369l9676k4490O05J4015n778l9869m1228Q744P6521J14453J06071O8594K5817j1541m4326p0636p6507m8658
98875B7480J013L7483L9926K4579J6775J4602O45k2352l3923k8327j8314r052M915J6909J1144o979j2050J346O903
98856G2723j2179l4466k9699Q62K9315L2976R587k6056n0268m7342k5503m287J4134M0261O3508N4374J1713k3664
98838G5989k2173m827o749k6719l9912l9284l4565k6697j2323m11K494R508K9486M2421K9033Q260R903K4554K1064
98819C9052K870R92J4534P904k5773m6033k5866J0028K7727K8239K5789J4636j3869m4796n8112n7000n3829m2545
98801a96052q739M1670Q2944R3701P1007L0554k99n207j748k2000o2386p9582n1335j1452P09k172J6311M9807N4320
98782E1J6419k3414k4864L471K2834J3283r486j7246N33K7943M1360L3455J2287j7199n0684o4089k8833L7082O8064
98763D0967L1206k2801k9918p478k2092p5128q9058k2826O0981P8239K7771k6085m2631l2773j7383j999J0219J3620
98745a27169J1263J1350J4749K0483L3105M7302M0383M822k6102j7357J2781J4203k0637m5374l0406k371O791J0844
98727d1340L6165O6338O2659K7811N926J5872K2250j1326o6912r2875o6890j7224J5343J9102J1371R970J5527J9354
98709C1121J7723J1882k28k0951m1070m3032k2011N830K3359L0458L2440K3369j250k3400j6913J7408N1542O6138
98691A42415O4636M9208J1071m2123p6340p1403n2185n4082p1479o9431l8610p644p10j1481k4272l4373l7459k2393
98673c46655J0100L7992M1953K7650J3441P769R685J9677L6678N2489N9688N7179M1141N033l9656n9865l8542l683
98655f7926M449j1946j3402J8263N6174O9983O1637M2994L977o7463j44777j73624j28511l9982L8692P5505O7754
98638b08203K9531j2568k6670j298L8908N9731N6710N0347M5900K5263j3444l7454k2789M950L245k5413l8260j6814
98620h8328R482J3181Q099J8528L6007L4205J0216j6553l5896m9101m5942j0811M4143P9553P3939M8395L3979L1463
98602A94559J9522q511l4888m2354l4607k8617l3542m0317l0536L317M5392O8329O0674L8240K3850K0926J4902k606
98584B33733k2876l5965m5476n7575o2934m5617j1294R835j282k4492k2306J5085O0546Q2555P1123L2516k0816o7161
98566H7599q1103n7327j9530N635J4269J5842J2206J976m915L156K0513L2453L7678M3428M2840K1032j4102l1212
98548A30438j4947J2593K0984P027j0559j9513k3374k9602l9804m8474m5140k2901R896L2211K9594P004j8502l1225
98530e4294k4267n063O601k16q405O900L7179M4629J6564j2202r977N665O18j9365k2891j0362j2566l1617k9299
98511a22368J0246M5793L3597j1577m1222m0305l5572m4435m9832l2257j867J4156L245k3454m5572m9162l2023J91
98493d22418M0959Q2782J08724R4211L1493m8574r4186p9469k7096J9247L6493L2235K4665K4398L1267L6266K5539
98476h3464p506m9894p5196o6127k7174K6615Q4241J34166J53085J17814L6203m4796p6017n1624r973J0746Q297M615
98458H4011R037O342j7863n0541n9798l0713J4229L6672K2963m029j5327q870m280j1954k1147j8640o381L500K134
98439g0655r917k0383r615K7356O0503M7823j0272o0401n7240j5638J9921L6338M8988N5065L7222J2153K3473O9595
98421A84316Q6180L0841n2412r1184p7817o0461o1397n5614k7239J385Q188K437L134J3996L1713N4015O8278N6427
98403A14786K3536j472n941j0320l0776n1220n3043m7880n3069n4359k7465J3441K5898l78k6390j8241Q431J7019
98385a77443M846M589L4300O8494O8890L1915r322k6735k3313j3234K863K4790L1646L589l9901n6059l7238j9705
98367a27028k3127j8201K1435O8210P7471N2871L4518L5091L0753J2277J894J1240J9850R772q306j9069k6835l8409
98349A14407m3529l1695j2555k192k108o583j7109l2912l9283k4588k411Q89k0913m6090m9216k5148Q302K4692R971
98330a98071k4211n0820n3314l5509p366K3759M3939L5623M565j2926Q968M6659N2347J5149k5267k8506K890L6405
98312a65686M9249M3737L4149L1136L4993L4588J4786k6009o4749o8671k8292K6787N2420L2875n328k5058j7262j777
98294d8112K601m619j5377k2799j7180J0311M8843O6255M1868o032l9607m2936k9038j0908J2631L8152M6685K7226
98276E7964j785j3600j0155j6286l5352l6258j286L3630J7565m0808p2083l1984M0226P1585M2575l929k7262k8652
98258e5895k8161l3760m1268m2934k9516j743J9297J4535j052L895K6249K9756N744o655J8746N0777M7153J5412p301
98239a6721j1887j6046k1965j6096l443l554j4393j4582j824L227o117j1595o96J6633K4890J4806j8704o4545q6073
98220b48685n5503K871L5934K7968R242l8j0772k3521j4464J7852L5302J5909j0527j0562M305Q308P180J7175K7669
98201a64357K4207K3933M5816O6163M9441R007q898P271K7315L2276K7823R391l4246p9085q0721m3985k6770n3957
98183a69376p6530m6417J2328M6678N3111O4860Q2851P1847K2404k7617m1961k5125k841J2147K2795L2603L9081
98166G0838L4994J2845k4176n6141o1708m0394j1506P152J0378K7j6915k5130j1503J6295L3361K5401M470p485l069
98147d2266O911P832m761k0870k4075q875J0288J4497M610M21J4145L5283M5420L7754J8241k40N47L1566P2167P4808
98127B73403J7490n6988q2132m8279j1852j5590l3248j8138K2211M1566L2885M0283Q2799J12754Q0783J0241l3876
98110D14312l3299k9215m9712p0674o3845m5119m5898n9677m9995l669N1206P9673P1039L4935j2703n1670o0508
98093G5181l0756K2948P0677Q5838O1446J5656k0633k9232j7860m561M204J0842J0020p109l1654l8396j6622J3301
98075A73290K3576R371j3956l4370m9826n5720m2157r839K0468K4015k239l4901m7403l5321j5523l120K793Q750
98057h2112J2182N744q853k1131k3976j7331k775J5731K7670K3179M308j9503m2812n8825m9897o521M3400N1735Q801
98038a40986l7811l9643k955L1551M4631M6061M0280K0824j242J804L3309N8546M8273J6854o66M869J2719O467p922
98019A34963j7501j9035j5952j0269m458m762j5079k8857l2820k0707J6J7811L0296M2071N1043M7471L1169J8987
98001B04387K3739L2188J9160j6409m4118l6552j181K8572K7851R12k7097l3966k0057p514j5986l7870m4688k1570
97983B9801J2396K4907O202k3869m1608m3225m1127m3534m3829k9362M105M8571R0029J13391J05640O5749J4614
97966B48851j6107j3294O168J9264K2522K5147K8707K8950K8449K8433J4542k6260p5719r5223p1756l2505q303l159
97948A08707o912j5252k4241k3904j2294j846q3P36M161j048j7576k5770j2800K229m673k5056l2846k4306j5767r885
97928a38426O271L1772M8143M7330M0390L5979L0788K2765J3846p27k5186m5397m0730j5253N359R565Q465P422j762
97909D0614j3959p610J7264K6748j243m1773n4757l3159J189L1296M9886M5347J1128l6199p1122q8386r9234j03824
97891c27794q8739n1501q288K5755M9686O7950Q0072Q1485O7459L8262O877n752N518J8265R528j0773j1581J4960
97873c8611L9669L2638k36k4572j4594K1223M7408L4742q604m2270l6475m360J7326J2609l277j3234j8906k8711
97855b8235m1295m8433m5010l1192j1746N667J9098L6938O2590P8064O0667J7182j8721k8867k8976l3928k8915J396
97837f3716L2122K0070l3745p4619o0456j5633J689k5594n5965m7402r960J3571N460r699l615K0898M1918M8819
97819b15857M6302L8486K6565J8888K6275M5197N8342N4465L7226J4030j0659k8038k5715l984J8428K2727Q322j0736
97801A20264j9382r676J2984K7760J6252j1035k1273k032J9138J3182q000r951J3018L0785J9860j1785m4563o6621
97783F8925o5533k7025L8721Q7212Q0640L3204m543m415J5279K4628J9048J0810J166j9202m6726o0843m8489k1231
97765H1626j289J887n242j3240j6586j2243k031M696P52o642m117N607K374k4034n5148o1077l0535K1196O4669P0149
97745B0772K4019n1636j04393r7107m7713o542M289P821K6399M5448L8655R870j2256j2549j803M811K792p809k5027
97726a81959l7354k9145j133K6216L7461M0193M9272O1775O0121L7097O717j1118r919N23N672L41n083N566L2493
97707H7736N1252L6747k293k6089j0397K0088K1158j1671l4301j2526K9189L6767m091n1352o1704l8624j3147K474
97689A9216J7900L2089K7867L391j7982k2651k9042n3468p1253m3651J9902O0251M0620o538k4375l489J7891J5060
97671a8262N943J3816K8591K3036o475l4317l6622j3927J6603L9610M8547M1802J9053j6446n2451o9847n9001l5170
97653a05517k6484l9863m9624l1792N9J1936j715j0389N233K2610J1393j9362l3273j8499M99N968J3255L8474O1868
97634a65223N0032O287k9014l0945j6592q421L127L5826P0775O6733K1182j6348p734K3586L0119Q108n848K271L675
97615D1596k1997n0271m8229k2397l113K650J1637K4309J8185j2587l8435k9679O529L8127M4280K6843k776l2422
97597d7750m9801m7900k9591j259L2440O1002O6087M1336P928n820K305J1925J4615K3094M0256M2215R686l7480
97579A33288n7888l6450K377K7841L3093L0069K9074K9994K4369J602l7848p1586o8823k3165L5743P0525O8697M1167
97561B32079J201m0159o6120o2303l5677j1322o556j8277l5869n2533o0942n2828l0822r936n41P45j9l9J0407M4394
97541a95117R1008J09800P4347J1470k4362j0311K9550O0341O4836M0761k192l8290m2973k2979j0680k1605l6444
97524G7160l2077r507J9219M9742P4981P5073L9129j3200n0020n9765n1832l5436j5785l789r747k7581l9097l3988
97506d6520j6984J077J1057R889N117Q003J5890J3167k492j2091o670o007k3966l4995p349M2583O6359N0656L0300
97487I7024K9746K9914P722k4458m0175l5897k5218j4287l216K318l33j975L212N705j064l994R902K7957K5911Q51
97467H9645k7061l9528l0347J421M7647Q3051Q2037M7989J1334m760m564m086r444j7303k6366l9004n4540o7312
97449C8809p2440p1662p0754o8903n4350j9144K2456M2975L4418J9580K1106L0302K0720j3764m9293n8536l4851Q014
97431b75317M7462O2681M6593J3700r581p598J1702K5973J9645j519j5477o346J8677L9553M7476M7636M0192J7314
97413A22766j4680l0532j8311j025p326l0644l7133r984L0193M6718J8268m2950r2631q5564k2256M5319P1674O8514
97395A0416P5660R6564R7136O3598K3563K756n819j7018k6972k8135k7685l3224l8303l8153m2371n4834n6956l1121
97377c0898Q903K9207J2598k7470o3344p3892n7029l1618k0232k3922k3409q310J1661L0786N9127R4226J04260O6685
97359E7329R868j4763J907J7823p21l6354m7808k2293J2820K3812P124q241N257L7904M9671J8152l2553o2781o4688
97340d8535n9562n6969m3568j4336J1699J9108K0651L8055O8463Q5182O8783K7636j0935k3767q587J5964K6350J2755
97322A28387j6221m3379n3792m0886j1580J4328J9207N238r753j5471j8963k7693l3584k4162m001P050j931j9761
97304a46967k8527k5395k1627k2604j9043k572J7796K4315J3649K170O911K8038N0369N5078L1804r179l6935k7561
97286a10280L908J6528l581k2878p359K9531M8399L8282K0873Q113j1938m4143p0576p5308o1970l7107J466M6929
97268b31111P4167O5114L0214q167l9196n7194m9467j2372L0328M7506L6133J9324J2657J1203R574J4621L0898M7608
97250C1840N0125L7996K4071J8503J8483J3851Q20j2447j7010j7543k7411m7923o2851n8959m1745k3223n397J2481
97232a06339K0385P955j5845k9145k1953k076K0142L7845M1016K2034q934k9063k7512j2985M318K2717L7824L8241
97214a375K0502l921k2837l3344l4799k7448k2345l3429n1410m6542j0720K3750K5465N115o008l62J0274K7612N9820
97195a22002Q8444Q0607L7957o96j2948j5607k3073j9934K592J5938o878m3123m7779j7745P493O006j555O901K0219
97176d5183J4950j0331l6752m7014l4610n939J5172Q40m5254p6443m8813K3660P9168P6824L8200J2038J3625J7269
97158e8593K625j5006r731J6760M0201M9451N5379O2520N5002K3123j3993l1001l0028l1418l9075l9422l2073l3565
97140b8844m4720m1662j3915J1587N645j9579k5605K028M0702O2915N9285L1928j0077m3912m5777k2338j0769l2842
97122a25950o4498o8469m3584j8556m857J4224M3598N6050L1269n167r311K1888M6613L6460J2180P731J9604J5799
97104c4976j2740l5587k3552J2270L4701K4773j289j6697j2252M824K8908N8531Q1952P7034L7265j1652l6810l5840
97086A38863l3266m1515m7170l9610k8599k1813r498R949J2411j7012m9819m6924j2836J7797L7257O5601R6859R3659
97068A24334M7571q69k2939l9339o9422q5384n8285j6843j0502l3324l6088n703J8999J3513J970J2128L5217M8375
97050g6591M6519L4517J4028m842l079J7408K5187R00l0973l4119r828R253O030l794M8J5955K5704J5058j3134l9974
97030e727m4505k0533K0629O1697Q6228P8167L3501k2082m6696k6786O587J9790J8220K5794L8524K9264m900l2276
97012B14896l2705k8164n0349r3889j20447j02437m8063J2134M9157M8047J2772l3333n9057m6037r46N0381P8116
96995a49924O3315J1525m2273n4045j1644M5988O4609L3333m659n824K2484L6285J0831l3615n8397m3664Q51M7470
96977f7354O9102N7693K9933R018Q08m166r683j0438r298j7817l2583l0604j496L1421L9229K5491J7461K6010L4547
96958A57274K6909P663r949k1874l1838m1013m5984m2597k8567o226J5553K7002K7361K5401K7551K8213J5449j2566
96940A17762l8496l8607r946J9297J7786r588k4149k037L4370M7866L7238L4599N4793P2596N9799K5643K893K628
96922D04447J946k1721n8404p5856n6234j4556J8236K3290K802l1437o8729r8560j08595r1353n2283p673K6009M1593
96904a67078M3608M2900M6330N0849M9709M2342L2577J9227j735k4316l2978k1451j840J1210J6450J8952J7194P844
96886A49794m217j2487j9695k9894l4743k1818M578K3869K1963M348j3778k1828j8939j2905j3369j9626j8924m444
96868d2115J1520J3529N520K954P999R908O486N663P384N360O725K3985M2723K7285k6168o9086n6649o362K4860
96849A521J0818k1706l4855k0008M039J5207Q315J148J6018M6358N4722K0999k1653k4934J0843M3219N2370N9404
96831B21825P3934O7226K1008l1792m7625l0430j6042j6820j8996k3343m5789p6243p7368l6700J2006L4124L2191
96814D1166K1889q0l7077o3763n0835j0092J6694J3255N830K0329M6603N5374L3605p258m6141o5577n9009l3735l469
96795a22291K3688M4306N0194L4142O813q137k794N034p68j1316r761l34k799k1804l8121l3261j2330K858r14j3522
96775a11117j3100P728L1997M0605L7846M0257M2895J9712l3532p8349p3608k3309L2526O2478O0974L4458l685k9405
96757D5371k5088k518J0076L226r675j9055k5298j9785J0111N0254O2982L4549m822k2436k0816j7017r516Q718K3021
96738G2282J3405j0707k0148p023P957P532n647k4905m9068p1228p7023o1928l7901j8959j0834j3698k0278j2740
96720c40911J8422M9936M3303l573m3791l5678Q083M4442N8117O9612R0193R7327O6005Q251l3370k8539J1979M9707
96702A29515N6419L7448J7962J0362K996j7281m2424n3312m5998l4097k6056j4973M438K1524K1951P137p571r821
96684E8219J654K0621L5589L2642Q382j9457k6384r967O358M314n251n25J7386K5381J3059j008L364J6815J2432
96665A93624j4100l2736j5152K6228M7069J9162l8436p9932p8947m8562j8981m946J250J1697K6349L4393K6819O289
96647F1088j3642j9968j3316p287j1323j7744j2605L364J4999J4813J3071K0398L1283L4457L0922K8624K4402O862
96629A88398k2133m3695m4410l0498j2748J0825M5326P8665Q4947N0492j0005o4140q6157p5012n4381n0528o2652
96612i7706n9760j7962M2747P4313N5569J5618n181k946n954l2237o7444q2484o1284j2469L6503N9630N7440N8637
96594d4970Q4676J16989J16334P3775K1792r747k6346m6118o5293o6919n1234l5425k8632k6704k7740l2759l1638
96577g9959r811K6225M7903L6974N379k2991l6121l2975j5482O040J3043J23j2638m811J3816J6002k717j7173r378
96558g8551P085R604j451p702j222P741Q789L335k145k947N348K2710L5177K3272j1161l8666l5825j5840r077j9719
96538a01245k2588k553K5723M3338N0483N2431M2307J5656j2468k4793k5213k4740j5191J6714N4197O0027K6962p914
96520A51133j0728Q395J6029m47k5667m0538l6590j4241J6233L4986K8172M650j1151l285K3564N2279O6130N6158
96502C15082K5381j0537l0890k4155P45J7396L816l2185n6266m6128k0197j2716k5447k6326J186L1853L3895J1245
96484A55752n862O70K3792M6440N3381L5051m789m7571p5309q2643o9137l3756J1185L6004K3236o955j9435n809
96466C4245J3847K3726K5837K4423J8248J0017O172N965N060P878J9356K7192J3088j6952l4768k7064j0487l299j853
96447A40631M694J3130J2748K155j0611j5891m397K5981N7186N8212J8701l2301n3383l3121L208K5449K7764K5043
96429B65198K6455K0015j0120n4021p9460p3265o1050o6632o8652k9844L7631P5685N6030J5005k350K634O017O438
96411F5714J2616J0276j8137n3271n7651l0311o161o94P168K9081M0260J7831j9818l5302j8709Q610K6313L1897
96393I712L0898K8440L0238L7761L9860K0071k3111o9354r3568q6008n4493j4081J9626L3521K5320R678M800R584
96375d1106O881m278J220L3860N7241L0287k4902m0603J342L6822R332m7599o1511k6694k431j5235k3576P355M9363
96356e4232N7758L4425J0209o551k5568l6599j6774K6910N5397M2253k210n2542r0154r9732o8858n933N5292Q2688
96338i4221P2383M3534J5960n68m161J194Q219J2862J5816J5176M911j3186k3938j6430l620r896l6050n0703k8105
96319i0823J3862L0505O872j9349m112M3502O7756L5186k0378l5132J0744P2970R6664P3439L6673J3574K59j6373
96301C15839l1394k9082r025R913J1969m25j6318k9980l9101l9414l1485k6948l6069n0993n2741l5744j5105p331
96283a13434j3850k6775l9664m5516l4818p585J8110K2398P026q290j2176j1414j2118n751J6557M6309O7452P7735
96265g5804Q5505Q7968P0983L5310O092M345K0206K7202J3967j2073m2677p0041p5667m4480M319K4755m167n1357
96247D386p1877n6123k4747Q794M6002Q0801R5051Q0249M7323J2275j5175k9359k9946k7018l1900m1330m1772k8533
96229b2899r135Q663J7431L999l5929p7726q5811n6143j9223L441K0900M2839N6791N2406M4123M7521N1287L5951
96211G8486N993j9036l2434l6648k4951O384L6464L8399J5534o474j9245l5140n2329m7804j2637L1422N9923O9133
96193E5040O4412M8158K9241K2547K5862J5633k0597o3134q3697p5271m8112j3865J3162J7530L394k032J5070K9660
96175C3001J0571l3393o5043o8116n7811m5299k1167J8935N6352O9942N9995M1060K1779J853j7215k6457j4613J9077
96157a6549N3805N7689K2675j6910j9210J3137L6757K4956l604k1846l1696m4684m9155k8218J123J474l0847n5504
96139a06607m1752p341J1456R411J1225L0713N2119N1889K4875j3167m0047m3574l1235k3739l2698m6569m5637k7563
96121b68241p766L142Q671J1635N278j2806k9097k6817m548K4563M5245M5939K2519j2856l4476k7577n229J0794
96103b51627J9485L5580N9697P2858O2362L6161Q174j3936k2059p982J9614L4815K4132L788n433p611j9678l9713
96085H627m6485k7552P071L6757M3418J8654k5583n6723n0536k1109m803j3007k0633o761J5169K1746J6666K2362
96067h2722M2066N2019L4228P65k3010l0038l5640n1757o7213o0220k7436Q206K2959J9634K1965M3471O9502P1465
96049H244L4090l0568q9456j09346q0772k6532J7499L2585K6334J6173J3662K4165M6306O3829N1066J699n2920o9280
96031a23222l7329R609L2427K4154P083L233J7399M2571O6870P2357M1456k2042q3215j01938p2043k4682R763K9505
96013a08044M3592M3201J1914m0176p5564o9436l5968p401P07m870j1767j0921N532M0554Q2956J08598R6288M5627
95995A14822j8464o1155o4572m1113j6519k310Q025J9755K7962K8214K0705R90l4704o7292o0064m806N3742O4083
95977c2701L0890O564K1900N1488N4556K5970q611l1998m8774o4069o9482n8293m3429m5450o1120n7839j2519M9978
95959b92939P6339M6872J65j4111J0160M3356O5263P7401P9658O4296L5420R290j0105l3184n6596n8199l2702q685
95941A699j0973k4742k0083Q32P967r540k6239j4908K0245N1457N5344K7349j9688o2600q0162o6442l2327N871L5987
95922a60953N1271N1553M5253M2357M1910L3085J2709n449o369M838O020j5389m4053m9857j9892K4900M7832L2223
95904I1989k981k5396k4071j6568k1736l4812l7023k4388j3939j7867k3104p995K5428M9169M1762J2418j2486j8066
95886e9666q773M270J2921J2895O558M489J4523K8283K7384N283k3660l8183k7580K909L4876M5525K5314r614l1087
95867B6667k6699n159K3213N3665P1929N5843P811l2313k9573K32R997j7898n4841p1783p5749q7615j01916q9159
95849c43348l4366M0812R6238J06462P5495K5839k0782n1555n8611l8373O76L8450O0504O9624P1734N9406K6055q832
95831A15428j3068J3580L0942R367k8647l8073j1252J6219J6813L110Q85J0371J0049j0515l7232m9471m0140j6476
95813a8110R990K9009L2273J6865q757k6015j9871O006L0706L5786K1115j779k6386n1512o6441n0873j3N7759Q1733
95794E1485N8240J1148k6512m1859m1795l5520k5976j2502O332K9551M8084M8059K8040P166M082J1451P004j0076
95776A16402j3731Q837L0408J6703k3302m3537j9388K0145K9325K314k0956k185N2553R8998R7809M9632q482l7477
95758C54068k7629o90J3914N042j3025j7483m519J374k5086p1890r4361o8203k2637j358k187J5363O3945J03293
95740B07931R3430M4197p793m6139p1142p0088k9175K9754O1138N1092L1957L2363L9546K5679j0401m5611o1015
95723B75723n1561k1166J5119L4952L0927K0648K1675K7639K3165Q480r334l4635o7450q2051n4457p165R913j2062
95705A28360k7878o665K2914J9957o618j6991j856J3124J6494K6691N4395Q1679R0161Q4347P2282M4778n629n8697
95687E30848q2066o9151m3619k6876j7686o616O075J6609K9384M8121O0973N0703K0750m802j3246j9334l6534m6778
95669C96755k1614L1620P1150P3477O0511O1951P2961O9830N1919M1352M6147M9056L6095J5868L658J259K18n654
95651A056559j7386l2054m2208m1597l3984k7623j9342M261M4561Q0902R1405P6778N5790M2947L8881L8470L8822
95634A355182L8188L2885J9075k030k1079k5152q551K0953M8093O0479N2871K8539K345m929J3331L7900M2964K5804
95616A716868P114L865J4203K8528M1152M8137M7261M5168N2859O9108P9367P5723O6220N9656N5073N4182O9221
95599B533705J03914J36225J37008J04184O5964M9497N5703O7022P1617P3262P8925Q4308P9368O6596O2201P3841
95583C843340Q9350R8236J11538J42301J75805J82933J60629J35890J29383J37989J53395J71104J77694J59172
95569E868759J30381J25338J46206J54697J31858J11716J28299J61052J69256J56861J60938J88787K09113K03497
95555H046758J89891J91844K13949K50584K92170L19558L16803K93654K74844K66461K54102K33030K15853K09595
95541A1569096K10786K26054K70031L34121L82074L90320L75928L72981L94174M25025M45108M46217M34353M17309
95527A6693577L90775L46283K97164K75914K87588K87414K35785J59934J21111J27077J22362P1260P782j2282K5801
95512A9437545R7513J72106K24700K43334K46099K71428L33379M02521M42067M43279M16765L73749L27881K90902
95498B3723268K53972J96904J24755O6077K5789k4180r2846j49670j78303k08182k60490l02028k92045k40343j76521
95483B2466157r6034J1887J12889J66414J98821K71924L81794M52387M37814L73208L08939K47932J71476Q0831j6321
95468B5570118j25607k43327l42683m10108m71789n56805o51621p16083p31551p12056o79012o44018o08571n65148
95454A8111739n03897m26721l45625k62581j67839o7447O302K6942J864m5450j04731j71723k26465k45671k35276
95439A5343421k29605k53822l01115l51331l99839m58210n29931n94999o24485o07938n58318m90143m07893l24580
95425I211212k71537k64027k67114k29583j54955j05005j19533j64533j83333j72027j69771j89488k00039j81429
95411F538838j61139j75155k14886k40846k43502k61381l24934m01796m25844l80356l23482l15768l46190l56857
95397B366702l24969k82702k57281k31680j80172j11793n5530k2636n992k289j3068l2698n2571o9669p9351p3235
95381E71066n8695o2952r5602j20826r3924j9062N4181Q6753P7976M3708r58l4013l4134r988K104j4649l2509j8813
95363B39663J6366L3769J6635j2958k7073k1952j1343m901k502l544j1933k9066m5533m6091k6776l006O752L813N272
95344G5592J5082J2198k1700p0355r3230o8720j6699K5391M0666M1078M3609M8432M3257K2802l434k2707l1597l2671
95326F994k3311L747M7068Q9624J08710R1094M0201k3616o8074o6577k3389K2382L0665L83l2461l6842j6933J142L18
95307A51125j5995l2716l4019j3671J5159K6422P928k3508m2430m2041k9652o838K4679M4473K9055j0342l1612j2437
95289C580K6085N5935P5607R0009Q3927M4247p668l5925l4507k5412j9910j0362K487M424n600r733p1P759j958k5037
95269B17877m7242n8346n1704k6110O548K9328L8394L9742L1311R144j1589r613N683J484k6142m0200j8865Q689O712
95250A05101j3604j4743J0982L5404L4085Q037k4523l8548j7557K0900L1232m787m5570m1545k689K1331J5499J0116
95232H9121K0511K4277R665K441K1199L9884K4355j5915m1894l7408k0481r419l036M399R125O265P56J392P945J0701
95212A43883L903m991n244l76n462k3458l6884l2111j8480r146K575K5461M0540K0084k5294n0849l5429m812J2879
95193c211K3201L8396M4294K3531p238j5266J608J4153M084j7487l3362l9492l8244l1303k3562j9520j3646J597
95175i1467J7611J6468j061j2257m352P441N105m038r12J3193J7816N130q346p253J145K441J71P808J8965O737l8250
95154d7905q4580r0438n0256L435L8730M7172L1715k478l6269l8128K207N1645O3759K8537j9803m0915k3822J0005
95136a57389K6179L773m3905p5613o0883j1888L2830N2216N6522O0478O1207M7717J8972j3195l0845j9882J4421
95119c9285M3043M0929J9920J4272L0078L4259M705l4906m9950m1445l1577k1143N108L9952N5649M3939K3244N544
95101A42336j0573j0893K9138R3196J17191O4641j7916n5144l3520j622O148L286R086J4679N759j0187j7657j5689
95083C12259j1874q416o843j4471l4099n5559o5761n9969m0144j3589M415L068l434J3592N6602R0172Q3682M8507
95065B98138J5958n343k7426m9183n0944k3245J7514M4719M1877J0465k9999n3385n1247m1854m3403m6197k8961L426
95047a9090K1065R041j4174k3561j5389q23J3609K8198M0292M1748K6330o34k0222j5344O191J4281p489l9613n3917
95028i501m9579m1567k6876Q161N3102P9177Q0667P7194P0276L4989k9965p8379o7752j2147L7967N0385K8040p636
95010A96556k9516k0536J257q185o2245j15038j14344o4285p680L3065O0994O7816L9129n657k3645p604K578k0435
94992g7775n3758o1978m3107j8038J752J5772K2373K4801L5199N4850O2015L6244j2667n2501n8864l0716J2825M3035
94974a00538M1523J9225M735Q563J5503J7756K9842N4833O2914L1529j2685k6181j1362j0281l8031o0728m8219j4647
94956c6249R718J9230K4457K5192J8173J8328M2802P5321P2760J6985n5753q9495o5880j7081J4486J7503R037J596
94938A01130j1264l3511m6586k7292J8149N5280O0413M4079K8703J7530o82k5923m3830m6607m0845l1303j1072K3374
94920B9743N5926O0639K8188k1731n4948n0186j6152J6436K2690N128j4392k1792k1768k0964j2773J0891M0086N2933
94902H7954M0863J6233o989k8635n2573p0987o8811m2499q209J0069M63k5185l8925k2090J3323L3838J9230j6750
94884a59680m3766m5663k7956l404J8370L1231L4662L5320L7973L7356K8065J7372J4744J2960k094k3604k7808j0498
94866g6420M348L738Q395L5262N8400L8648j6936n8640n9290m5383n1832p0283o2577j4418M2346O0851K5364l2508
94848b10935o2313m3346l193J8296J6461J7829L4076M5914L9416L1657M2152N8936N6858L7482K5545L0669L6111
94831A71615K5645J169k8642n8182p8423p7525n6167l0391j2479J130J7633L4320M3907M4146L4840J3418j7725m4525
94813a6236n0945l4960j0285P814J6329K4283L8825N2537N0041L0149J2964J5538K6813K0316j0238m1485m6674j9193
94795F5593K8266P2004Q4387N2602k234m0476m5713l5778k7086j1025J9741M4743M0928K0338J3342J9693P095l6346
94777B70074p6010p2954l5443r071k0457m6655m4348r82N0041O3984K9292k4036n4190l9719J0734O6073R0032O7431
94759B23796K0511j2641k1149k8153m8361o0678m1227n659Q417o756k2158j6135M51Q576Q021R208J4051J7010J5971
94740F3095J2568P268P69l475k430J616m49j9709n5378q3947p5310k8568K1725M7262N7994P4882Q9311P8841N0559
94721B36624L2527K6282O651k8332m8180m1444l5883m8563n5297l8133k7862o0056j11720j24222p9067j3537L4079
94704c76133N9508P2799P7275P6324P6629P6197O6668N1307M2961M1694L3489J4728j406q804j9672m3004o7583p6539
94686I6438o6452m3584j3626J4671K7164J8715L688P44J0572J8061J3662K659o440j2873j8711k0137j2230j102j440
94667I779j7023l1945l0798k0936k0099k5602j6832P776K0509N693r681R977N5974Q1519N6821k362n6746p3053l7142
94648i4171L3974Q9762Q3405K3293l2204m1652k2952j7365l2359m0477k2030J3039M1519M8353L3948J3643P991K1500
94630A07217L2892J8648j4715l4633k0771J1935L2355K5283j027k9898m8477m9091l0365p43K5512M0185M5747M5574
94612A55628L5261J0324k1220m3425n0095m9532m9742m7503l5808j4970P398K0757J4525j2328m0299m1501j2034
94595a74564J9156K4384R031j859M162K2970M8330O9805O7347L3278o164j7234l751J026j4005k5763k0819j7321
94577A8009l0012m4146m3346l7044l7907l5726k0161r611k6261n4983n9017l0535M722L0000N2376P1629O7724L5077
94559a49212M779J0840M6290P1850O2668L0644K091j1420j4627j1499J087K1329L4085K4781j5j7423j7210j4727
94541G4311k6960m5671m7592k6766k725M325m776j4463j4180o475J524J0033K6090M8450N8731M0249N905r969M687
94522G4728K2324J5837l429j0511j2490l4801o8101o9239k4720K2784L1175J3455J0190K9534M5591M3563L3206J9533
94504A38629r029n5280r8310j14464r9356o2464j4857K8721M9436M0216J6617J300L79K433k315j0125j0718k13J4637
94485a84763K3100K1060J4457R901L343j5156m2923n8646m2627k91M1955O4306P0197P2874P1807N1639P142l8117
94467F9258m9340j9244K0772L6272K8334K3014K7756J9700j5947n5043n8791k0825K4943M1141K1070j1508k7409
94450E4153j7950q53L272P19J6251M8110N4486Q151n2540o1767j0924M0507M2960R421k2211m2753o2053p3144n8626
94431a24791k0067K4505O1644P9277N8299k449o2238p2469l4372N356J6835J5543K4024L5652L0749O803k2791m5091
94413b5581n0535l3485k246K1991K6403J8396J0804P142P586J4853K4252K1511L209j1357k869K0554L1857J7460r517
94394I0428k6237k2491q094l151j8131m0798m7962l1432l628K3891N2425P8751Q1934M6114r598m2734l1562M123
94376I1848K8263K3437l622l9111p1365q5869o8147k3502J4971J7006m808n396L3789P6897Q1498N4420L3868L1622
94358A85799K7966J6645J3773J8061M101l0351m9580l4584j6502k5602l9034j8918K0299K8757l156l1231k3530q01
94340D2112K713j1262j5291O58J6311Q249k0918m3783l8055j1227J2422K5988M2445N9785N1221P732l5102m0345
94322E3653k0002r767j0097P151M1216N6035L4989J278k5067n1053p7072p7656l9556J0440M0318N1408N8250N3621
94304I8089K3119k1169n0591n4545m1901j8311J3196L7733M1451L5305M1013N4899N0942K2426m081m577J2350K1896
94286B57244J4329j383j3880j7712j2354l097P31m453j1416j2038q369p949j1272j1271n744l813j5323l5285m4291
94267E2654k8904o19J1866p283m3483o9363p4344o6721m9738j3002M3803R2447R8555N9551O232l2320n0005m9876
94249a20550l0995l00K1191K2603K1027L4521M8457L5293J717j6139o571L521j195K554K9844M7344J7478l7563n8551
94230A3686k9272O798J2139r87m180K557L67j5491l1948l4964j6291K3841O7207Q2504N5232O386k9850m0191l4344
94211C3199k3045r956j446o943k4207l4773k2109R058L7383M7756M3118L2030J4148j1215k8184j5191K2609N0208
94193A12440M3296J6364l498j4505l2289n7671p6299q1145p0673l4259K9673Q5952Q9456M4411K600o692r755l5414
94175A992o3752n6095j2827K9339M4713L6318J5161j1198l0489k8257m187K5052M1700M0132K6743J2445L394k912
94157F7272q812p177Q391K7122L1532K4525K6048L9040M1101J8084j6509m6447p3608r8791j04259p5847k5897K3703
94139a50529O4390Q8986P8150K5965l3743n5200l1382K694J2117q721m0199n2534k5230K9640O9521O2889K2390j5939
94121D3265l4700m1251m5410n0045n3750m6815j7349K3969M3751K8831O902J156q006m1350o7116l7827L1693P4279
94103a89773N7601J5168j2113j8798j1946P732K5677J6069j5181k6258M80K8516K2178M24N223L9247O6838O3903
94085G4987L9539J5598O209J2877K4315K4933J2259j186p725j3629k4198l6020m8881o5195p0972m2703J3011N1259
94067c5522M0693M898r818O497K2257Q446l1566p0264p9761n3890j6722l48p739j2005J411J4110Q931oP833K5833
94047a76732L6060L9907M5609M2142J8054n843J015K8242L3179L679k2461j1327K3401M5685M1852K1388q389m5126
94029A10335p6222q1500n4478j1269K3685L5546K3160o662m2042o4365n3595o172N2432Q3871P2140L7841J3933J3113
94011F9751K2121K0724J617k2641l0086j3943L717m549l3883n0860l9113j8588q371L575L0765N0054K6873k9489
93993b2326o9072o1895k7722M40J6471L1885M6759M9272L6937K2783J9464K5125K8123K3451K0650L1951N4151O8088
93975B94535N6422J6262m2432r8661j22835r7692m3156j264J2168J9935L7794M5309K4580M81O845K9682K4594j5321
93957A47246m9020m8052l1076k7591l7404m0568k5856L088L3732M8866M0001K0405R379N083o207j7634q943J2010
93939B7459J0837j8891l8455k0940P653J1178j094L573K2839K1890j0430m2442m1808j3432J1195P198k4500n9420
93921a47590o9731n1355k8923k5984l6316l5532j4222J4073L3139L8252L3098K5363K3680K8869L2490L3372M6076
93904a01241P7191J02015Q7242L5574j4121l4127l4314l5356l7549l0383j7412j3064k0805k9326k8732j9837q156
93887a22401K345Q838J0080R380J3141K4560L9488M7798L8839R952k6957n1187n1053l4510j7293l161J6324M2722
93869d3095O1877N9685L9352J5727k117j4266k1249k3138k4820k9639k9132j4358J849n962l6442n1992k4472K6559
93851a15633O0974O8026O4059N3024K3635j5337l2506j6911N016Q314q09q753k0117l6767l5709R19M7988O1804L6826
93832A48043Q774L235J0046J1319O166j421j4077k7135k4095k071J5141P637r874p916J5855L5605L3685J6188p439
93813B17666l6200o1898o4908m1590j8849k1020l3447k2538J3794M2283M2384L0700K8007K8114J7588N318Q131J9894
93795A53429J9778M343j1553k0963k9175l5087l1573k3421k1498j9088N70L0183L8607J3083k3097m4293m9886m7257
93777i6898l2806o209J6930K3038J4189p416m5192q2989q1132k3462N0486Q6054P1470L3326o086l7435m6433k3290
93759a93855J4551L8424M3977M5745M3966K6832J384r973m716k149p341k892J6612K9397J6609j2624l4460l1989j685
93740b4187M1293O2198L4489k4886o6979o1486j9204L1924O7594O7503K9130j3793k0668j51r98l5708n5994k8407
93722a8330O954p546o1439r1725o9291k4557J0412M2241Q5592J22213J13336M6179m3214r5089p6661j1404M4722
93705b7607N6788L4376O106j0309r535N469J5714m218n0555q2295o8988l0387o596m938l925K552j225j7004k2487
93686b19064n376J5284J3333j1853l4972l0558K538L7412M3471K0297p39M024K1924K7055J7678J1911J6809K2462
93668d8364J9909O000k1238n2135n9897k9341J6628M4017N2690O5545Q0333O8793K5396j8750l8420l8520k7834l685
93650D1127K3037K3119p057k6423l313L3293K9500j8710n8865m8739l517K8638K0156j4262m0069l9688k6056j9652
93632a07481j8898n946K0225L6022K5389J611j4590k3014l5327n0943n7981n0638l1846n195K4030M6854O0577P2362
93614a14789Q2018P2397L2800j6441m0908l0415n086J3522K0975K0268J0757o669k2950k6158j1905J1385K6797K3958
93596C9556J2455J1760K2491J9711j3155n2873n5571o476O0813R4742O9515M331n1416n8017k2244Q888k25l5296
93578D8989n6288m9878l8541m1534m9364m2325j6908J4880M0731N3843N1411L5742J4751k083q235m008M11q171k8113
93559h4690l7882j9722J6106M2799M8186M0398K7688J2440M642J7385M1057M3438R845l2519m6257k7888l402J0072
93541F1696J6634J9028P904j7980l8609l5033j6891j1904k8469m3445l3530p200P354R54n988N606K7054L6400K9431
93522b6988K2522K7013L2043J5372l2274r1858j23457r7752k7821L7757O2459N4555M2594L1821P074k7028l7995o908
93504a38871M2415O8803N5827J8907j6312l0041j3746K3964N8877O9640N5289L0214O672j1004k0269j8615q156M420
93486A78014J3358J5732Q718j0371l8769o4000o9182m8592j8694n023j2534j8385m440J3421O347k3026m0912k9815
93468a48153j1509j2057k4216k0496J0260N4838R2921J07032Q5751L6332r283j8250J0503M5642N4898L1880l788
93451B82305k5799k4222j3932j5521k8499l6174l7261m8990o8770o1332r214M6603N1646J0928k1701k2432k2498
93434d4863m6303o7449n0292n091K7579K9663J5759J345j2991k7939l6089k8943m081L1636N9006N5621K0291j8436
93416a01577l1132j9613p896p052m881J0661L2623M3241L2618P344j4310j7013k506J4407K5940L7187M6176L4369
93398G8586o715n1881o7264n2260l4079k5575j5352Q31R818R842J9100M0553M6012J7107k1106l3263k1778j2717r052
93379a29193O716L0308L4185J1950j0213j5513j7581k5946k2878K731K5567J7703o603j1856N665K0045K3583L3715
93361b7615M9334M1253L749j9386R850O3983P9799L9147j2334k8274j3817m310j4752k9133k9803j9519j3433j8323
93343E6416k3109r509K6002O1889O9316M1598n14l3749n2724o2002o0894m7664l0481j9564j1232O604L2977N0699
93325e941M7275K8126N886j2317k2269j8974m433Q465R065J888k12Q427K3390L7376M3220L4722J2976j0208k1644
93306A64818j7976m653J0355J7742J1064j974j511J9836M2033L9890J3267j8214m1608n4516n1940l3163j7068k3184
93288E3198l7235k4912J5077M2987L3614P716r081k5236n3775p2521n1223k487L1000L2131J9760J0308K447k850k15
93269c1297J771q527j6562J999L2971L1668q694l6356j0663M1367O5632N0066K1856j194j9004k2512P65L3616L5934
93250A62836m812n2456o2714l0638J1179L0790K4146R123P0p749k6022n0400o1908n3188l7830k6092q578K1979M8258
93231a14006M7365K2511l042j4745j0497J2693M9711P2306N4616J5101K010K9121N5187M1065M02k6869k9889k9556
93213A73484l8288m4717l7074j9818k846J1051K3536L6202N1942P1625Q6050Q0265N1596J6891m884j2990j9773k7535
93195C94717k2651J237K4566K0952p310k9191k5124j0821r800j7518j2377O396J5955N132j0431j4876j3414j5471
93177B79971j3679L581K8280L8374K4445j901k4621l6960l8390k8338p976J5868L2585L4818K4845J3851J2300K0574
93159C77627L0650L4211K4787k269m0698o6664n6979j8114J7130K7950K6027K9682L5121K9090J5684Q880O423n153
93141D73385k1607k1432J35J8997J3519q919k7215l3498l2393k6337j7024j2780j8118k0951o263J9112L0846J7551
93123C27008o628k1853k1042n071K3900N3508N9062K7399k1226m9696m3122k0948j0425j8917l3665l7180j8956J6806
93105A98954M8163N0282K3246k157J935K5538L2695P220k8193m2897l3968k0100j0671R86J4797J4780n962k5040
93087B49608j5289J3118J5978l0987r6355j23914r0576k1967L9442O5270M8864O103k9166l1199j0149K107l656n696
93069a8464O362Q734j7951n0225m9077j2932K3253L4297K4856Q478o541j0135N829L2143M9345N1898M7333L3848K875
93050A63926l5276n5154n1032m1724l3972j0858L0334N9075N1227K2912K014j1101k7806l7400k2650L511J1325j153
93032A6198q653j622L491j508m541l090j4520m2202n8758m3584j6307r318k0750k0376L493K7817K8474J0761j613
93013a56608N115K7028N3944P5440P7645M8336o275n6545p2451n2667k3177o895m578p590j4482k3693k1619L871
92995a55201M0691N9961M8821K3682P979P773J2653J0036n795k9392m4366l7463j7708j1711l1816n7295n7256k7368
92977b63775O550J9965J5062J2697K4978M0414L6661P382k6000l3615q385K6882M4643L8807K3607J4390J6212K5260
92959B1735L1152J9671j4864n5544p0177m2502N415L0858J4232k0536l4915k0761o456j7636m4403n6652m2792j8090
92941c22265L181K5524N4574P6291O9350L3793o853l2621m3801m6940l7445q319K9397N0208M2500K3496J8879L3690
92923c7361N1610N8284N4152M5024L2712J9533J1626J0181O895m103j6383k1607k2937k7381l0817k4674j4517j5412
92905G4825k6551k6779k995K9381M3838L1878N854j9260l5986m1219l4657k0891o920K007J686r973k5667k9548j4551
92886a05528O396J6607J7349K0025K1687Q133j6238k3785j720K1940J0440l0874n6346l4045J8624N9015O5966N3069
92868E0715M3210M2215L8945K4125K772j3349k1755l0888m4065n0171l7892j3014R049K3420L4589L7221J6737k5192
92850H6672o2356p1712n6829l3438n361K9594O0037O6493M4523R083k0753l0569j2955K1405M1233K4503j0326k3219
92832E6025l325K0247K0742L858j0978j6676j4746n571M449K964q633j2433l183n49j5388k4180j418L7118N1422
92813G9745L0365J094j1939j1430q402k431J0792K7602M0059M3251L6826K6655K2505K4911J9833j124k1810j9606
92795B86896J829J6455J0245p752k7320m6807n7293m1173J812M4858O3038N8801M7726L2151M221l1666n4450m7014
92777B54557j6049J0480P921k0091m5310m8960m4650n5970p8722q3530n4869r768K4281L4028K1901L20j1652j987
92759a18070K0066L7106M9479O8734Q6699P8168M0445K731j4762k3789l5358l2706q04L8841N0674K9119l753l2642
92741B40178n6655p1729p0609n7181m1338k3545j452J5067J4783N630M438R430K482k1470m3740m2089j1442L1904
92723a17338N8088M5416O653j8143r946K851j3631m6776n6134l2795o661J506J005K529K228J817J4289L8791N5476
92704g0775N5457N1122M7228K8852q090l9950m6200l5583k4601j0959J2430L5643M4294L8946K4399k992l7112m9357
92686A2752k1245K1166L3111O752k2914k5015l107K0700L0203K0533k661k3674k7824j5171L793K2019L5454L6098
92668A00970K1314N762P080K1318K8211J8385j394k6357n5144p2555n5984q705L2876L7626J2105j4010k0679o355
92650B4464J9961M1736M2088K2900P708J1363J5672p759n6009r4774r9650q0198n8823m1212j7360J7025N1198O9602
92632a32068O4974M1959J2745j0135k0319k0481j8901k1086k3205j5692M129K5124L3072K7749K2995K8003L5222
92615C4085L1020J3400o014j4381p930O830J8081J7948J0134M855M351P18p965r994J476J1935L294j6436j9961J411
92595G6857K4563K5184N126j9989m4720p0272q7588q2236n4174j9074R137K6066K9876K0515P251M191J3936K4760
92577a10591K6631K0890J2336L316q09O336J7301J1337j8200m7250m6547j7159J4603L2335M1066M5200L7532J8326
92559D6653O177J4626K9626K6777M702j5220k0349k1159l0361m1748l9197j9746J681R421L181m168k784K410j046
92540e0524j3983k0162o332J7305K7480J8221R205K0224M7389O9841P1415M9954J4296j9806l7996m0109l9878m6562
92522F9978n5067n9637o3707o4816m6010k871L3329K8256l858j3276J5600M0398K1844j9966l4822q327K8684M5281
92504h8987L7921J7342o317k2531k3961j6663j4720k2777l3801m2118m6556m2779k6760o076N396N270M011R068J8764
92485b96274K9894L8589L6384K0982R400K2824N6836Q3216Q3131O2308L3454M137j5677j7970j5115k9406n3893n0278
92467B542l198M7638N3086J3975k9474n1021n2555l7637n906K7086L6481K2087J1543K1243L5014L1680J5533O329
92449A44446J1574K1282K2659J0389j2178l4939m7903m9262m2254k5055O015M2202O4197O3344M8829K7964n250m9409
92431A96651p7279n9406m157M4541N3993L3926J5551J2516J3067K551j9396m2167n3195m3262j3798J7311K7045J1165
92413A15657r980j5774p554J823J0695K4525L3363J4773l3572p9951q8856n6888j0066K5566M0627L8132K7032J8891
92395D8443J9765K3079J6937n12j7636k1930j2771j007K899K54K165J3717K3333J4335j4983n0484p7716q6543o5074
92376a83729j0361N0638P4341M9098J2952O748K5926L8885L7567M1137N5388N9505L8966P374j5098k7407m0088n4856
92358A66986o4310o4377n6258m0378j8475n60o1j6864k9903j5640K3159N4884N3161K7303P554N981R561R011J0230
92339F1004J2014j058k9921m9179m2637k9076k9788l0587n708L4241N1008L0671k263k1530k4566k1200j9464k3144
92321a41183k5344q253L2416P0628P8433O0598L6887N847l9158p1540n5237m736K5485J6478L131Q453J0708m697
92303a084j1077J0694L1739K0758m214q691K191J915n349N232L0534M2238L1265J2801p412l5338n8749n1942j6845
92284a1334J1197R581l280J792K3818L5185J7878j5388l7256l8864l9773n7748p6883o6053k8247l382j1870k4785
92266c15412r936J9141K7506J1040o225j1423q318L814K4308L3448J4102j5179k2538j3867k3875n3753n7357m856
92248d09380O9506J03257P2446Q544l8409m2741j8987k677j1009k4488j5641J1690K7585J5141j4197m1410n6612
92231c67382n5751l9345j6335M100K1832L5606L5665K5457L4771Q0204J22925J05415L1501k8674k2824K8284P0512
92214F5961P7017N2881J1961k5444l4298j0752J5208J2356j5586l9714m1327k5519r452p745k1082l2757k5669n463
92196e9424N714p68j2725j9890k2952j8870l210P968j1346n3178p2432m5548m782Q545L85O009L3663N6319N1904
92177a54618K7248M844J942J8463L5145L1932J5031J0201K1582K1481k474j6783J2614O3476Q0122M5512j095j8090
92159A96533o194N285l013k2599k8573q624J5550O609l9984q1228p5111k9006J7820M3602N2760M9761L3708J2940
92141A40236j509j3859l2280m5350l5044r417L912l948j5656j7296j0532M182K9742N4399N6143L0126p812m4037
92123H2000p0402o8794k5424L5185O4367M8500K3634J9699K3508J4961N482J1705J7841r24l3815m7486l4875j9441
92105D5721j5128j3095r222j4877l1915m1874l3165k0164j9708k2456o996K2756L4197O214m0114o2824m7130j9546
92087b89326j1136j8930j5084J2185M2216M7929K5937l596j6968k409L3050O3993O3508L1121j168j599K5086M4147
92069B8956L2404K265j8244j9267j5250k2034l6771m2526k7723K619L2251M6038L8559J6655m429j2135p229j183k253
92050i297q979j8031k9822m1317m2197k7654r245j937l265L331K4446M6115M9797L2223P220p732o452Q88j025j3612
92030e6545k0704p889J9710M3605M8960L0651o323m2758n3822l6325j7102j7470k0948N1L4238M0211P792k0855m967
92011h0490M3148P6639O8825L4336O359N103K1539K5106n135n4024q5041q1488n7843l0644r50K8337M2881L8171
91993e171K9466K5851J4989r113k4322r935J7955K6316J0320n627n046N439J3803J4116K855j7242l1319k6437q647
91974A8251P293J7089J9893M949k9556n3733l4638J1907L0786k430m9914o3547m2239j7390k496J4517L6127M0993
91956i4138J3711k6920m4235k6942m242r704l6997m7453k2867R827J8586J1226J7778M1009N3325L9810J6139K68q075
91937i9894j2775r949j410M16q168j5149j4483j6445k5479k6661p996K0720M5689O8420R0103R3370O2726J3013k4880
91918A31168m0733m7152n0886m5193l0335j8971j5445p975J0101K4785J6985j4360n2068p7735q3303p0828m7525
91901d19470k0172Q076L4811N3663N7639M8687L8889L8162M3511M4770L9463L5717L8639M0259K9538Q499j0274k0244
91883I0163k4310k3279j6506j5198l2935n4736m2877O945M3510K6690q388J3M3260N3614J3474j3319J6637N4760
91865A17518L3839l4419q6172r4383p6451m1054J0188M3230J9945l3090m4962j56L8154K2325j5782k3751n474K09
91847a70286j3215j5946R415M9142Q1888R5864Q6593N6650J7354j8074l8932l5231q383J3633l322n2313q2549n9916
91829h7628q104K8302L7511L3721K0068q745l9606m9728l8057k2488j0674J994J1295Q394K757J3813L8339N1330
91811a7506M2595K8127K0211J1063m402j2574l263Q423m10k8883n2139n0189k8768j2185j8420l9552m7506k3551
91793b28929J9614N0900N3969M0877L5170M8036O8449P0788L7937j5730n2340n1885l5509l2571l6508j8157K1815
91776b4074M4022K1227k6829o1763o9991o2939m9889k9769l641J9957L2369L1173K1792J6203K4502M4174O2689P1820
91758F1033P2232O4230M5494K0188j857j8604l5218m5334k9538J5101N6473N4932O161n4436q7418q0455m7614r944
91740a4574J8482L0805K2815l695l2198l8162j6518M872m299l5708n0716k9739Q401M0181O4565Q4260Q5328N8033
91722A92133K1245J691k96j026L99J7410M0111L5263q213n6757o9466m3060o760J5586K3047K4093K2263J7262R401
91703B34326k950k5411o0297r5921j07498p5432o688O3959R8615Q4609L9510q226l9846n0369m1358j7302J1523K9851
91685C1095K7111O167k0095l9163m3111k8111J93K2638K2043O420K208J7412K7573J0317k2569m4234m7169l6079l524
91666a10878N3379J00657R3115L7330q627j0435K866q675l8812n6178n3312m2613k3817J0449M7591O3844N4457L1355
91648A41696n28l9252o6385o0721l0376n313L560J4678M1648O9512P2161M0242j1302n3402o2307m0643j6961j4749
91630a8442k8301l8596l9555l1668m718M7058J00398J20853J03311P1944M3944J7638p704k7420m4912o2129n9833
91613A41868j9826L2612M5425P800l3226l7468j9723j4956k5772k8899j1780K0546N7811Q3349P7044M0421N399r89
91595C19636J0541J0538q830k8697k9081o116K7269M8524M5361L4552M2606O1414M9996n331o2949q1817p6593q4340
91577B66683j00325q8712m4077J130K7871M8776P1434Q1375P2541O2461O1703N4120K4873j1506k9075k3847j4072
91560D61353j5143k5228l0622j9148O170K4515J6992q673k2360l401M0139Q4670J12862J20165J10772R2434O9692
91543A015189M1887J2960k927J832J0360k976l9127p3042q6361q3106p0740m7388j7083J711k988k0268l2963l9306
91525E65664m6415n4128n9066o5066p4355p4989n2805j3610J9273K9095J8275j53j3071j1187O071K7074L6973L2516
91507B70096K3473J9431K0171J9302J2491Q50j1088j9195k1622j6411j93K5083M5670M6058K8814J5049J9352L2850
91489E10181L8142L2165K4968K4737L5808O2670R8945J17766R4648M2786N707O906K4130K4569Q714J364J0609J9055
91471A183870J4674Q865J6993L6393N2811N7221M6096J4904l4525q3749j08463j01398p5934m6725j6706J4198L8428
91454A016953M6486L7621J8798j258j0384P337N6569J14836J44378J27622Q6096N8650O4137Q9016J05678R4402N0404
91437B107341j6551q0990j08445p9607j4609L4686K7530k8568q7673j11833j02001q3376p1711o3928n6386n6660
91421A207219p0505q5912q1702n2912k0476j1403l1498o0200p1045n5004k5469m451m432j9432l0388k1303N697L1127
91403E97911L7034K5905J7623K6036M1809M2852K0982o806j6818n317Q639P166o387j5838j4729j0601p327M884L5273
91384G82291P5514J05248J11196R4172O1433K1973j0972k2977r798J6358L3844K5437r553n1582p3074o2618l6602
91367A050290k0588k0926k2696j3947l28Q022J4656L3771P0191J05774J08774O3327o395n0008l9255K660L1048L1690
91349A346060K6090L0604L5892L2954L5901O2947J07365J40749J38867R9816M7959K2847M5953Q9988R9876N5545n129
91332B414284l8288m4945m9474n2426l8180j5166j0904l0109n1672o8677r8124j43175j76119j72536j40388j03757
91316A180344p7634o7607p1911p2047m4593K142K4847k886n5038q9693j00563j04877r8013n8728K839L9788K2966
91299D29336k4189n7477n8260l5653k944K8690M5498M1699L1309L2990M4832M9054M0519L3653L7827M2799L7089
91282G16772K6390K1686K1363K0416K6663M6100N7500K9581l0506p2579o2568k3928J127J1626L6878P5470Q5499
91265I87490M5254r625l0724j6565k859o820r950M502K2455J7368j5938n5736p5229o4931l9340k4608l2299m2236
91247F50209k1306L4092Q5728R6304P5397O3438P4067P9414O0448M2462N5893Q3095Q0563M7147K8975M8560O9377
91230A653863N3950K2846J9244L6071K3606l2591q3373p9029l1442M697n702n1388r7961j21473j22811j18633j18183
91213I51691j10737q3646m9141l6945n7572q8815j03743r6511p5524n0336l4873m3174o6422p1404m0201L679K8554
91196b5120L7710N2634O6462N0705Q089j8436j791L3960N1507M7910M2219L6541J8317r721l1112m3592n7962o7676
91178A90644m7413Q095O6018R0053P7807N2306L2475K5814L4223M7696M3421J1446k6255m1289l4693k5313j2082
91161D92953K0552O0726O8802L1374j4207k7775j5732j2486l1336n4727n9028l0315K9212R0396J08192O8121J0608
91144G35330j4687p850o203k3918l6521k3025Q291L9583O1123O4055M2004Q461r278k026J3203K0131J7295K949k7418
91125H61499o1098p2447n9141m9250n8496o5936n0765k9370l0718n1033n8978l7576p6K9434L3613P764l3568o0998
91107B12860n7664l8255k7463k6762j9069p79J0859L863j0743j2716M749K9843M5230M5256M1382M6654N4129L9820
91089C41194p406o7136j05277j03919o9177k0354K0087L5062K3040l185l1510n6782p0380n9226k4779J0740K9958
91072a59050M1509O2282Q8049R6496P3866K6512k7793o8004p5893m9007p756J9019J6514p979l1768l0580J210L8989
91054F616M9687L0052Q232K947K561o046j2731n283P278J3525K0956L4797L5535O635l1086m3944l2216k0705j3245
91035E3565P076L6101M4265J9306j6113l5046l0168n841K7519M8977M3306K4321J6394J3131j3913o1880q7786o5353
91017A7861j9105J3647K5767K8065K2930J3390J5271L4125M5631K3360k4521o6212q3531p9110n6768j7881K4647
91000h2434M7388L6223q71l9254n3896l8856j5279j0590k6028l6390k4412J648K9202N7213P9366P6020M3915J3735
90982E6700J1674J8222l907m8703o7970l7080J0779K8281Q910j7959l0824l4540m0338m5433l7712j2390K2183N3221
90964a66886P2969P8161O5240L3658n429l1631l2118j3076Q637K0540J7895m77k9567n3351n3837l0264l112P754O109
90945a08785J1882K9536L5645R014l4019n3039l4886j1933j7523m0249m1907j0674K6300M0166K8555N854j3575j7555
90927a97193l95K6279M0598L5119K2364J2625K797o605l065J5181K3658j341m6727p2204n6958k3105p188j6558k3475
90908b76193l347L0288M0569J5698j4767k0832j1268j2747k3568j6469J5250M2679L8175O130k8377m2643k5710J3829
90890b73303M5420M3813K1888J2739J8404Q886k1585l6752j5040J3759J6411P838J9286M0894L7324N404k4948l9503
90872a19065m9900n6349l8283J0038O4094R8207J07474R4983O1657J9070q000o306R533J5037K319j7626l1486l5230
90854A20167l1798k2262m236J6827K1265m499m1711n4851l9428k9435m4212n6482l6726k580R509K039O484K7745
90836a64184M0188L3970K3013O909l0215p4361p9644l0835K8646N3315M8625M3199L8354J8087j0393k0840o007J5448
90818f6725K7052K8706K5335J9959J7811K2795K9291K7435J4838m925l0390n8462p6698p1316m3603j1020Q640J0797
90800a30480M424L085J3043K7103L2055K2670N140j1075j8238j0845P691K0814J5113J103J654J7805K5104J0274r308
90781B7132j4728j4025k3509l6167l1169n921K3376M8380P3574R4549R2340N6045k191n8907r4734r7515o7191k5250
90763e5911m847j8421m2070m2760j5376J7564L6993M2672L8587K1666n698k6003k5453j5231j6774k8344k5954l18
90745a65678K8768M4474N6778P4776P4775K7494m8591r4727q0723l9530j9288k2925j6150J8030N7134P0657N5287
90728B0561L2096J8422J1211k206k2041l0845j3266K3362N4503O2600N0134L1475J9277J6469J3349m415l5667n6813
90710A88206m8575k5196j8130l1308l5349j2308J6642K1863N476o181J516J9637L1876K7620M546k8451n3647n8937
90692g00m6731k4882K63J5890M753k9372n1874l3320J2650M6627N1039L7961J5947k0552o3796q4299o6149l1047r379
90673b76971k880L876P489j0749m5460n8728k4498L5163P4802P7088O2253N1123M0289J9517m818j6726j0719P524
90655g2425L2329N6558O6140N2535K8070J3003P960m518l0021n1349n2482l7595j9075q35J7777L3618M4142M9464
90637A33296M2030O659n6864j18512j36625r0972K760J01403J56225J43555Q4072K2150j8586m6326o7683o9506m6836
90620D0240k2847j7766j7572O05K9044M5574N4554P4047Q8523N8473j3399o5612n0826J355K1615j4313o4691p9607
90602F7397n4679k1763m192M050J7406L0995K4776o745m2165n6646m7731k9540j1919L059J3629K2180L8044O0054
90584F210O5885M0291O549K764K8937M7414L9297K7534L1762L2263K035m8568q5764r5603q7780o7721l2926O669
90566h0752L0670L3503K8751K6256K2947J9207K4326L6887L6310P995l2799n6689n5110m4592l5932j6448K5065O6806
90548C6401O8800K3429k7623m0977k3367j6197l5449n2878m1322j3608j112j0259j8871p940J8818M3470N0517L8543
90530i625K3217K2467L1198K1332k0762o7678p9294n1441j7700n561r858j0378K497K3362L7484K8580k386k3365K467
90511a05444O6208J07906P8681k715p1050q4035n4816k1348l497M690J3511K0184J4217k674r105J3316M9597N8135
90493G1761J7510m4147p9099p1417m4552k4792j6299j1938q769n182L481J7085K6960K6968K0909J3198Q42j7193
90475a24674k9303k0820N927K8729K6544L562r719J4352O5948R9474Q0549K6306j5391k2752j5553j3790r279P719
90457I7829J9323K916l1495n3154n1616m0521k6420l253K1078K3275Q99j4516K663L5828M7004K3277j3949l9123
90439D5m5864m1398l1919j9136n141O531J6901L4010O0297P6664N4063o969o0437n8311n375M8199O5075M9712K2021
90420A58968q833l6913n2357n4889n4497m9279k5546R232K2024J628j6967j736K6606K6136k706k1916j4804k524k852
90401a01225p482o268m711p727q452j314J1612L0276N2471N8792K8429k1911m1843o805M5912N9459K2459k6333m8847
90382B6492m3053k8990j8171o836P143J4296P991J586J5091M2737N2026K4424k1357n9817q9914j13203j04412m2547
90364c36514L9190P7580N6437K1991J5190K5884K6052J2902N61k831P107L0117M5024K4510j8690l4742p169J6348
90346a053o409m6942n0702j8311O292J0330K0705M2445M3224J1878j2164P967N1969O5542K5297l6037o3722l4117
90328A6192K0159L9013j637n9088p0522k6190K2234K5413j1318m3062l5635O032M7966N9855M3254K6640K8731L7452
90310A25489L5774L1996M1194M8487K3267l0083o8023o3632m0051l4432m9577n8097m1363r291J2062M037k7746n5884
90292a55873n7031l5825j5217o454j095J0991L1178N6248P5440O8126K7550j5386j9815J0602K9358J0108k2170l4702
90274d3967l0007k5271j6541P925L5778M0979J9198q318k1356j5394L652K4230L3361K6925J1209r648l5768n7508
90256f0521n8426m0587k5716k0706p291J9334L2277J7751P401L0771O1116N3268J8948J3130M8961P7578O1384K1179
90238B49851o746k0162l3979m5837m5720l7753k8430j0915J7432L8568L6371K0927R201k960k4436l7879j7221K6814
90220H7126N0222L2033J579l340J4092J9830k355l1588l8147j6180J5960L7423L9104K2651l318k4599k8577j6712
90202A55204n326o817j2435j702L0250O1804O5073L3883j1171m3805n5947o0520p1682q5473q4215n9229k2678N482
90184a69304J6709J7677K0881L3338M7076M0261J508m2758m4798N683N6795N1688p78m0314l4536j0848m459r422r98
90165f6599J9518L1204L2162M1616O2388O6934L3318j9015m6090l0260q59J197l0732o9049q9841r2258q0730n2427
90147b89523j4381Q509L235q468O41K4081L6529L5690L8739M5667M2053L5464M8717P2127O4979J8595k2831k5349
90129A14474j0742j1689j7962m057J8638K0531O448N476J6957Q874k9526o9199p9150n4063l395N6637R6312Q8077
90111A52641L9650j0334l7107m9386n9011n5768k5837K2019O2564P6784O0940K3034k2960o5134r6979j08105q1507
90094a74496j6983M8936O9701L7883r692l5304k9329O78M1219O7329N4664J2031j9751j7036k964j1355l7309m4359
90076f6137j2812L6446O4561N1864J5882l547J5380M8389M9988J1117k4510j2914L5003O6443M7343m510m4429m7281
90058B26276k7291j6543k6713l6517k1449J1382L0631J8874j1868l9868m9977l1474J5568O4416P5412L9010j0620
90041B09249l4927k7935o329J5807K8077J9218r433l8001n0089m8865m0718k1073Q260K7016K3076J5464K6457M2351
90023A37605K9034j7298n9298o0354k1306K4748M1588J6243l1131o4224o4531m4194k2221j636K1107M0177M8424
90006b7267M8666M3349K6980L189p382N068J9006R423j7193l5555l4560j7227J4204M7155N0361Q658m5279o4954
89988B6642m5585j6436P291K7967L4204J1366k0470k4413m145J123j6819k1779K393K2848J4161r93L731J1627l995
89969H718k7867k1539J9915O0075O3393K7013k0347l9371j3910K6597L5662P560j7676j4392k820m278k986J7304
89951A01051L0833L990m7265p2740n0629l401L7942N4945L8037n439m5276n8623n8553o5804o6178l3248J5657L1564
89933a93137O340j0294J8282O3372P2325L6599o240k3438j7163r028j1193j4853k804K6733N2493N2663K9595K005
89915G2257j9499l3143l0424m729K5094K6887j081k2448j0840J5889K5459J6756J4307K8495M4184M6522L8084K6252
89897B58022Q178k2690o0772q6602q2489m9635r648J2731J0729N5K018K2271M6201N4949M5001K9205J7574L674k1293
89878A77479m5236m2108p528K7000K7617k315k7988k2821Q582M1569N2805L3289o867m4928o4421o8089o8279o9639
89860a01878o7933n9275m1216j0677K8295N9212O6517N1499K7676P088j084R846L1719L9721K0900m169p609O763
89842E5395J4272J1328J6035K7993K1769r809l6450l0311m16K9371N2113O5521N0653m931p2191j00394p4298k9330
89824a3680p000j5470l8972o4128q1834p6844l6858K5492P2767P4190L6655O66K819M0532P3626O3599J4526k6594
89806D3492j6636L4339O8003L8882l4916r1629r1981n2581j6053o269j7760l1227k8112k870K7057L3446R809j7726
89788a52732k0266N155M4098Q3825J11069J10962Q7856O9526O8616N8472J4496l9596o2646n8661o4767q2575p1460
89771A01372j8661L1422L8719J9144Q351O058r860l4136l5151j648L7749M7425K5422N643J8370M8604M5193j6129
89753C17887r2503j20369r1308m9602k2153N791M1568O0021M5707J9441J470j3725k4272n515M1487O7623M1297J85
89735B23030o126Q954K586j9469k0297q272k7071p1404q0873l2723J7373J2224l4261o8081o3032l0422J0755M5451
89717a41658O1591N8464M5746K6151m332l4790m2792k8094j7006k1558k1005Q45K6121L0220J5565l345k7533o0676
89699a38086q3902p0790k1642L6829P9959R7066Q4595M8301R522q203j60K0176L7658M2450K9494M750j3609j3287
89681A41121l265j06m508m344L537R283P102L175M103P275O263j04o980r405q465j1368k1816l0669k4386n775L375
89660E4043j1845l8320m8863l2600k471K3892M0631N0729N4947M8077K5352p819l4210l7740j9517L378J6277J8826
89642A02767J7712J4997P795n167j9357k3641o417K7753M8522K2283m7476j12786j24587p9027j4944K7624L9397
89625a24552L9254M9767P4205R2830Q2658M1581j0179n0018o7009o0401l8761k1333k3394l5197l1850j0633P55j5432
89607a07709l8404l9178k3217j8754l2180m1078k9697p172J2876K9536M3413M5702L1260J3486J3100L2381M8553
89590f7082L8103P577p850J3657M4869L5887j8365o1172m3637Q686K8551l865m0764l8064j0027M492P69M876K7047
89571g6312M8839N5047N2933N2685M7445K5551p332l2081l9972m1679n0344o4188p1290o6226n4958m4825l5887k2546
89553c25140n91K5864M2266L4697R525n651P798L4922M7657M2636L7044L2002J1455j7510j9301J6208M5979K8585
89535D8445j7093m0524k9131j3316j3133j8008j7197j5411j5696j6040k4064m6219o3468n0241j8152n002j6819k0146
89517c91215K95J9892K4776L7388O5492P0710K6525k8406l9834j4036L093K426J3849M1385N1395L1208J0923J2271
89499f1863J6218J191j9588k2815j2908j0053j5022q641J9175N4886P3818O0314K0320k1471m1247l4220j0207K1323
89481I210N0639O2006M9417L4262M2864O4589N7708M342o3709j03473j02785p3271k7136J9322L9128J7197k7794
89464E2516o1493o7354n0340k0020J3060L4274L7400L5094M1298M9024M1312J8497k640j3951k3452l8021n2594n7739
89446f5129m7633k1867J0497L0427K3339n495l5942n0794m5234k7639j7271k8833m9566m6543j0923K1783J6244j3689
89428c64268k7112j3761M056J8657M4506P5145P6004L7903J931N420K9805L1096L836j6118m978J9975K6771P411
89410d3721j4676j1455J4627K6708k384m6719n3145j2639K7650L5664L7082N8244O7010K1473m5791n4396J2115P7999
89392I3646P5145K4100j0693q940k751j8432m4852n4426l2436J2488N2672N9915L1004q197k9582k7032j1818K365
89374A02176M068j0505k7109k2785M352K8694L0001J6313L236r281k2840k4027n769J0655J828k1116k9615k2068
89356F208k0624k9370k9212j5077m656m090K450J7823J8070q668l6020l4286j1194N323R623J9459M3473O8765P6727
89337G4724N7564J7521j4707k452N7033J13950J12007M9507k4769o9530p9894o3990k5806J7791L3383P465k9320
89320B30477l6157j2126O599m898l3322m9773m3622k6855j4287q998o069m442j0773k9586n0750n2326k2139K3394
89302a45653M8061K8814k0106n8856n7713j8997L3436P6645R6586Q5548M7047J674k5855k8414j5923M051K8245M0552
89284A19142J8564l0104o0986m2688K688L0045K5940P611j5643m4459o1321m1619L234L1177K6962J8729K5419K5861
89266C8552R64k8789l6186k7560j8289M169N2747R5958Q6464K8721k2787l2963j7071j392P679O080j8362n8915p9731
89247b0711n5028k352L9380N0552L6374P931k4422m7953n4131m6637l6019k9981l0481l2380k4837n248R476J852
89229b64615j5234o951L8138R0454J14918J05379P5782L8942O569j0427j6880k9711m6085l9635p446Q352k1502n8026
89211c7978m1135J8737M6755P470m5798m7357o273J7065j672k6362j9128J0905K8114J8511J147r93J2182K1637J2361
89192c1812j2185l6940n0815n1862l9746j0536L5668Q3392J05060Q2922K8958k2272m4324l9312k5749j4689o776m958
89174e5976j3195k2647j6422N856K2525J7194o17j1842j4041j9245l2106m1733l3758n496K7409L8925J6420k1167
89156a59916l9964k8071k337K1655M4318O0935N3476K0230j0518j7473j4564j8167j1351K3851N7582M0785k1667
89139a196o9168o1053j6772K6307N6662P5154P2568M5650J5230O186J9709L6865L7721J1058l7059p6379p3292k9253
89121C8938J7792L8007L6704K9660J6164p749k9650l2876j5548J4223M6229O1687M0918o835m1876l9884j9690q135
89103A38079j460J3646K3606O266k7965m7302m4513m1071m9005n6999n3385l7905j2643J5130K5738R296j0077k306
89085a52870K0626K0965m43N31L9494P0782N1986M997k1101k0229k2647l5765l6262j8665r917k4730l8345k1477
89067a93070J8556M9495N3692L9451K1069L556j4075l1474m5219n0670m6427l8079l2680k7693j3207J0414K7134
89050b69227K6686K1837K9449M0466K9435l468k0912Q229O6818J05507R4277M5702p504m3402n9253o1522n3822l3722
89032h4426k789K1855J8063j1847l4456k2008J3206L7250L8685L2905K7602J1719j5656l1343j7588J1611K8444K3348
89014D4575N829j5356l6910n1612m9545l0048m356J5301K6603L7119N2519O4001N4821K5938L861O967J3916r374
88996A54249n4918p5711m9295p008J3275J3421J4220J6257R774L473J2090K6982K8938K2978L0980N1506N5099K4686
88978B90996k0354m7020m1423j4973R977J7120O814p967j7502k0401j1857J6035N1944O2252K9899j6972l6202k1417
88960B28949n45M155q690l4014o2047p0382m2502M973L6843M0348K9050R773k4388o5052q3676o8079m0887k8226
88942a74397k7879k1580m851Q783O235j0575k5003k0077K288K1529K6010L0531N1723P6816P8507N4242K7108J1524
88924A10934K102o250j2392k1196l5549l8239j1619K5024L1793O870o617J6060M5068M0529M015l3773n1669m4978
88906B0113j6546J8222L5549L0605K4042K7288K2603m679l5826m3452k9894j7745j4893j2073p008r552k4805m4740
88888h2791n5241m6398k2990o384j2594k7097k0093J0584L5435L7501L2671L5574L5314K2205J0594J4571K5449L2990
88870A9300M3357N5806N0847K7274K0923N3263Q7051P1359J2644l6387m4419k3026M889K0779O476l6566p0667o0415
88852B02488k2144k084j3762l2820m4323n2939n0704k0945K0710L1675n11m1494n9154n5577m2693k2260k170J282
88834b07425p813l653K0109L6438K5458J182j4431j5284K863M6757R8084J14351Q1307L7000J9571J8201L814j7971
88816B38558k0335l789P397R562K3630N2725O6906M0486j4427o0634p0692m5278p871J3629O501k0536m9347o7434
88798I9051p1452o4109n1240l5283j0327K6223N6048N0730Q834l2736l7812j1186J3795J9956K2578M1631P0107P6675
88780A71483M0720j6412m3956j6175L2621M5514J2109k4392l1478k6807l7475n0526l4896M542K9636K1769J643p258
88762G0662q861j7789l1017l0762q384K4442M5936M1417J3263k1904m5399m7584l1684j1962n435j5530k3230n908
88744a09729L1618N7432N0086K2781K083k407N189K3931M8239N3922J9677l6588o8056n4255k6516k5716m9931o1246
88726a19486l6296R373M7635O9937Q3452Q7768P2837L9492O282j1271j7937k6497l6434l6055k0533L580K8084M6157
88708A90088N0410M0880L0032K3958M762m5104j01939j13226o1431R667M7839M9825M6589N0851M6479K1404j4520
88691B76564m4020n6245m7017k1475L518J3539J3076J6244K3584K1647M436j8724l6849m5816m2834k6949q808o642
88673A7229k4682m3171l6931j516M0665N7444L2912j5730m8496m0102r275k38k9476o1249m7935R238N4693M0066
88655a06554j8863n9576m4190K368L0234K3354N128k125M33M285P532O503n038j7718p701K8379N6937M7466J8113
88636c1033J5880N2474Q3895O3363n66n2189n0134r108K2502J8524k068p872M418J4175J0283J59j0941k6281l9765
88617E5716l5055j1909P419J0488J3921L4508N7839N4827J9158k7493n8730o0361l6297r456k977r420L050M0450
88599D5678O3858M3263N971j380J9883L0304J8006J0195J9083J9987m548l4713m5160l9360l3595k7993j2959R608
88581H6128K8611L8669M0919L5749K3280O091j2707k9500l9381m2895m9630o3811p0963n3370j5187K3227N1446P1130
88563B7806P6783N7562J9374j6010l6430m5885m7148l9376l1536l3016l0445j817M2900O5589N2028K9585K1827J6978
88545A28769j150k0321k1807j3183j4459k6281l2902k5645p349J4651K7360J8799j644o292J3634L1277J9359j4916
88527F7900m4585n4457m3299j5025J4621K2741R614M464K2063L7087K5490O414J0904K8920K4880m943k6671j6599
88509F9519J4449M0962M2924J4586k2567k8169P465L6744J2359m1966n9749k3063K0046K8346J0026j3632l8632n6139
88491A3509m3974m020K6185K2186L894j145N300J2968K8389N2632O3042M7058K8496K8530K5563q636n2953n9640
88473A87384k2279K0663M4739N9822P0856O2270L3579J2112J0591K924l4095p9097r3070p1584m2742k3793q909K977
88455A32348j557k4281m3254m0594k5164j2533J925K8499N2230M4731P927k1970k3667j7820k8000l9795k6858k27
88437c8060M809j3546j6256J9534O8368R2990Q3937M8462q900p0228r4866o0686k717K1965L546j4906M65L6390O2101
88418A22402O8540O3153M5765J1017l1370n5702m3798m125L4600M7904L3483N451k4139n0301o4218n3840k3795p50
88400H0277m831k5444l9354m1335l8361k4983Q572M7572O1100M3080J8915O101l408j2034m01L5998O1460M2514o17
88381B14821j7484N387L2260L1566J1362l163m15J8469M6677O4374M5624q063n5051n5210j7861R940j25l0076m4864
88362B48168l2133o225J4726K3978K2343J0164j1967l6662m9856m3373k7104k0303k5940k3409J271K5488J1505l8562
88344D2109p2341m8349Q951L9361K3748L61J955J0885l364k9086k8738J80J7385j914l1555l1663Q82L6825N3838
88325a0530N2739M4409L7835L5425K7348r01m2546o4334m6633j5988j1214k6520k2252J0338L5734L4074L1069M5723
88307A13776M9884J7485j8902j1223K2954K0087l0311o5207m2575k045J560j8212q378L6908O9618O0529L2409J4221
88289B42578R21k4109n3120o1625l9318J882M3288P2556Q6674Q9003Q0867N6266J2573l5105o3342o6678o1477n9538
88271B22296n2485l0159j142J6218J4151k146k2926l5368k7672m098J3069J0208L077J5333M2797N7464M5363K2222
88253B86202R422J0622J6745J9476J3265m027k4693l4521k9664k3069k8325m3391n4786n1407l0813J20K6418L4963
88235I2537K8340K1797K3265K5634K1742J4020L014j8335m7232o2344m9539k5605j6875k2085j9068m336Q07j1726
88217d5989j8693N92L1178M1534K5539Q171J2738L5619N3257M5954J5180j7238k8114j3866R973K9149M1054M2753
88199B68791K3705j7894o1082p8872o5501l6788r016J1071K1824K7639M0314O2304P0905M0150j7913n5809m5436
88182A78392j1909K221q993j6515j567K4922M6111N8345O0122M3116Q445k1443k3993m278J2389J1853K14j6650m2790
88163B97992p2523p7911l5269L8945R5446R9523O1382J6595j2209k6634l4914l6662k6970q360O330L695j7105m1483
88145B29868n1990m3659k4835n929O254N953p553k1170j6604N100J9896J1795l834j525J9595L9154M6098M5321L6891
88126B88826J2537k1932m1375k9532R70K5530L2028K0503o611m0087n9459m8841j5536J6389K9308K3443R969k86l687
88107A92157l611k201M919J7807K0932L25k7346k6137R232L9032L1988J0598J6296M5548N4611K2883k2139m6593
88089C38301m6611l3729j1393J7703L9427M0642K4142J264j9830l1697k7984j5816j3574k5484l2972k3566j1709
88072A67114j2892j2719J2436N2101O8622M9091K2389J4909J5004M92j7829q864K6765M6257J7705l5137n9313l5775
88054C10356K962J7196K192k0692l5515l7667k2133R696L5077K8162o03p887K5508O1929N3074M741l2062k9883j4750
88035C49701k0431l9744m0413j3885J4376J9432L042j6288k3896j4497Q884L1218L0770L311k2077q446M2573Q3972
88017C87602P4108K4640j6159k1456q963o641j7105k6204k9421l1972l1582j9872J005J9080L0516M2334N4791N5434
87999D80135L6181M142k9998o0653p6588n8776p297M0399M2093J761l3282l0727q233l99j1270j8966j4639j2166
87981B41717k0670k8969k2974l644J7911L1066K7091L648k5104l5496k0751o89L139q022j8492j8693o467J8942M8909
87962A82452O2707N1049L3484L2629L9781L0160N659p889n722j1948l2970l8074p634K8034K7417l502k3351j5634
87944C46648l795p957j8850k3063k7779m4127o1859n8379k8259Q024K4446J3300r392j8014J886M2606Q0660R3182
87926C09278P1810K7672j5373l8860m4802m8508n6048n7781m6267k8215j2398J391J2278J0867m868j8602j6767j0213
87908C4594j6424k9143k7331q907P088J0077P931Q060J0283J8231L4463M3221K4742q187j6301J2373M1595L5759O040
87889A88164j2212r029m082j3788l4837n3427n6342m0742k2858k4086l8723l3980M425M8694O9566P5165Q1358O8993
87871A92259J3890n3471o7828j3374N4085Q0099O8961N2749L9866K0813n11j0866r990o090J267J5262K8284L1521
87853D36926L0075L2954L5510K6767P366j3546l2091m6536m8263l1353n680J3631K3904K8333K0155q311m6212p3015
87835C50614q3410q3605o7179k1349L8978P1621N5628J8240l054p522k0147m7577p0187p3106o0931m0491j1632J8129
87817c6980L0793K3164J9461M1126P2965P7926M2376j0738n2397p1289o4539k9472K0320N0000L7895N891p092L236
87799A52646N711j6669m4053n3766n0181m5906l5998j2153J3341K0869J1852L725M274J0232K3228M4459N8811M9258
87781A39680K6279J8273L0126L6080J9701l297j2034p880j842N168J3244J1333p111k7349k9084j1513R754K1693
87763B31221J8630J72k1620k5104n186J4589J2984J284J748Q846M13j9309k0767L585K3568J3419j4822l2518k8701
87744A62432j0543J1632K5382J8528m084j9426j5348n969k765J1779N6534J07894J13823N5777k4796o9011n5524r142
87726C47173K9827L6922J6195p660j3578n189m016k1428m5155n5738m7419k8416r362J799K42j1382k1374j8479k451
87707A40511J8248L6110M6936M6030L0895R777K67J2206L2481L3497K526l8411m9095j2930M0712O2907L4709j4835
87689D32541m1224k9189k157O600j3939m6255o3010n0858j9578J0130K7225L6850M6894N4469N0950L5936J8720P526
87671D61631M553R659J9165K1175N409j7069j7903J2607M3791L6332p579m4396m2503j7446m674j3004k1920j7289
87653D10539r552j3328k4852l0307k8866l4510n3280o9005o0768l1687q495p775j3937k930K0092K6015N083j6147
87635E6290j0418J5208L3832L3921K3228R134m273o513R310K7943K4464j674k2781j7036Q703L2351L7107J6900k0062
87616B45634m9017m8226k6604j4142k0696k5809j5406j898M819J7795M2759N2743K2842k6091m9378l4372o243J3174
87598H1884K2313K1238P789p149q814m162j1001k1826j0885J7954K6017l995l9382m4321k5703p631J2795M9980Q6227
87579A41328Q2239L1945k2567l8152j3159K2878M4436M5005K9168M131k0250l0962j9499O332K3804J8020J719N30
87561C06946J7613K7900J2867j4170k6917j7387K065J5842J3332p313l0773l2206p438J7186K0803J8866L5888O0965
87543D14069O0703L1515O660P120J5161O844j5523l7823n7536p2961o7067k7244K5807N1630L4190k212k3047j7964
87525C32322k834K067r567k7484l5349k6422j1875j0797k7873m3378l3056l97J9844R6m2985o4110m2492l334J9293
87506h331K3131K7876L9762M6268L9376K4832J0566J850M919J9093K8927K2102J1393J7671L3130K7054q141m2690
87488C18788n0576m1242l7766m3818m6777l6894j0699K8140N9691N8318K6531m85J173J6165K2082K4123L2822L1958
87470C51534L751l0603l4400j0140Q717J5287L4092O4064O3454J1968m8060n9586j7832L2969N1648K9322j6339n4878
87452C94968o2775m6961l8677n1743o3016n0107k9051k9269m4168l6542R216O5876R7045R2275O5686L7212K0469
87435C30438J6188J2758L93j6710l0225m2134n5022n6248l4008o249o556l5162n0069k0901K9569N5705M4198J7806
87417A53771l941k1854l7708m2713l2326j5379lJ6173L2827L7253K2809R136K4651O7092R9486R4979P1136O2903
87399E38292P0208N6678L997n6381q0778o5231l9314k0299j212J7563J5901j4292m7903n5910m1930l1280l4258m0371
87381A73480m2471m3983m1784k3680R798L8046M4755L6645K7650J7234P6j1289N411M8781Q5490Q4395M8688N595
87363D62837k5611m1842m0306j6417J6944K8027J308l5322l8002p11L5757L2700m494m0698n2562m2951k5085r491
87345B04081l465q223j5152j5432j3121j8037k6312k1465J853K7734L8757L5919L1903L2758L3938K8465J2628j0429
87327C16400k7450k3694k533J2835Q635L080K3001O1593P9734N4612R724j4520p780O003L154j6802m0115n4225n0482
87308C41170k5916P694K5576J3932j0293j5944M060K2390J1474k1448m4094l8874j9563p777o501m253M295J3212
87290B49140J7186J7667J6586J2805P999R293K0359L2968L3373J8232O89l014O736J0400r146m3569o3786n0170j3031
87271B70717K0167L2089K4772Q370q708k0205k3479k3335k7178l4015l4357k2326j301K2599M3391N0465L4342M463
87253C16471j1288J990K3038J8079j5378m4647m3611k2282o749k980M814K4543M0661L3573N700k0394k7765k0452
87235B53323j0603J521K4869N7196P9979P8747N7848K6705j6733p1905j11982r9811l5654L0970N2013L0017J071
87218C47571j6876l2955m6839l6630M675M6997N9424N2475N8176P6456P2294L0632j4864k4558m557O246r975l2496
87200E35196l5888j9429R90J2041P322j1331k7344j8492J4806M1493L4851O649j0842j0700j6908m2223o3601n3154
87182C43436j8766L988m751l0276m8281n3152n2938m6542k1600K2513O2358P2472N5207L5330K4601Q364k3796n0763
87164B77404m3216o533K3245K7338K4796L7444N6639O0801M9006L6258K4837K148l5064p2357r3537r0622o0436r610
87146B08541L6281M8738K8910Q149Q454J8340J7884R825Q062P998q321m0066o2125n6954l7134k8752m1609o1470
87128F4751o4613l5743K0456P9180J12023J09900Q7439O2318L6105P28m1530p3115p6634n0381q102L2947O2716P9406
87110C97851Q1861O4179K3119k8128o0844n3376j2948K8664M1033J6273k9476o8626p8967n7302k0063J2187L0985
87093B86422L9145L8870K9078J3104q42r120j4656j7420j2171l0O883j78j3919k0059j4416m263K974N722O688J1006
87073C32818K1439L0144K1966n742l3004l7396k0222k607K05j0339k5841l6639k9123O502O0636J06127J19173R3575
87055E91672L8886k3916o8209p7829n8309k2857K5204P9108J07712P8624O031n2927n9398k7847N969K3262J8530q499
87037E75207l7273l3711K297K5786J0612p751J0183M0073L4688Q503J6960N7926O3127K143o7189q0395m7066j5305
87019E58815M64J2994J6162n382l5844m1215j7855N497J0458L918o175j9814k8682j8519O413K2381J5448n297k6412
87000D47355m3528n1123l7673k550L3548M6761L4457J4766M863N673P644O245N994Q619N953o695j6872r326Q612
86981D62723J4157K587p108m747l149r398p789J0028K1027K057l1766m6667l5529j6602K024K6434N1137N9888N2476
86962E41783M4754M2103L7584L4698M3133N0295K8448k1187o0171o1333m0883k7989k5435j8835o661P0j600l662J46
86943E55258R842K2201L0603K8151J6174J244j9177n4303r5929j12077p9659j5736L7716N7071N3863M9877M7666
86926E32785L2812J569k4099j7785J7468M8685M9687K5860k706k5438l7236k9974q054L738q041k0474q066J3800
86908E44531J3294l263m189P021n989m5667o8421n3780l4605l4904k7433J1818N0239M3975N905j6761j0667J190Q114
86889C80408J9669L4794M1654M1856M2562L4923J3411K566K4304M9716L0241k5849n6520l1403J2471L2616L2454
86872F79873K9126J2945k5793n8272m5333O557M9273M9845J9738j0473k3604k0184r024k525j0879l0830m3784l3711
86854E32945p424J0714Q240Q63J0309L2463M2289K8720P201m812o295k108M612J048k9819p6810r6812o5263j2044
86835C78017J5807J1006K049Q705K8583N4974P9427Q5753O7985M5953L9730M1674L8871M4147O9868Q7687N7587j0496
86817A147327o5649q1570p3152n5437l2645k3050m1803n7179k0037N4346R1773O1963J7199N487N944j4844l9643
86800H79030l9909l0498l3562k7419J3269N7740N7739K3759M755P090o786m4322o6239n0693k3511j0479p68K4146
86782G33342N6157P3542O8319M8780K9235K1325K0992N682l7668q5082r7004o5936k2602K650L427j3318l5471m2881
86764F63489k2218R911J9684k427k9930l2847o549L1625N7947N6107L2709J6739K7046M6788M9501L9207L6297L3729
86746A026808O820l3772m3544j1910J3118p237m3889m1766K387L9681L5847M981k2092l3538l2694k0788O50J9289
86728H58351J9876M982k493J3475L7528M0164K0938J4653M1446O9580N3079k918m4508l7981p961K510j4592l3916
86710A032213l4192j6322O554K2401K7235K7606L3577M6118N6560N9030N4853M4367K6160P331K052J4137L0253L5405
86692A475338K7527J4211L667Q45L554J332j2199k5930k1760Q78K2763K7746J5988m397k4329l2817k5431j4637j4810
86673A417539j7061Q8L2552M8178L1590P662N457J8995K2294Q341p084j1516p362j481K587L186K25m955j2853k4365
86653A512017l4725l6795l0866k1028l235K7623N8484O5606M6125K2759J1071L069r223j8293k1429l1277m8387m7519
86635A443977j4743K1891K5665N41j9232j6561j338J6589L4357M1478K8038O508j455Q39p536k2714j4277K3149M8193
86616A593369K4985k3935m4025j8592J4630J8581N042J3117N1319Q2354P0797K9951N151J6429L6969L0835o355n1847
86598A848775q2915q6900n9687j2635K6824L7781K5213P106p726j6174q527J9014M6319M6282J8707j1620k9063l8758
86580A722016m3281l0359O645N0999P5534O6557L2348l358j5927O47K6299L5742K6054J3411O386j080j0754j3651
86562A944228p992n798j2326j3864K597K9081M8286N6364O0233N8030L8682L978k1210j1008L0554O8729P2811M7439
86544B388814K1545R152m646l4435o7396p9095o5685m4571l0376k7197l8172o1003p4605n2390N294O8424J10801
86527B024459J28924J24501R2399L9499m509j5860n731j753p884k795K3425N1276N7378M4141L3228L5961M1648L6410
86509B694717K4697K4138L9904N2613L7778o081n4837q2730q2865o5115m2328k2239p254M203J6347L2715N1149O1188
86491B676000N0453J9518j1226j8669k896J3880J7655J8889L0436M3532M1353K6868J8697K3260K8809K5737J5889
86474C018185J757j6122k8662k2425k85J6391J2983k307j2770j1807j291J6914L9028N6353O1271N2159L0921L695
86456C213988j4803q885K0839N6684Q4909J08219J31486J44159J27090P5356R244l8618m9030l2137j4438o306R197
86439C816954M5520Q0340P3629J7835m7960p8400o2732k2801J3812L2275L5786M1210O1203Q5570Q8287N6334L976
86422D240838m2408o5035o1452m1146j5140J8289O9452J26960J47600J03666L1259l722J2891L4001K8298K2025M3870
86405D650246P0712O3733K9850P808R773J4145P247k625r851j9262k6933j8212J0046M2670O3956O8697N7677L7625
86387E057302K4998L5530O7744J03042J18007R3392K6410n3002r2892o5350N411P3228J14204J26464J07628O1203
86371E803319J3175p955k592J1767L1517N6268O0794K0527l6284m7092L281N9910P3974O3480P1564R6488J00294
86354F372435P1089M0104L8276O2935R1232J06343J02831P9818M0756r02k2461n997M2519R0916J06640Q7318O0710
86337G364562N4917P4235J01431J14410J02048P3420N1074M7391N1464M8524M3508M8710N6553N0448M1455O3472
86321H387622J21630J73159J78295J49440J27122J22226J09883P6513M5139M3576O3994P0617M5923J5930K0495O3216
86305I814780J05158J13166R9448R9361J21082J38195J28800J00833P6144O7974P8388J01207J21795J27686J23026
86290A1417043J19884J16833J04830R3150J03785J34421J53078J40226J11801Q8869P1965O2342P8357J21830J51702
86275A3070116J28319P3117M7421P2860J06755J04918Q0787Q4430J36778K02867K31117K10742J82232J86398K11480
86260A5130337K09224J64294J21304J26972J68245J94076J83878J63057J56157J57500J53561J46717J44848J47062
86246A7367232J52713J70603K05903K45175K64495K50837K13854J80756J77522K06087K40202K52007K40472K24003
86232B0391861K10798J94535J79347J86369K24218K68369K85072K68231K40405K23155K19899K26463K44035K73809
86218B3636566L04651L16431L00288K72484K61361K78300L06214L20144L14254L02937K99257L00787K97142K85120
86204B7795936K73621K75787K96775L27810L52774L61614L56864L48960L48766L61711L81253L88992L71652L39974
86190C2582489L20571L26768L49389L78323M15555M57484M81708M68410M26467L84468L62234L61232L73959L91038
86176C8080095M06893M27279M60610M95107N03510M83351M70275M90457N21775N29611N20306N23143N35820N31998
86162D4980230N15488N17854N38528N36885M99368M68750M81161N11877N16490M98407M99443N37900N87536O12334
86148E2302251O00085N66341N41118N45023N66309N71282N47908N24621N32052N61353N78511N68500N47306N38011
86134F0090671N49581N71756N80031N56212N13836M89123M96551N11058N06384M88628M74247M59952M40814M35559
86120F7164403M59983M90685M91658M67219M51409M50610M36742L99641L67122L62038L70911L68064L45267L06730
86106G2932482K59698K21791K13998K32224K44880K29837J94613J50940R4280K5318l0056m5538k7950p221o24k060
86090G4686612l28N281M266j7273o2774j16440j58655j91716k34246k86147l20373l20598l07158l10349l35377
86075G2034725l70103m09058m47669m68041m58502m41260m54087n03308n55267n76924n68304n52418n48509n60295
86061F5120980n80104n99005o15898o35531o56447o69436o72132o72376o69815o51764o21500o10566o38695o77037
86047E6150674o82100o57396o47041o70256o99061p07689p08229p20845p37371p35541p09880o70856o29929n99976
86033D6574504n92356n98260n91692n67742n57302n82005o14103o09431n67714n30654n26939n46753n66414n70684
86019C8552455n52667n19487m99226n14830n48147n57474n34975n15251n17207n12593m74251m25606m09936m28869
86005C1541936m46108m44181m42727m58057m74593m67975m36660l98505l69557l56917l62128l79728l97090m04421
85991B5703289m03696m03249m05030m00049l76330l32905k88217k70132k89443l24175l38884l21455k93434k82174
85977B0974116k90882l00373k93874k74193k59045k62092k76199k76041k43841j94131j65002j79706k22164k55262
85963A7481311k58207k40194k21987k12846k06801j96015j83157j78795j86836j96136j90395j64288j25662q6114
85949A4833878n7881n6167q9449j43108j85382j97547j89785j82062j81209j85496j97967k18522k29933k10970
85935A2508400j64922j22205j11649j36210j74349j95603j78834j29630q0717o2549p1341p7324o4847m9922n4627
85920A0833671p9368j08225j28745j36238j28407j07576q3675o7201o3475p7256j11959j55060j75259j50638r7460
85905I163129n7596n6075q0165r9990r9397q4381p0513o7647p2968p5484o8693n8734n7757p0701r1876j12250j24765
85888G814137j23637j05016p1112l1555P0J1396j816k8911m8275m6400l3810l6023o6217j09464j34210j18035o5891
85871F805231q648J8232J753l9807p5658q7598p6002n0716k5625j5676k4825l7752l6571k5623k5011l7911m3087
85854F214706k8075j1715j8800m5664o8747p7769q0423p9661o8914n0733l8602l4550k4535n646r8k7450p4660j08346
85836E370318j08983q1034l9592l383O896j6131n3070p5604p6814o8544n4043k8615q694k7246q2343j17309q1212
85819D454597M713P0010P6748M8657K1569l68k8177n7367p4502p6972o7012l9975K30K4080O17n9916j07913j05506
85801D083513o2864j8534L195O609O235O794Q00k0586n4570q2025p9336m1359P566L1731J6544j9450m6389n2157
85783C685717m6052l9934l7031l8962m9676o4302o5105m1251o573J5244J8547J5171J1696O802R018L1111N9040N2465
85765C515925n550p7584j11429r7612o6145l7935p413K8811N4552N4653L5471J5214M062j365j2918m2047q5671
85748C163019j19900j19338q4629m0959r955N403J1096J4905K8880N8097Q1786O7190J3060l9309n1917l0657n571
85731B941201J1661K7999L8539K4488j5306n2529n9522m0605k5181l4400o0085p5425o4350l8693k3490k6635l0695
85714B496972j7171R934L0584L1636J7016J158j908J0621K4577K0956j150k3440l5834m9781p1105p5142l2997M2025
85696B376951R8042R8557N5425M548l2634n4829o5008o5477o3858p0357q5624r6124q5382n1552j3072Q173J1459
85679A969238J7721L9561N9627N1205J5470j6858k1414m207J2454J5471P439k370p317q574j2552j8750j4507P500
85661B089137L0745L0152N812j7118k4924k9772l8971l4505l346L0255K9812l827l3626l4785j7699j377R687J3102
85643A998752k540l8254o9456o9579m0976o233K2563M6093N5586L5042q580m0638l7824j5400j313J209N906J1097
85625A845455J193k2526l8402l5391k5002j7005o875L698L04j3284l779M3986Q6223O2965k2553j00575j14878p6972
85607A566582l2958o709N482O623o784k7924l8418k7939n806R049O221o463r685O700K8839L1720Q675k0892l6804
85588A449509m0316m2883m2446k5375Q291L4058K6121j0593l9549l0196O752L2721L0831K5012L8997N5266L9668l352
85570A512516l2781l0804k7816n3332q8626r1134n0699P81K8465K6095J2783J1287K6788M0744L2364Q612k260O953
85552A329936Q567j5992l9931k4871K2116N4061M2513M525k8610m5424n2759n9727o9788p6494o5851l4953n087L72
85534I42603j1172j0490J1740L4313M0206L7731L7134K9210N292j7631j4219J2231K9344J4138k0794m3965l9830
85517A035841k0892p777m532Q50J4299K4506J8621J54j7292k7080l0190k5009r023J2598L1279M4618N2050M8328
85499A141349L4441K6120L3489M0443K6451J373r680j1276l0645o1803n9663r681L5749K3387k6621n1338l1250l816
85481A067029M84q353j3404j5999j3124J4114O4868R6880P0579K644n1509o2782n0019l8235k4844M33K5524K8864
85463A093150J3061L583J4377L3157M3854M6428M6990M3374L1509J4411o218l6001p2647r5952q9032o0848l1437m749
85445I87010K4075M4962M3498L0314K9931L9376K8875j0157m8594o1383n5708m4172k2178P048J5528j1467m2369
85428I54589l6078K551L3120L2986J0934k0906n5510p5930o4550l0896n513l155j1804j7139j6476r513L113J2222
85410G02045J0470O701R336L286k7849o1939n6358r270L2464L5447J5377k099j9969m6363o2638m5314k957L4283
85392E14653M9822M5631K6513J319j1247Q7K1969L2072K3849L384k4182m8211m7686j5103K4954M2803L9711L5121
85374G15459K9430Q702j8679k2721N359L7722M6632L5195K1626J1886L74j6013l5823n4966o2778m7215j2689J7494
85356F58995K6197K1510K1150K5504J8546p169l8245n5811n5628m7842m0088k8223p404J3840K1369J7260K0249L7206
85338F01416M7081K7122j3196m0713l7028j2764J2800K7438K1749q170m5469n8656l5664Q01K3473L3325M7479O4837
85320F55861O4583L8770Q038l176L838Q022j89o190N244K3173K0985o194k9677k1823R474L4406L9380L2308J5513
85301H92346k0236o7996r4437p4526k5103J1206J0286j4894l4367l0476j0273N064M726J368J2218L0077K9704N644
85283F30331j7007j9875j8633l5409o0844o6826m6765j8939N202L1232N9512P5386O8070M3833J5558q192k1508k2420
85265E92706j9240k2788k9415k4726p358M926j291j7231k4247j5124K066J3447R199q028k2073j8849m767r41j7919
85246C88347m4949o3845o3365m1661p546K1669L7002M9477O8714P6478M8507J652j5761Q281K6214k768n3626p2775
85228C60045n0946k3124j0654k314J1331K1718K5460L3444M7862N4030M4706L3146L2547L7932L6483K3595M119j0698
85210F68682o958J6272L5585K6637M94n897J8094L7621J7573l2967p6270q8899p3545m3968j7291r560j8835j9753
85192D27015O853M4295N7615L6575L044k2177m0003n7633p0369o7527m6365j4455J4008K2729O326j6546j6199J3234
85174B80420M3425M7810L6333L6325M6601L7048j895l7470l9528k4160k4835l5509k0468K1270M4171K3025p381o237
85156D18945J2263R114j2169j4312Q835K4784K0551K0003L1744K6539r498l8744k1875K3889N0429M2840K4066J0173
85138F27577l097j4962j4629m771m199k1485m3881n4465m4876j2721L4838P3763P8329M9223J3546o784j5069k5766
85120F10571m1761n0751l8463l727L6922O2880O9930O8737O0168K8480k9099q2304r6269o9462k6499J2790L5410
85103E47553K2957k8339q1001q6204m4875p790p752k2904j9486o95P382l414j9000k6406k2660q717J1176K9839M4957
85084B84621N8652O5338N3947K8715J1672J4323K2005J7786O979L947P970Q473M469K694L283J968J146N019P500k129
85064F08378k2672m0021m2617l1997j9045j3053j2055m061J6217L3829K7689k162l4890n6939p1961p8861o1688j4216
85046A79875M1121P2935O9668M0853L835k2088k4560j2334o005o981L918K7828L6656J9610J0398L6042O2897L5673
85028E69341m0807j00848r8406n1883n499J8654K0740O955j0741j8588j6177j2605m388K1042N4285O1593K6474k5812
85010C93330n8811o3129n1228l0904k010K9398M9591M7803K2132j8559n3758o2253m2038j3132M146P112N521R331
84992A72542K4495M8661O6212N9248K9109l603k3650l2514l2374j7899N760J4782o189l9179n1567l3773m346J7689
84974A93404L0922M2127N0269M4835J8541j8555m1241l3856j1175j732r363r100J2125L1323K1386r903l3452l9095
84956B37460l7417k8492J091M5266O9402M9245K066l6391n3196n8705n5136k9540J7596N7827O3153L8426J1554m82
84938B93727N36J2727L5319M8516K1028m5196r9903r7943n3479j6291o701m391N792J3556J2194J3984K5432L4995
84920A93902L6337L6636L1285K147m1690n4655j3561M0974N3502K3167q951k3339l3355m2875l4479l522K8748M3229
84902B33500M0994L1609K5422L5030N9283O8949L7546j4780m0564k9515j8022k8651m0237l2565k0402j9201j3129
84885B75267J1041K8144J0358k2353k7078r47J8813J1135q903k3607l0343k4013J926K8415J8810k9750o9099n3014
84867A14802J0386P3384R8077P7588K8368j8394l1983j0608J2811R364j0732j8116p240L420N245N888L642j4673
84849C31229m3007n1228k6379L135M565j3777j7070N576K9818L3245K0607P582l29l432J314J2190J6886R479N452
84830C25856K2707M9485N0035R413m1512n8665l5087m074N805J348L849J4103J6125Q968J2254L4333N3267M2532L972
84811E14714l8713o8918q1415o5640j2283N7272R2941O5871M334l7236l7122j7521l836L690J3144J6962N62l3406
84793C73400o3009o7020l8616J5013P3170J03481Q2112K2597k7522l3417j0730k221k1555m0824l6684k4841l2840
84776B70494n6082o4071m3371j1354J2052K4190K6982J5269j0777l5506m2493l1848j4985J26J1262J7290J9038J9296
84758A05512J7201R092k040p059m004J22L662J1550J7273L603k6624m0893j8085J6811K3535J046j6070r794K326K111
84738H9275l813k585L875Q628J2670J5117M988k2296m8679m7382j1405L7981O8845O4134L6822K0346L4783O1231
84720C22535O0487J9039l5138o5053n9599l2890n341N921o958l1771l9969j4594K8535N5922M9908K1963l250j2446
84702B57301j4612k6943m7091m8546j7169J8295J8039j0142j8235R486L1028J3919j1257o8L3658M0797J3802q755
84684B33507p312m26L026J9153M3408L9279k294l4544j8980J6043J9208p188j8020K048K1471J5273m136j5653j6792
84665B87071j3174p129o787k3291m8454n6147l7499j4880p807m534J4721M2094N1508L5179J0135p537j5422j2688
84647A85359M270K7316L2819M863m2288p3078o2233j6199L4067N9333N3568L2769J5273O260J938K581J3223L1276
84629C11117M1337K9188M60k0746j7098l8J943j9597l7889k4094J1976L2170J9812k082q227l544l583l959O491J6269
84609C29906M507k1360l1018j6521l828j1500k4312k1011n513O401J2398J6724J3664n12j0335J341K4780L4086K3713
84590C21610J2770J2448J0732l785k0883k3116j0502L42l475k0449m1560o0144p3631q0305p8575o9148n3323k6832
84572b07826J7333P0883J01592Q0808K2505k2960k2094R976L8493M9202M4880K4132r753l2360k0615J3228L6928
84555A94352M3396N1449O3661N8552L2557J5530K6663M2463L0951k680k8650l6356m0801n2649o4788o8125o3700
84538B01825n6633m8304l6178j7212N410J7270M501k3880l7615j9522J2237K7567K0251O763j834r204j7758k0132
84520G552j0394O220J8717K1473J9251K2154L2525L7919K5267J540j2987j4160j8621l1974l3701r404K1526L2473
84502A15376K8307L1083L8519K8603K878p687J2622M0805M7716L1954Q303j7694m5771o4678n9416l1486N84J9429
84484A79447K0417R498j700j048J5363L8209N2715N2800M5565M0799L7117K2450p719l6757m3262l2460l4854o2428
84466B94152q2002n3646J1373N6046M3994r69k9812k5127j0194j2628l3854n3033n2433l5881k2191k1080k2362j4119
84448f3766k288N27j383P873K9038M5143M6976M2305L6651K5353J1665J1619K8863M2658L5670J8605J1233J1535J411
84429C39688k5237n6491p7925q0144n8111j8859J5551K8424K8524L6128N3559O4321N6919L2888m782n0409q2472
84412B01572p4781k9622J7659L7259L3399K4740J4705L9m619K1577O7954R0531N9927k807n0539o0293m5964k8963
84394B71774j4643J338J9580L6527M6978M1519J2085l2975o8965p8162o4983m2161j4853J0593J6734o896m3155o3391
84376B6944n9454m3207k2843j912N681j0610k9977j8206K0205M0560K0970n137R68K9691M4157L0127k736m7045r1169
84357a12993j03041n9147J5330O9195Q5412Q6609Q3727N8858P706l8045n0118l8735k8535k1808p579J0391J9877
84340b2896K4448L7284N3921N2760K5267j0772l3362l9333l8389l3293j6802J2286L8545M1548J7761j3807l0227
84323F4939k6025j2822q70J2575L4379N8986O6613M3064J277k5787k1925r676k0263m6337m8548j3978J9771J5884
84305I1257j0413j8029l14J2144J50k4977m8142o4433o3985l4435J3008M6583N1538M0168J9724j6728n5399n5860
84287a18143p649L6623K0489m0844p8787n5015O529O5098J04034J22021J16984R4276O9797M9834K1616k3348o7662
84270C15853q3252o3142k8138m323j000r564j8182k4144l0858l4527k1672J2819M9104N5039J9406l2946o2577m9361
84252a1465m883M2980P3040Q0786P1969N2257K5382j673j7901j5742J599K0667K5302P144k6319n5049o1921m5153
84234A61020j5212J3503K4227L814l8239o5340m8155j215L3787L9228L4082L6438M2150M6631N6538O5218M6910k748
84216D32637m6480n1704l4677k9642l4855k4469O23J2432J31k0791l9719n5837n4631j8805L2791N5736M0184K5359
84198A88283M0052O2033N5053J7219k7497n9673o5860l5907J5091M2780J8986l2321o7132p3895p0035o2455m2731
84181i8009j3897Q363K0686L3069M4645M1743K3166O825O184J5676K2670J9689L834k0472l6649l0198j0851m376
84163C2098j7920l0239k3501p639n53K052J8263M6286N8318L4543p821k9954j3989J8312L1859J6273q913k2288k2785
84144G2402k2338k6631k9172j9060R782N1449Q6018R0146N5714k883n8727q5586o8218j5859L3864M3046J3110j8789
84126A08268k8972l2987n0864o9453o1351k6093J2200L8784N6248O5257O1660N0185L9274K3877n596l8775n1243
84109I0419l5944r759J0326J8284R772j3101k7340p018L7555O3249M5397L766l0478m9455n8933n7923m4774k6351
84091h2308o634J8516M4035N1847L8097K4815K7611L0145J0932j9680l1643j4053J7795M4553N2728L2452j2050n3358
84073A73800o1658l4943K432K5948K5890P500j0335q944K171j2522o3095j02329p7276k633N3614N5862L3969K5219
84055C2670K3715P493j6722k5391j6142n158L680K0738M4055N3544L5884O86l1707m6691l7539n179L5075N6250M2940
84036A72201J1427m620Q015K7969K8600J0476p191j7662k8828l7354k6738M00J2381j2090n2145p1685o3716m6969
84018i7529l1141j1632P478J1836l78j4297j7968j0154P655K8585L5735K2702J3230L3082O5038O3919K0065k4804
84000A01422l4168j7670l180P08l517j8173l4799k7603J0808M6104M0911K261l3248m6418m2544k6760k325J5772
83982g2419J5270J0275K3053M6021N0408L2556K1812L5711N3024M3256M654l8305o2156o0005l9835j5279O028K5479
83964G9548M1127M0987K1224K304O905K5621K6565j363l8085o6887r1731j11039j02225n2834J1112M9812N2650L8411
83946f7898K2706O769n489k409J6929L4091L0951J1621k217M656K6183M2565L8288J2068k5351n6696o3342l6489R711
83927c353M3758M5525K5951R952N962M381K8k547n735j9904m0383m2611j4311J9989K2938j2313n5398p2045n3371
83908a43487j5196J9743L6970L6215K6952J7087P109l099o726L485K1510K7959R474k2249l6447j4750K3739L7446
83890B5735P578l9419o2625n1591k7698q288R640K8650L6688K5989J0704R599J8500J5091r337l3481k5791K0223
83872d9833P1501Q1508L7382k3680n5482n4172n1292n9720n4003j2990M3930Q0527Q3964O2670K2793k8366o8416
83855B6321p6948o1497m3263k2348J7078O8762R8971Q5272L9985r989m6775n9974m4043r735J7021J9783O217o704
83837a866r473J868K7325N3484N7840L4213K577j5994k2152k6518k8582k0694l337J5831L0416L4080K2593O662P401
83818A65674K4621K6289r274n4643o3536l2146j470j294k2032m3883o0342o2138l1281K6874P1071P0490M6201L8802
83800H7983M9057M4059J5773n111j565j089l2584p5849q2395l8242J8504M2762K6516n302k6587k9366k1197j3229
83782d7862q727M83K3545N4740P3171O2268K6104j6720n0084o5534n6867k2844K1755M9448M4928K2832J0583J3972
83764A35191J0781j6316n0394n5286j8200L2937N7800M2789Q673j5139j8287j3092j4739k0278j0849K1723N5394
83747A32708N5968J7021k8404m1602j5651K5579N4427N6470L3478N819M003L7900P6543P7997L9161m817l1530n3656
83729D41414q0085q5922m9365O12R424l2450p5428p4282l9140r919j861J687J3196K2192J5725L64o602q83M476j875
83709E1278j4400j8740r695N178J6429J8338N165k4912n6765o1971k8234K0449M5239L2524L785j1356j420K5195
83691c913N1910O4304N7560L7402J0674k1744n6358p7931p2489m7450k4345j0574O645L4827O0217O5479N2310L7704
83673A64228L4120L8091L2606J320m8831q1289o4672j6737Q872j0921l9190l2294J081J9829J0759m575j4484l0585
83655c2672n2077n1381j2648L8195O1364M8579K5346J7243K7610M2078M2692K0705j4369l8840l4308m108K9538M1285
83637A54232J8156k9420o8215o5025j9167L1759M6125J7325k3953m2855l2156j3376q838j3805j658L9124Q2437R1724
83619A62414O3251K4761m902l0315n1276m9911k1720M515K25k5449m2517l9677k4493K39L0821M3604J6016l3761
83601B1825n9991m6665k2551j3591j1811l841Q42q450j7117n228K0812L8663M1263L7575L1293J8499J207j2413j6601
83582f280o372K1215N1586N4468K1147j4574j6888L392R822r91N80K0061K3614p285m1530l9538k320M1014P0846
83563A81967P8764N3737k561n7088p0832m0897J907L1260M0613K7825q008n1262p3601o1771k9948k900J696k1202
83545b301n6582o8236k8752M2251R0395Q6843N7793M2062L9709K3391j2337l9156l2272K41L1144M4369M4043M0112
83527C02717L3433J7236q854l1743l7576k8989k0170j5337n598Q970J1021q695l2350l8548l4135m1804o2060p0762
83509f3244n4410k5193K402K6647M2878L7432J2610l413P328K2636J1305j6322j9278J3041M1289K8761r851l0459
83491B4159j6016R538J8748J2359Q762J4661J7910Q655k064N654K9403L7251L495n3207q3190o0112p974L1911M6097
83472D6040M9233N1619M6322K6883K28k3780m3733n9813o3079m2213j847L2678L5420P190k0977j8407J0568K9718
83454F2050J2019k9931o0346n9098l3672K135M5396R4246J31419J30936Q5883K4482j2073j3349j1962l9556p9030
83437B49549q4982n1828k8392m8184p7230o2852j0173L1896M6875O2284Q4525P7150K4674k8115l3822o206R863O692
83419A61724J1298L0158L9889L1315K4770L3313L8690J5860l4897q7395j10149q7912l5320J2697L5446M4516N4439
83402A78442N0736J4305l1898l7237J0279O3199P1017L1824k2670o6971r0234q6991o0179k2046J9883O4599R8421
83385A84479R5966N4912Q810j3326k1154l6435n2562m8564k8549j4964j0582m59J1071J567k5554l4127r042J3149
83367G4636o637n0086o1255j9735L3898M8881J8771k2875m3418l3389J378M9516R1851J02559O5510q488q4109j23284
83349C3724j08096m9704J9629O6832P8903O7483N1923L9115K2425l065l0840m8029m5071k1656J0345L0829K6767N534
83331A47048j2838j6938j0538P81J8044L9631N3295M4740J1114l5450p2923q0573n6430k5065j5517k8180l5950k1932
83313i7681l2R498P895P790R810P259M721J2310K4641K3299J512k6616m2922m1103k5978o791P288J2595J3841J8556
83293h0108L0386M8839O7690P0176L8561k0203o8273p0721l1207J6369M4249M6564K8694J10k4306l2968k9924k8332
83275E596l3016l7751l4266j5239K0966N5634N4859J1172l2229k6993J7387M6896L6104J2549M416K208j1850k9647
83257D6796l5630l4683l6958l2986q589K7373N1333N2730L7493J4985k548nK2083L8833K9270N090o567l00O898M835
83237A79453j275p686j6961k5746k5508j7598j3878k0752l2757m0881l8356k2999l861J792r586j7288k315K5322
83219i0880M2114M3395L8995K6951m09k9024l2711j1914O013Q161P320P734m290k3552j8266J7973M1631J8708k0525
83200B7424k5673l288k546l3336m9900k3044J7406L1848K6326L1695N2230O4222N2274K1833j5857m8805o1111m8032
83182A3666l1698l8983o1528o0150j7008L5771N2757K7429p018k0203j1191M176J4643J6701Q911o448k0187k2860
83164a23220j5005o803p109j5000k1711j8870m977J4503L2322M4301M9157M6885M1580M2871N4859O1664L7273j9116
83146A93604o7867o7370k5217R455Q001o200K49K0282K1661j521k1936j9927l514J3623K5863K1732j2174n8125o7320
83127c6701j8117M6364O5774L2156j4612m4324n5060m5850j3068K4038L3914J7542P274J1286o45l7522n5164j6869
83109i9584M6102P4582O0353M3381M4672M6420L5232K2495J5734M988j3473k9639m3533o6871r1689q7636m5558K418
83091h1606K2653J6431P87k1239m7684n6865l0262J3785L7295L0578J9669K5770L8613L5489J1180j9085l8163m1665
83073h4319l6830l0039j7418Q561M3469O8737O8058M1392K551k9416l7226j6711J4590L1139K6701J8108J9441K5582
83055A16370K4866J2117j6464o2943j11847j32382j10459o5302k3177R250L3400M1500L1276K1539L0008M7477N5679
83038i9092N7689O4944O5791L8783o022l0667j9163K013J117k1257l9803l4469o942K0802K2125q086m2957n1425
83020h6619l3454j3319l155O625K2090L3137L0739J9844J0452Q459J5621K5517K2799J912j9106k2773k2651m3704
83002d7586p6449q2426m8895o580J6149K7278M5544O6409P1136N2523J8699j4308k7580j5574j822j5566m7998n9057
82984a46103l4642n021N148R374K3205L1600J9556L683J850o09j9433l1587p141L7281N8362M6173K3674j681l8504
82965b4815o7370m7418K0296P7525P6136L0749j3218l6875n1455o3816o3139l8559K929L7155M1425J7214r762j9815
82947a32813k0695k6160k6814n937K5017L7615L1864L7826O5809Q6788P5833M7220K7610J6090o905m4386p7095q7059
82929B3808p3335m9106l1441k7773k6984j1968J5674L5232L4877K5651K1424K0643J7796J8490L0197M8245O2629
82912A34059P0019O8708N1039J4098k7001m8433m0620j7515m801j9030n1936p4773o6287l6784j4524q912j140K5941
82894d7892O3137Q5649P6410L4901k3122o8633p5497m3113L092L5453M1204K2367m237j1437J1041L5360K7519n27
82876A61675l910K5936M5380K6393k154p173n516k7743n9058o1514l5429j3952q738m152K504j577r786n95K1106
82857D1697K6423J0060k819l111j1750l6312n1788m0990k0643r591j978R258J2519L022%J4426K5825J7305P487J5740
82837D780J9609j2142n8218o2740j4795L2785L6258J6382J9164M7500O1641L7657k707k4231k0542j3089j8454l1023
82819A7835l6990l2410k2044j0630m227j1796l2857m9009m1786j5509J2174L7270O5604Q3855O3927P736l8128l2797
82801c9782R936M2185L8024Q791k5293n3155o4937m9605q478L8674O4902N2293N765m2036n2045j9162J7431J9036
82783e7456o626k0895o056J9666L3180K8952J1566j0591k1233p661J7579K5391P240j3507j4124m9Q108M65j7338
82764b3389l1926k7437L585M6404P2479O7768M1944Q479k5934m8197m0410q962J0164m395k6846j8407J9238M9439
82746F3597N0514L4070J7173K774q612r761K511K0285L2408L0536J0971j5964k4061J717L8548M7814K3819l144j3680
82727C01515k0472l5199m6590m8976o1922r3585j08699o9382M177N0450M1167O648j3727j2946j628J4987K9908L0332
82709c3942J8717J6526K9567L1715O110j7895p28M5296O4872L1699j9613m2213l1168j4267q696o454N864K8301M6478
82690A50169M2771J4500j4555j1922K4712N6598M5040l188m5537n4321m1450l2135l1334k5854j0278J677p211l5198
82672B2484n7197m5298K454N3761O7887L3812j8029m3161k1990K6532O4766O7191L5695p790l9005m4694k6365L369
82654G4422K9837M5763N1673M6580K4930j1011m2689n2229m5832m5130n3889n1726k8797p501j3371l8019n1077m0814
82636b08880k1476m335J5507M1209O3548P4162P3537O1719L7904J3611O059R796l449m1665o9345m9469M955M6235
82618D9623N0768L6147K3024J0589k819l749J2647K1557n338n9461j00495r9954o4003j5424K7773N1223M1518R86
82600b5388m2202n4446k9416O638K2487J0333j0405j1241K0187O4325Q1456N0403m902l9651l8952k7764k6409j9211
82582g4158J5368O1168P7909N3234J5975m303q193j1087j8068k5685l2667l5587k5095O06K6478L5968K9133J6685
82564I7681M431n162m277J1914L0597K9669L901k5915l3394j2216J8278K9919J1079k0118l1754j3440Q432m14l9436
82545E9775o9535n5589o138L5639L9173J7712P203J8607K5121L300k8446l2217n118J3949l432l9530n8067m7332
82527a24925k1437L328J5789R275o314m830K2825M8144M1240J5682P971K0068J7290j4610m5650m6395k6522j1168
82509a00239k798J1364K9295L4190J9185l230j3917j553K9022N6101N7204L2627M522j1707k1405k9001k0632J3897
82491H2925N3408O1450K8694j7060m4281m7589m1475l6469k9842j5887K487J6649K5800M0475O5145Q1758O4005J1290
82473C01483m2525o0687l7589R02K1833P347l4767p4818q4417o3316l6699k3510j9188j3557q980r385n400J3891
82455a69382M2010O0849N9610L8970N741k5192l3191j0567K5553M9633N0038K9772q94k2625j5522J4046L1347J7358
82437A47554k601J280J3832M37l0657l5459l761K3068J4791q872k1614l4212o4785r4265q7689m5132L12K5704L1227
82418a70842J9140q383l2120k7997l410M556k1326n1234m5733o570K6552K3338p485l4375l6354j6706Q688K8948
82400c51313M3718N5711O2905O0137M6986L1884K7358L9114N7796O3864M6080J5061p156j1632r594j3675k1953k6470
82382A08821k7938l0919k9791j3342J5385L5638L1379J0514n232o775o771k0254m1912n0380l6422j8123j9067l5785
82364a40974m1143k3244n484j4744l8741l4334J8542Q6248J14613Q5904L2665k259p015K206J2712K6611M0441L4167
82346A46171k575m3745m9584j7015J4966J7399N431M520N611j6550n2224o0425k7957Q366J3198r75r23J4823K0096
82327b1392P628j10J1846L0576M0911M7736N7365N4734K1269l0842o2185m6963K19L9923M2934J0823k9547n0372
82309A24553m6790l6086l1177k4061n605R200k257l0467l7540j0743J2589n642m7867o1240k6608K2740N2715O8553
82291g5733Q9598J08386R9420N9270J4508j1660k3436l7315n5299o2872m9232k1431K000Q007n32q723l827J2551
82273D3680K6232K6265J8251J7492K7741L3860K2101J537o744j37J334j4022l0738k9954j7643j0725m475K1426O3516
82254A88997Q5542N9392j476o0927r8067j12454j04378p1444k3240J8636M0811M8629N2817N4372M7032K7865O17
82237A52724k6322m1341l5633j5324k880j5195l9327m1609p512L6159M9710K6745p18k987J5339K8837K3414M866
82219A08946j5688l1936m0577l9877l1300j8211m387N075P750J0821K3156L6052K7126o415l5338l5893k2454j8794
82201h1944j2991K3213P5674Q9886M1715k8462o7930o8582n4280m0539l1191l1398l5516j9410K5814O5772N9930
82184i0239J9419l883J5193M8710O0620M9242L3216J8706m92k1837l1555k3300r598j0298l0050n0163m8214k5967
82166a00490q433j0767j7804o344K2518M6780N2121M2811K8951J7557J4070J9343K4947K0604M924j6921l9337n3430
82148D1100m9494l3044k5358l4387m0027k5753p580o978j1423O055L9571N9100N9232N8762N4540K3253k3781l8438
82130D5350q858J2626j4060n2967m5003O525M8504N5190M4727K9435m45l9394n6400l7304p442L677j478j675J0476
82111h516K3306K3338P479j6145l4089l8311l1351j7217N924L4410M9814L8618J5872Q516J6202J1038k0199n6284
82093A2405p1854o5999m8745k0322J6491L8581K3193j5672l3096k063N5641R2857Q3131L8874p789l2666l0959j2710
82075A9298O719J6213J6234J5683J6692O946k2185n3007n4966k5787P10O08n877J2273M5585N6533L5873J2101L069
82056A02715n953k5279l7131k9390k2006l1225l2759L165N5854P4003M7075J7164J5066K2434J1585j0624k1318j9470
82038A13906j9159k0536j2905K328J4450K2878L2412L4348J5253j6656l6939l9081m0564m9119m6467j8692J6831
82021d7712L2932K8150K2210K4475K6496K2675J9794K3334K8326K8020K1852J1802r00j2915k0367k5568l4957m7409
82003A00238n0701l3599P14L3479M1569J5747k5153m4006k1128K1564M3678L1541N800j4643l4216n6803o1184k3276
81985g0379M1907Q0954N2816k7000r7187j05435n3994P460L3528K3621Q295N708P323K983j862j084j183p551j1415
81966a12495k857J5016L5873N9797P9681P3971L2948j9114m8735n1220m3255k8714N91L5242M9873L7919J8820O085
81948A39426o786k2774l0214k5413k2035k5425k0792j733J2379O576k263Q910L1139L5266J3026j5034k6655j4791
81930C2807J5144M6514N6386L7810J2068K671M962n82j5156k4987k9355l7816m4051l2712j1750n154r474O167M4359
81911D7851O1445L0210j0220j243N7099J09939J19251R5753O0965J4967m3201q8564q7927m0350J4370L2190P740
81894C80275k2729k5273j0658j8851n9878r3172q0676l8617r668M88K1736N8145O9289K6949m0923q3637q3769o0361
81876g1330l4100j1284Q155K5392M0026M2607K1565j2602k7829j0812J1471J0693j711L72R245k946l1050l9487k0348
81857i3973o933j6996k2183L129L5430L5916R033o102P817K8667L0465J1202j5288l4104l3421j1674J4222K0339M80
81838d3974k7523m0703l0460o260J2854J4796R218J8416M4534N7277K9974k1269n4697n3799l8180k5672j0754J2084
81820a54138K8815K5524J1230N072J0650J5633Q553j3224m1434n3320k4611L7469Q5533P7723K8298p750o17K4049
81802F3455K5777J84k3983k5558j1046K264O539K068j2155l4878n2800m7135j6233J6226K5839J6434J1247J5626P732
81783c0397k3836n2250m4437j0312Q694o2l420K2826N3961N6700M4646N5199Q2475P8468K7506k3779l2235j7362
81765A92385k1737m0008l2011M734K4372J436l1482l3238q723J0212J3644J4561J6208Q771n759j1306k608N914n69
81746A04796k1682m6103o0487n6002l7731k5200l0666l8908k2978J9479N9396O7846M2943M298k6541l6513k3476M432
81728a23097L5011N8369O6377N4713L3827K6827M0799M9595K5968j5915l6671k8991k7514n3400p9835p0785k9865
81711g4587J1875L8713N5204N9675M0122k938m8552p3757p0130m4027j0616J4508K7077L6096M8277N5817M6356J9290
81693A28403j4303m0795m7944l1305n677K479j3928l0685k4516l876R123J3533K2724L2672K5325J694j5659j5983
81675h718j0859o401Q031L1902L9273J2395k6639l9635k0564j530j1960m5582o9361n6251p796M9034Q3985Q4175
81657C499N6435J6048k0956l9918l5366j9741j4227k5875m0158l8656j7057J5088M1983M6871K3468j0191k1333K815
81639g7271L7303M7454K8971Q697Q916K3347L0194J9774M034J431J5320K9132K5083N535j0415j0936k224O939J7713
81620B08997K8933K4376j0563o2969r9269r9575p2687l6081K884L8607N5328L9865J969l1494m2837l4507j5822O930
81602i7915K3512J9214n206k3091r439K4259M2085L2575K3389L6492N0990L3742o801k8072j3721N037k03j0904Q200
81583A04143N0293O7547L2191k6393n5641l8302n926K76k7813o0972o3754k6924K6917O3985O4047K9976j9118o1108
81565E3424q1631p8438n8501l0959j485K8432N7476P8862P9719N0970K68m9187p6808p8705o2513l6756j1574M51k080
81546b19035j221J7767L8413K8229j4052m7423l6053Q400M5782N4993M5551L1736J6695J867n014L037K5012N2449
81528D7133P0810O3982K8613j5831m0980l5514j1981Q983J2985m411l3657n1374m0701j5628q582k5520l0714O350
81510g6037O0728P3552K4621m0144o4223m3873j7294n079Q554L4691N2605M2464K2049K2284L6812K8038j5721n9894
81492H4133p0500n3895l2811p106L4658P8265Q9680N8978J6041l615N482K1066J9652l212l1182m3195l4998k1071
81474A06370j1456J995K5088M0718L0051N855k493L553j0839n9615j06111j05170n6620J229L6667M4193L1350R545
81456a5690m850p93J2300J2793o254k7843l1108j2961J2541K9371K9814J3622j6493n3387p9413p1171k2351M0150
81438a91723P7174P7505O3043N0176K6888j6821n4949m9634m332L4261L2601O969n925L721J7061K1032K3541L2876
81420A43464L8666K5055l211k1645j6675l958n138j4621q256J5340K6038O224j8359j3539J2945K4460J1401Q84P685
81401B06760J0424p268k1698l166L2672L9457K194m3168n6030l5125r239k733k0854n4291q3349q5544n4411j0079
81383a95448J9471K8384L5833N7790Q4868R3998P6964M9348L0531K1464P581j8461m4631n4264m7562l9519l6929
81366F9418k8587n510J7472J3522k2530o2978p3871m6619j521L1635L3631P902j8891j7126J4260M3107M1724K1048
81348A6086J1432J6439R785j9304m3583l5008o014O028j3213m0475m5011j9751J6167L5980K8537R963P198K4320
81330d0424L6164K5033Q451J1556K4869J7102j4380l6402k7967o881K823M253J1046J7745Q591j5883l9862n1268
81312f5434m4117j2604L7635P9399Q6154O2899L7461K2936P733j6235l6023l5963j8704qN765j0843n0460r2441r8673
81293a41523m8921K8164P4673O0260J1388k1727k0043p361r838k0357j4782O694J6515J653j3827m766J2029k871
81275i4640n1648q6403o6578q397L9565N4902N3316M9631L4938J083l3442m1224k1502L29P882J1001K2283L2940
81257i5964K6149N030j0350j1544r690j2064q472R140K7804K9416J7692J2797K0494K2262J810k8561l7816j2308
81239e4175K3649L0155k542l8159l5737k866J1804j6066n1353m6493n124K6946K4758R285J0037L0861N9939Q8634
81221F3553J06699R8255O0258J4143j5588k6854l2831l8085l6383k7834k3398k9581l7591l2672j2144R177J4412N377
81203E8913J311J2683K5989K5292J8091K0577K4557O189l1182n3170m3295k6200k4487k0894Q536M5213M7271R232
81185A04626l1352m5802m1896l5683k5940j0336m429k4592o0625q0152n9678o097M9839P8485P2451M5455J3378j5796
81167g8144l2574k2663J3309M7797N2285L0307Q482L07j762k180N927K1871L1890L0106K7621L2296L3565J6324j8926
81148A95838n4323o6325m2867j611J5567j3323n6729o6196m3182l3466n0248m8202K148N5776M9779p260m8587l9430
81130b52641p691J3586K7348M2857M4316J5661k5169m2817k6878Q26J6632J7958J6534K0207K6071K7865K5392K3306
81112c6637K2387J9346J6345J9322K1284K641l7730o6441n3283j6257j557k0722l8018k4987N054L0588N6992R1656
81094a0017J09204P8329J3691l3566l6919j6273L247K1313L9098L6675j486n6034r3014j04733j06783j01932p5812
81077c35012l0632N215J3287R575J7673L5001M4328M4563M6335M4208J9358k7841o8898p6744m9770n170L4410M6456
81059b33658K3341j1244k1955o676K005q139k934M3305R3435Q7738K6510k9394m0393k9433l0946l7090j9254K1838
81041a72944N5765O1482M5239K4720J1562P038M121m085j2906j0046M300J2239J339j7428k4428j4429M227K2008
81023b226K8283J1665k3007m6700l4266K906K9025K6945J2831P898J1661P955j3053m2258n4954l0136K3664O6487
81005a7280O4717K7946o150j9146k3681k9311k3893L63K5426L0118J9363J2957J6038J8171J3251K261j7266m4766
80987D9118o2021m5637J785M8452O6628N7358L9041K4893J7370J2103j310l2908p7076j09540j07606p0047j3814
80970b03211M0832P6882Q3789O6299M4768L5759L5835L3152K8082K8774L0827J8858r853l8519n2077n1825m4040
80953A24332k8445p353N830j30j8876l4007l6273k5461m030J9151K5697L941l2352n3493m3076j0460K2353L6769
80935e5883K6005J962q268J1899M5525N8728M0286R028j7651m0512n8398n7121l4860j8528l2280o1572p0707m8183
80917c10530j2594K0047M8752O7405O0085K7116m808j2385j658Q191J3570K2651L1694K5004k27k3810k3158L139
80899f1516L6012N4264M9025K5888l61j4313r525O520J8078J4285k396k0411k9739k7170j4739K001J5151J9677J7757
80880G8488J3183L440j3924k8820k6640j1696o130j7683k6979k0092j2989k0536k0403J6954P1323Q7117M8536j35
80862A13014k1362l0115n0389o5934n0964k0440o222j928K1941N7669O4000L0738p208k7834m6563o6746n4405N167
80844a57581O3922O5901K2326r190n154O593L615k66J2388L3772M7030M6718L3043P669j5288j5789L189J2716l817
80825A51797k8121l6305l1756l0698l1177j9398K401J7511K0760K2836K9385L3710L1294K5726J8459P183m236q652
80807A70719r355j4603j7076O76L3493M8346K6013j0977l1078l7877n5823q2152q4929n1292q111J6167K5495L6029
80789d6335M3197L2124Q715m428J160J4932L1074N2751O8520N0157j0291p7664j05990q5422m2316j694L0711N2042
80771A1243N1285K4954q822k4440j4173O464J6050O324j2733k3036j5549J019J1219J2569J8275L7455N9376O3985
80753B21465M5031J5837p084k0054l0314m2694n1920m8727l2863j7924j9315l6113m9417m2753k0928l348j237q954
80735a51312j7284k5321l4030l6319k3110L321L0818N1132O3233O3102M3374R824j3623r479R781J7098P429K778
80717h588J8383M0686M7553L6864K3067J4885Q991q09j9243m6885p0004o3564k3117J4325P263l2095m5022k194N3553
80698d5951O0241J3316l6820n3677n1168n8577p5542p6819m7797O84M6849P2418O4101J8621m2786p6117n1146J0669
80680c29501N2335M5717K3739L0522N4703M5032q524m8364k4261L4441N4640J3966l5414l7531M363M6231N9766N1380
80662C3240L8284K7775K0313J6925J5347N613k0667n5600p6911o9610m1101q717K1052M8880O3324M6035J794l5523
80644C0453l8962j6608P510K4492L6707L8527K3622K323j1444k4472n0822p7070o8707j6916M4043P5041O9777M6619
80626I4113K1026k387k3103m1358n4955n5418l6332o744J6093K8090L6922L8492J6596k5521n4619m4744j0789J1791
80608i2847J1171N974J2632K2348J4652j3295l6844k7362J3501N1600N9409M5670L1985J5595j6890m9179m8510k1562
80590b1952j3903l9120n1798j7951K7389L2141O324J833L0291N1052L7383Q199j2480k7364m3089m7235k6642J0291
80572i6631M2653N4837M0433N684k5463k7863m255J6888J7829J0867J6080L4642N0048M4057R700l7931o4451m7719
80554C9405q090J1851m41j7238j5798p497j0950k0963k1712j2223j14J5428L5345M6142L2945K670k0505k0728l282
80535B4245J3280J1425j1521l7600m4185k9682j2562k568R590K7080L2546J3486j5595l2836l5092k7443n167L0414
80517i2185N4013M3549J5807N248J3764J4169J176J124K2926L6091J6088j8001l4305l2841l2847l4221k3037n170
80499d8652j471j0071m184K5476N2037M8596K3293L946K054O781M164j1388l6158n4794m7243j1359K9017N1280N9112
80480H0436O4340N7564K3451k2093m2914l3008k3395l1658l9813l6603m2970o7499p1572k0526N2349P9089M4985p99
80462c0636j9389k2222l1121m0817l6786j8434R431M0573N3949K9248j2497k0349J6267M5365K4670k0090m0678l5724
80444a09240l3069l0227l519L5742M5601J6707j0742j750L4063O4881P0246M6469N782k3317j9529K164Q063o168
80426I2157j3230k424M167o071j2845j86J3769Q049n427l529J1210K2419L1278M6889N7748M3070O692k6428m2507
80407B24801m3934l0296l971J0302j3549n8705p6846n4033l1252m2127o3408n4935k1435K554J2185L3833P0250Q6802
80389e3764O3250K4531K814k440o018m935P149J2289j1675n1272o8333m8562j1947K2672N1583O2814L6845j3346
80371A1655l6475m189M4610N0328Q857k9502k9460p663P29j4879l7793m3477j4327M6262J04463J16321P1414Q644
80353B45518k2620j2582O503M152j3366j6634M359K3160R579k8452n2386m3817k8065l5923n9978o8807n2771l1304
80335a73434j9167j0475J504J1477J5942K0976K7829K6945J5792Q153J4313K3489J8541P12j2223r434Q32K808p916
80316d3336j8980j5715n09Q681L069l837K032J1411O824o161n548J1411K3740K0596J4763J5606J3572K906l657K233
80296C9101Q059L367q92M636M270j9128n1071o1479m5048k2027n757O877J7830K5129L5234N3907O5228M4934j126
80277A02044l5836l6008j7744o962n219j04O052j822k5768m7408m8579l1017j2494o261o814J198J9156K6881P383
80258a19322k6217m1428k3227J2464M1486N2162M2280J6269n003P981N6537R7074Q4045K5777k3490k7936o417O31
80240A63666j9382m6850n9465m8970j7722K1425M2651K3630k7887p4738q4750n8097j8115J4179L0119L0065K2585
80223a07656K0618K6620K5796O192j8191j8961J1182M7525O1156M7030K1391K647P89J6488M1432O1464O3944M3946
80205C53412P866k5413l5341k2683j5051l3829o0044n3926r771L0829K8341j0690m7895n3940k5631J9344N1734N0858
80187A48170K8959K0319L4049L7504M413m1589n8420m5812m2073o5381q8770p7569k8627L2376P3707P4199L6002
80170D1457j2185l7426l2495j4211N182K8457N3936O3620M0066j2222o6179q9139o5124j0419L5926M6965L0351J0117
80152A6677k185n310P413L7411O2221N4480J9453j0190j8060j9168k8314l6632k7466J417L7091N9894N3627K3315
80134B25674j032K787J8609J6855J167n92J4899K4583K3617K7445K5446j5820q5731j17565p4191l240K8202J5982
80116A27095k599j5416l1372l6428r321K9556L4776R6l3949l5629j0972J8611L3364J5682k8927n4638j8787N5620
80098C6762R8358P6591K4393j5784l9239n4638n4384l3091p943K100n19l885l835P96J0597J5631N639k915K2225
80079G6859P8796J18022R9837L7496k7117o7737p7458n6836k2658o478j8548k9464r917K8556N4090N5886L9854M132
80061B77315m7530q3159p1878l0847p846j7853l0758k3709r299j339J2979M5987P9521Q6992P1531N8253N5367M6271
80043D09998K2808O668K4294O7400R3144O8758Q020m4587o0217m4471j5223J6967M0731L9217J1631j5007j6236k975
80025F10920k930j6574j7170N848L0097L4598K8467L1755M3753M6656L2143R495r548k1714k7499k4648j0880R986
80007G52755K8817L9391M3250M3362L6869K2969J5745L2603O3407O9963L3647j0579j2743K5247M9468K4892k0149
79990A238914l3576l549L5547M9307L6024J5712K200q571k8001n6877q0287q3197o9044n6312n6570o2886o1181m6718
79972G30935k8680k4201m5647q4518j09722r4725m8966j1222q961l4688o3326p8102p4208n3196k5727j0343j7661
79955h2958l9213n7161n9750m5085j9134O320K3347L8129O0237Q0801P8374N0921K2086P109n090k2218k5236J785
79937A3264L7221M6158K7897R894J373j4589m1591n4331l3576N823L4266L8844K5339L041k0456l6746l8135k1013
79919a7317J0654M0768M8202L1118J7188L2130O2666P0574M0206j0067n9943j01265j18248q9609k6472K1025J7139
79902c1251j9040m4562m3380k6298j961K5440M4561M9885N5755P3196Q4006O4469K4675n482k2169m6076p6385q1980
79884B3403m7134M030M1331O1514P3018P0068M1275q256n9109r4481j05923r0982n3769l152N1220R4518J05253P6419
79866A79243L4570J3723R505j2045n4969p7710n3436j2178M047J66Q738L2495M4346L4008J7696N234q596j9753j3777
79847A31307O602J9287J2688m725k4667m3561m8031k6365K427K744k7696n3518n4369m6191l8651j3022L4324O6322
79829a05095N7065L6036M0331N0346K1900l4379n9743l1786Q233K1440J9564K8640M1921L5883J0699j0305j0375P740
79811A28115K9547L9456L3376K6630L6898N5371N1661J3920l3284n9234n8159m2343k3759j3352j8505k7029j2683
79794A26626K6731N4833L9432o238m5154o2403o4219m7097l358M5285N4972J1657m6865p2817n7153k7406j0034o370
79776h9578j96J8902M0828M5352K8563J1255J4305L4367N3469O2060N8642L7807q30l8074n1208m1872k7841j2250
79758A43701J3377L7745L3505L47k5055j6703O921J2979k214j7492j7829l377J8430L3436K6472J634j7144k0347
79740B08386k9644o0144q4623o5031r727L2481L3766J3475K10l408p961j3181j2846r131o889j679J4052L6561N1228
79721H5895M6765K5870L595m387M488J7108J8269N218j3079k5372k2909l792J9028K3349L441j8192j9172q483j0402
79702A27238k4618k7417j1343L732M633K878P365M578j6125l7930l8424k1050l488J2483L4864N3550M6844J7311l920
79683A31161K538J8092J2206j7315m3431m4708k9668k4170m0140o2021o5228m3359j0647J9840M8067P3685Q5722
79666A0624P7905O3645N9182N7564L8443L421j8249o208K4143M1273L2899J1117r072k2836k9458k5585r828R161
79648C08141J3667r005m8917p3988n9608k0296O64j8924n1797n5253k4964K755l78k3559l9019l5795j9609N000L3398
79629a17487M9667L8243Q181j2235j0744o347k1381n0882p0238o4070l6921l179K2395L1485L2095M4671P3591Q9381
79611c775N9891j923m4261l6882m803R353j975j3277p611N059Q733K982r17L408R639O749n096j0169L157K0849J6203
79590A5334j3296m0350m5747m0010l4614j7641J7037L9673K0983j3951j1109L3273O2270L7658j0496l3201k6068
79573f0255j6558j6788k1956l5701o1377p8448o1276j8679J3564J9227J5937K3634M3349O8166Q9873R0592N3216r800
79555C6720n8281o5660m3227j6610L471J7530K3533K1648J9893K1723J8207L231j4814k7073l7168m7710m7239k6897
79537b18723l3J2047O864k220p572q467J066K3677M1498L0751m291l2177l2742j6223o94Q751J1213J693j5648k2830
79517b24060j0647P468J6645K0705K6062K1795j580k3949j3116L0164O7483O6715L2462r620l9360m7508l4405j3911
79499a28657m320o069j551J5822L0115L1333L4625N1485O0677L6826l275j7626j386M681k1445m5639k8368J3586
79481B0814K8574O89l3025l3848k901L1351M3954K6318j1454m2773m5219k6686j6363k3717k4637P55L4536M2592
79463c1040J8319j3015k6454j7820K687K0985K5320J5760O857J0687K0404K0744R126n593j8269k6367k1189L75J9799
79444A1316J4407j0077k5667j9996m446J4468M1192O3259N2699J2008j4338M83K2587N527m1408p1098o9884o7843
79426h6811q0574q3558n5031j0722K0207K9919K7888K1180J2327K742j0788k8857l4610p406M0068O2329L4623j4815
79408a61889m4627n1777n7719o0330l5390J5529N2900M7785K0219J2288L5198N9929N6399K6509n764k6303m1303
79391a58346n6892o2167m3665j0036J3496J6021J1019J1400J1017O33j2563j5571q884o6J2701L3191M9817M5842
79373a63053K6094J5041K5872M7492O4616P3361P0241M3380j0546o8825r6666p9287l4353O153K1996J5251J163q388
79355e0458j2813j6847k1392k2642j7090n227N813K830k1003n0405n7633l7920k1410l3073n3117m2078R08L4571
79337d18986L2479J3158M017N391P896J7676L8185M7368K4004j5210l5321l1741k6860k2716M073N1801P5729M3277
79319a85780j7734n1398l8336m121K4093M1851N2370N3593M5148L0722J0203j5371l0212j4334K6313N8360N8675
79302D4042L7760J6022m318k7514m1833l3095j1580j49K02O287J5257K857l1980n2327l3051oP146p748r804P800
79282a16032J4889k939j7995k077L1770M9473M1405K6496J9975J6887O115j4029l5510m6227l5655l032L8132O7903
79264C9549P2769N0259O676m3964q2787r5792q3010n6960l3056j9562j0641J0308N0297Q6960Q1890K3518n2027r3355
79246a48928q0723l2102K5852P4832R8483Q3279L5496j5872m4605n1218n5035o5932p0610m9161m173L1908K8023m948
79228b45434j8759J5370O6245P8634M3775Q721J1601L3555L0286p533m6839n6539l9029j8262j1762j7177j7318L210
79210a87255M0206O9754P1885N1597K9276J4048k696k8116n3165o0360m0106J510M4558O5280N3503K3205j005j0522
79192H1597j8791l7488n4864m6101l472M9843P7793O2648J9129k1195l8212l3997j8594L306K4992K9747Q084k0785
79174F3640k5030j238K0156J8203R275J5459K3674L197m2551p0827n2894j0745J2515M979o791L084K8362M1574K8274
79155F2316L388p682K80P797j907k0453k7096j6684k927K520Q21l376q115q835k37J2590J6639Q584j627p119r317
79134d40l360K1723N7540P0975M2537l896k9276k5909j4775p155L592J5590J3607l052j2970m190O150l571l0393
79115I2727n4432o1756m6797o027N1824R5710R2105L8795l0556p7318q7363p1479m6474k1255J593J7269J8404N266
79097h9764j0059j6625j6680j5590o258J9788M8037M9414J9012j3854k3906j7310p209J3833N0820P3308M1589l5781
79079F2765j02595j19225r9371p4568n0552j7215J9764M2345M5773M0085L1721K2112J9349K9239L4579P606m6661
79062a54849p9636n0532K1627P7127Q3124O1676M8108M4547K9951L60k4444l1199k8382k6540k1401o392J1035J7209
79044b8611Q342j0243l1979m5923l5881J481M2694N7873M4206K4740J5012Q443j647m644R941K9144K6028r497n8672
79025D0807r1627r0528n7509q818L5543O1530O6851N9831N1372M4875L3192Q837k1149l6039k2795O708K6494K3008
79007A30583N421p308k351K1008N1309P0522O7626M7021J8594j4274m6579o0875m5541k1247k3234n1344o4634l9625
78989C5072p256q336l4122m3379k5859j1820j9711l1096k6952j6703j4270j1119N250K5102L2039L0637L4216L5149
78971e3158J4533k2457m8366n2739n3258o0472n7687l1193J691J6458J8336L0563N3861O4235N1346L4020L0337L3504
78953c0446K9082J9206J4646J4690J1276N865O567J2542J5911J7061K3651L4494L8238K9815J5539l25k0110l8941
78935A98761m0928j9803O128J1325q841l5588m8339m1778k6063j7553k4968l7050k9230P041M5730N0323J6914k0029
78917a3948k8571j2876J562L313L51l471j6489l7610m3972j7143K4707M0536J6858j2187p112K6128M4989K5352j2367
78898b1950l5582l8568l7152l8424l3594j6920L579J5692J3763L32j3599j1202J5253M9862O4852N1445K8703J5818
78880A2308P188j3496m2026n2141k6190K3637O7188Q1004O0364J9227j5209j9241L489K0479N576k7621m2697k9913
78862C1926j8733l3040n4099m6511q449K6950L5202K2072K149j8091k8368j1288L1760O8833P0590M3408J2352j5325
78844A11338m6389p0762o3781k2176K5729N2030N2754L5169L881k9805m4215k8658L594L5024O2264Q1943P5987L4262
78826B68189j7756m0132k7078j1823j9300l5977l6619k2401j4959k1387k3712n252K4648L9357K4366r060m0501o3103
78808c2500q1126q8915o9521k2645K0957L0818J5564J0955L1561N5309N8051M0399J2844k0969m9687m5509L044O0488
78790g0882P4491L5653j4843l6912k8736j0873J697K545r153k0525j0955J8623L7232K2241o394j1745Q305K0107M749
78771D625j6073j3668Q887K6847K9017K4292J9251Q914p118j6155j1026p645k8332o7519q9016o6778j9407R784M561
78752b06559p787M116L4949N2810M0376J0848j3789k5257k7025k2049r815Q828K8344L9781L7622K8623K8557M1957
78734D4530M9790K9828j2157m6434n6766n7187o3892o7239m7725j0138J7249J7439M869P596L7185P6853R2790N9529
78716G6120j4628q4809j02535n9335M766L9216K7051q095l1004k4893K956L4850N5440N4221K6743j6750m8049m1871
78698a10606o962J6628M499j7205k966M9045Q8043P1934J6750k9250m3660m0890l6336k7819j4524q114j2849j3727
78680a18009m63J0655j662k8259l7015j4796J7592L5166L4770K5311J1258k045l074Q737J2401q051l3653k9812N454
78661a15495L5312L1277O312q320j329J6388L2564L9517K9380L099j8228q833L0387O6472O4786K0394l9656p8131
78643A05896p2911l0282K1578N3979N3964K3508k5606o9601p8920m4833L393K5449J5590N014J6371L5480L7718K3110
78625I8897O965j0986m2532p7553q0405l2036L9283Q4859Q6657O7141N0935L4764L640l6529n9601n1014k3940Q10
78607E9355J8072L2266L9104K9211O840j1570k0826l4639o1828q5892q0513m1458P209L8019M3701L6490L1915L5844
78589D1300M2193L9192J9443j2713m1980n0980l2526J717K5528J8639j2664m0127m3451l1466k8154m2313n9431o1373
78571b69166m4975k0996l439p96q201n583K5534P6651J12477J05336O3306J6423j6980l8229n0087m8827l5092j5965
78553a58609Q049M2331P7520Q6037N2646k250m3536n7519n4293m3978k8934j4452p073k578O517J2307J217j6047r474
78534a52119K5936N5279M9088K1939N017m27j3815l1941k8643K956L8400N7084O1669N4427K4386k3743n3423l6650
78516E5420L287J7217p773l7989m3011k7801r061J2044L6613M8974L5902J4491J4744L5857M4564K2591o810j1718
78498A97541P434K5750K7913J4573j3415n1086p3785n4420l132L4168K8016l063k3693k3266j1305O948K6489K9369
78480A41036L470l2721m9893m7441m6186m5222j9364L3003P1577O1389J6482k1593l0937j6785J0503M0299N3534
78463A21151L5058m716l6732m2328k3702R533M7133P2847P1197M5034J3404j1506l1680m4840l7863j0614R893o42
78445A80627k6768k7922Q234M7072N0228K1568m005o740J381K787k089k496N295J6097K2093J4819j0418m5358p1480
78426A72925p7583o7202m5605j3315K0002L2473J6625m515o976j48q949l0583l6792j7543M689P830o716k7123m1962
78407a30468l3926P657N7242O5267J7461m2109o4765m9863k4554R67K7469L7429J0446l8108o5856n0854p940L6772
78389b47733O3367N6789J7320k7223m4637l4319j8609m071J9352M3627M3398J7872k649l499m986j8586j8390J7225
78371a45752O3022P8440O3783N2112N5977N5139L4055J659k9116n6143p5306p3133m3127R15L4217L7953R364l3097
78353C0962n5840l6661J0031M4816M3677J8373l685p571L997K0420L0227K6834J4780N386K773Q90k669O27J7712
78334A65079M1803N9180O1125M4297J0739k2310k5273J1392N1813M4506j5941p5160p8451l0878J5309K2497m92k2577
78316B56658k5609j2161L999N838j6593n2648p4787o5825l9196k4770l7547o5788q5022p7239m1853L100L3019L7497
78298b78927K7133J6087O444j535M444L3414O6818P1907M3134J0884J715P598M606j4094l7588n5742o1811m6205o553
78279b08271L9090O5210O4898N1076L4092J2545j2532k9169k7270j2338n20k933j6411k7304k5238j4611p657m399
78261a21742R032L4022M6471K8550J960K457K4541K3695j8052n9970n4768q673L4088M7920L9758K0689l171j5163
78243C1644L448M2206O3477M5347L918l3393n5538n9544l7966N987M5288N1759K6856l737k0282k1910j7185j5903
78225E4472k5201m0819m6265l2334j1751j156N219K6415O1826Q6105P9766M9216J2637j8727l8861m0833k3844j63
78207I5702J2860N245k2297n9803q9596r4358p0464l1434L618K3325K8830L0570L7382M3379L1709k87k8501k8741
78189a12861q066Q936J7556L0961M3929L1692o351l3681k5447m003l214j8921k2051o348N984O83j1015j0942O432
78170a16727L0871M1556K3346j0220k2613J752L4053M0842K9990K9619L6259K0581k0124n3444o0372n7595o0812
78153a13038n6511k6958J8698N3673N9079L2567j0669l9433l0512Q18J5954O195M149K9520N4003M3831J2361r83
78135E2744J1217J9825O198j7071l3689m4965n5532n7778m3051j8573k488l984j2970j0501J0273L5246M5287L8660
78117h1152K9285K4696J9397J2325J4246K9356M4163M5202L4512J6207j6290o0915q7079o0916Q251O6450O8102K1395
78099A27235k4136k9367q50K3373J8398l936j8963k3845l0953l4959j6780J4378J6573k6223o7775n2220J2673O6023
78081e1354O8508L5559J036j8317j8335J14K0202J4547k0397m9882l7827R093M8006M7478J7813o629o978M847R297
78062F6781P767J6722L6519M3820K2238j4186l8807m1302k8188q951M613M47j4409j1173K2377N4780M8634J4659k725
78043A79616J1994L0382K7638J1417l290j6799l0745l7362l4886l2171k9332j6530N54Q20j6066k2198n130R906J613
78024B9431j1676m618J0537L999k2636l9520l1226p076K3055N3206O5750M2653m400l9995m5202l1749j6227l671J899
78005b7466k796l686K1205O4453Q6160O3834K3470J766k308j2976l1062l5710k8647m0768q3163j19621j08586n6330
77987b92231o721J3194J6121K5836M6753O6795P4159O2725L2362o283l3382l4350j0951K2567M8026M9142K1679j7802
77969G7639m4742n2134n0828m3230j8909J5123K7409O422j2570N216L9480M4476J9477N324J4545J4244j1558l0108
77951E276j3092J7301K4034O464j3214k8112l9686l5934j1930N225j0929m0428m1077j0778J3534J7033K4735M9676
77933h1902O3773M1636L653j1758j337M842q224j8343K647M9537Q4473P4783K5947k3864l9880j7997K0719N1668
77915B20373N8311L4712r671n1126o8649o0149l8584j9207j5570l4825o3636o9999l7368R418L0428J8011o07l359
77897a01497O102J7054K7264L4843L4575K9057K6977K6022J5882K584P350L1155M2964K0176j6713l0320j5423k9l005
77878A55018j2710j0610J232O001j918p012P760L4379M1641J1610l1529m4225j6766J2773N731l1368o2187o9753
77860a1933o9973p9018q8640q2192o0823l9409k1666M551M2055O7437N4581J2548j6853n592L0643N8859O9980P5419
77842f0026P3742M8255m2m1830n2755m0360k6744j8769r081L378R092J580j3839k3350j3732J5121M2635M2297J2605
77823e1823j4192n433L2798O0031M5998L542k7582k6995j5450k3470m4631l9399P864N7659O1529K4068q446j1479
77805B4589j327N909J5609K6244J7350j5212m1922l8745j8564l318Q898K5338L3564K3977J4670K1663K4674j298
77787A22099l6707m0135j0720J2545R668k044q204j6023k7429k9935k2251j6535j0006J0120K7093K185o1923j05890
77769b04092q7471l6864r092r783k916K7613O0487P2510O1820L9264J8960J3838K2958K8435J8789N836L947N620l909
77750B5950j9777k6278k2873k0368j8829r937N330K0383L6321N1719M9105J5676k9427n3215m8631l2242j0484K0878
77732f6699M7604M3161R509k0749l1767m2871o7498q5122p3377m2638j6831m64J2810J6734L007j6145k0340j0247
77714c61923l876p426p956O136L1341N5032O5409N8934M5729M1425M6395M3004K1880k672j5592k3011l3160l1504
77696g1835j341M1015O0891N0396K9234L861l7230q1120q3875k8923L8310O2870M5392K3750P943k5094p4624r7888
77678a38268o6886j3255J0365j687o699K3739O7082Q4586P1286N1669L5584M920m8591r4236r2731m8675q961m639
77660a75397j5773o935K0160L2204J5047p187q983K790N535l770q609j190Q965J5083K3451L6946M3208L1277J1003
77641A7825K396R745J8432J5335Qk3123m8489o2591n0347j8074L892l764k0983j2281K5383N7482N5914L0332R370
77622F462O097J2819J9035K1228J9740J7020J7151J9589J6372L137j0580j1312K51J1378J7055K5413L8964M1618
77604B71437J5370l3198p3078p8498n4078k7604k0146k7073k8969j6658L36R811J3354K0465L0824L2147J7137n544
77586D6035k1694k7102k7021k4367j5951J26J9213L3005L3732J6965j2735l8143m0329j9264K498M343q056j1590L309
77567h7026K1581K5630J7763J3602K0061K8750K8806J8761N452m131q963j3682k1170k6490k4519k4649m5941q8212
77549a64377j17827r8575l4333L4215P5135R0748R4821Q4945N1824L563l6803n5002n4574m4172k6532j054K9570
77532a68428N6461O6477N1815K1716k116p672k519M860K0366M5804N7335K8282k7200n9653m2300j546K2292K3021
77514H6995J8146R412j5970m9820o0310l4610j829K584j7527k6261l372L1585M5213K8465J633j3262j5917k1487
77496c6332l6723m9547m3420j6509J7212M1685M8547L8101J9801J0339K0185L8506M0312J3907k5509n4093o3141
77479c6679n8449m4664k1241J0071M3049O9957Q0418O4760K9315P74j184Q167l147l8028o4260n9062l6876k1393
77461g8472j1571N387K2672J9405p570l6499m4781k8435j812J2129k21k3116k1852J0647L3592J0182l3856l9088M588
77442b08671M4068L8194N705j8173l2660n0047n6902l6700j1400j6926m3237l9753J4131P8391J04150Q8736O2513
77425g8581M1869J7945j5396m2556m0529o259L4258M6515K0105k0301l9716k6384K688K3903K6201J1650j0935k9340
77407h4863l2108j5090J5439M4767N5330L7607J872k4609j9414J4893N2700O4852L9503o297l5363k3496J2763L4347
77389A32833K7378J4068J1838Q387q128k2350k0125j9208l8832n7553m0847J72K0336Q396M76K0185M6438N3115M3249
77370A79828K7156P67l3368n2269m1702j6065P994L1631M9197L5057j6812o6167p3030n1986m5942o0607o2193l3328
77352b21839M842K6798K7492R160k8043p2003r5428p8942k9341K7757O6444P5847O8027O6795P8817Q3219O0710K2092
77334I2404o860j6887j4233k430J1443N576l0531o4918n1036J1410P2032Q9212O7425L3761P724R82J6658L6704L5039
77315B93475J3398r36m81q102k8836k8854J0229M8624L7956p467l0372j1369J1413L440k4547m5915n6306o4288o6539
77296D4523n3416k8488o386L158o87j4075k6350k1440M472K9592K5344q659m0847m5040l0461k3272k7061k0624M687
77277b35030K7180K5802J1252P323J3477J0559j142K216K9247N6126N9397M4357K6561N355k4573n0486n3572l6361
77259h2312j8598j0866r278j0186j1136j825K5091N4890O2146M2689J6703m66j1470j9432j8911j0282k816L816K0012
77240A7769L9471L6751P752j1995N390L4215K8906q430l2674k7186k9027o7590j13872j19689q4320m7578k7069j82
77222c99358M6401Q3455P6499L7321J3252K9602O2855P3283M8961J1815q432P53K6297L7267R202m7007q5245o7812
77204e0891r506L5511L3263J382k3860l2587l8753m8825n6065n8070n5500l6507R939O1914P5963M3209O840M462
77186a38081J7977P616k4416l9207k0694O292J8031J9036K0632K1753K1172K3337K0869l329m2059n6547k3261L0943
77168a39936O1041N5680L6548K1456J2398J0049J4434J4905O55k1257l5869m2797m9491m8434k5478J0304K9964K2506
77150g3322Q371Q992K1823L2846L5790K8632N703l3189p2123q6495o0625p23O2102Q7699O2131J7266p18J7004L8683
77131I9847L9534K8064J8991Q026r029j5703N98J8120M460l3183m9975k2053J9677K7869l281l5285l6020j6019q346
77112C6292k3971m1272l8288j9753l752O223K0140L6908L8450J2305l1128o7915p8685n6567q909M3162P5134P5831
77094b5795N2786K3435N724J0496L0027L7653J4135k6146n0303m6801l2158j9185k760J7409K6046J7568J0001J6675
77076E8807K2537Q331j5967k3007m659K1737L7777L8876K9579J6889M232j5158m8795q1609p9309l0361L0519N9130
77058B9549M8994K3660j661k4905l6872k8462j4594k0312m1590m7861k6980n89J1465J5616K4217L5573M6454O1323
77040E3025P4010O2043J9734k0180k2455K108Q540k3485o5248p8987o3734m8175m7825m7411k9024k971M414j0036
77022b35657j7721L650L8269N2589L7526J3217k383r449j1355m837Q073J4853R246K216P293K2997L6354L6478K0305
77003B1664n725k4667k0789n9J1138k394k2846k0697Q542M2156O1380O9118P3457O8538M4147Q092j6086j7432j2170
76984B65367k1093m0535m9402m1004l0256k7540k5599k0630k4840m1212m4880j5024K6765L8798J4606j3965k7368
76967g7812l7309m7675l3644J7107O9589P8398M4875Q114j2785l4938o6814p8733l9599L0446O9297M0974j9914m5678
76949a36101j3268L2999M1520J6247M50J1819K5085K0232J5130L3162O1396O4195K7759k7416p0936q3727o3555k7498
76931g2507m159o291j3426L341M2255P2597P3386N2301K5143l243k9245l8961k1853J0745L3099L0398J1303j720R237
76912A72400M2329P1607O3089P136o4127j02124q9739n7067m3802n4006n8921l9251p985J1761J4789J0008K699l939
76894a25143N99K2198M4363M2522J7816k191o68R574J1309O679K298j1091m3139p7644q3461n0053M233N7236R8555
76875g6008J19045J05488N8151K753k9581l2893k8120l4274m6271m5734k8030r428o270j5583k2641k1256j6117q124
76857a34893Q486L0478L9609K2316j0335l1617k7127q379J124r447k6670k5151O538N2063Q2010Q0820N5492K2166
76839A27483o287k0934j7939m077O320L858j0376k9058l9656k5876J5416N8170O6759L7653L978r461j5957l7331
76821A02685o2463n8408j6935L0000M3057J3507l0728n0185k8923R518K6147J0133j1178j0333O340J2685k961l0042
76803d8084m9946m4452l452N7810R9089R1713M8923N293k3645m2765m9895l3247N082M4769O7521O6036L7139j4032
76785B13857o4859r0097q6504o7635l9623k369L0764L9920K6014Q715k119j0433j3278n199k390k8243o9180q0658
76767b43317m9082j2569l365n282P876K6179K8953K8401M7502P1023O0202J1437l5422m7592k8555K737L1612M2901
76749f6361K5554p242k3675r237J7837L2414K7996J2251n337j4533r010J661k370k6403n3218o4294n6159l2177M874
76730b47429M4511O9830P8035Q4395R3588Q3378L4644l4115q2195q9798o7909l3158L716K6906K0033r714l1909k8524
76712h5715j4027r384j1898o104Q050J7328J9285K4675L6624M4575M0868K8078P401k3696n5869o6522m6235j5390
76694a07956j268n830q628L966K5271L9982L6643J1270k7682n7976o0203l8398j3779K628J8775M0850N8795O0839
76676b2701N1324M3824M3189M3309L6969J9686j0849m9561q1196r1595q1158o1580m2631k8590k2508k2632j6101
76659b92801J0710N1147P7568O8906L3818P18j0627j367J7861L9958O0226P0099O0525L2790J398j7749k1782k0310
76641A61088j9601j2060J2343M5194N9258L5696j2356n1243o0848m9673l6459k8158k1714j7195j7581k0656k2953
76624e6918k8572l9771l9814m496O0320J08885J00202M5355n607k0509j2074q183j5509k3801l1342m6316o5014o7777
76606a50941m5121j5455l236n151N409L8594P0200P3126N2250L1931J8697j729l1714m8992l4282M757M5565P2432
76588G6340P7683N6753J6774j8875k8928j4977K282K547k0034n0628n8345k3793L0203N3954K8950q425j6112J742
76570A07111J2854N553q998k5794m2608l8962K369N5452P1439M3020J2469P988R202r315l5255m2933l5083l4576
76552E3933m9103o4003o0332k8278K4313O8329P5241N1323L0665K7010J9498j599q803J7320M6722L9505P084n820
76534B43005J0209J8994l694l9246n9795o1571n3652l8963k1172j2002j6309k1316j3024M185J4061R172l114j2817
76516e7049j9051k7842l9572m2459k4835N526K3306J2188j7075l9095l6179n361M2921Q3856Q9535N6341J4102l944
76498A5313N993K3666L1349K3056o7k7241m0383l3948k2533j5337L98L0731M9161L0701j723l340K4732L6532J6085
76479A43145P210M7168J05397J19689P3971J0113k8228l7226l9428m9029n7357m6938j7674M253p101m2765o5930
76462A19270n7686l7763l0910l2920k7672k1147l2331n5788n9653k6921J9553M2630L0467K348j6703j7525o754M745
76444b04760J0339R257M919K780P594J9859L3235L5757J6714k2144n9839o7104l3996J3776L6676K2928q87m494J2439
76425a66951K8617L0559K1041P434k867k33J8627M0884M7919L3788N091k9701n7698n8424k4908J5347K3803k257
76407f9929k7153k4804o860N114J2468K7880M5856M4321J1991l6738p1948o9550l0707J4396L0519J1850j3582j7224
76389a64100J396K3457L6484M2037M4956M4311L3377O369l0676n6589n2017k1433J0756K7544L2824L6764M0865M2071
76371I8396M0192L5002K4063O847j5726m4277p2831q2160n8599j7761J1125K4756M4178O9388O6918J9389l8953n9834
76353E0113l6040L373L6061N7665O1283L6671p366m1572m4813k4483n907o502j8763j7726P321L0470J6694k4889
76335G1590m1390m735M5351N1015R758k9622l0176L163M5189P0312N7983J1591k9614k8739j401M219k1895l8650
76317A43949k0806J057r432l6245l4994K509L9285M2601J6647j3237k8371k5703j3863n693p823j6063k4224l2927
76299b3333m3180m6945l4649r537J5768L5869N3962O5382N4452J7705j9673k6283j791K2721K4033J0756J344l218
76281I3383q214l006K2942M9478M3809J1524m619J1745K3174l407m2817m8915k2809n025j2663k5155k8605l3485
76263A7335m2606l8400j5237M537K302j0687j1368Q921M4176P9095Q7473M9979j3904n5050n0965l1692l3450m9738
76245e9279n1023l3071j6089o242J1537M1885O3781N4203J5249k5685l7461j1114K8700M4344K4624m390j4624q620
76227A6725m958o144j168R092J1272J866q606j2665j1109m276M894K855j8698m0649l3931k515J5955J700j8478r278
76207a08116K5203N0474M5417J7701j4845l7471l7792j2879K0423L7145K9073P947j3123k6522k1511Q503M4019M7325
76189F0971P163m0995n6144l9370k1407j6800j6734j8621k9337l7233j5918L1000N9742M1508K584j5288j2238j6671
76171a33788l0578k6884J935K8787L1620J9232R862R490J8884L6068M1849J0434m9136q6230o4613p896L1032L0707
76153a29225J0932l298k616J3216L6755M9034L5342O396j1820q760M942J9446L4237M3165L1146m136m0297n1840
76135C2619l8369k2162j9800k4356j9144l622N045J17K097L1334P0643P9586M9178J6039R821J2411q904m8348o9992
76116E4193n7025k4774P595L0374L3249J1601j5970k2777r363L06j576J181J2972J3758o225k6546k7413j7621j4810
76097e8871j7651j5556r452n493k331j05o647j8694j4110J6436M4581L5495m433l3989k6703N522L3988L9759K2469
76078a5785L06k064J8114L0873R796k6254l0337J4048P3121J03061Q9068M1849k0386p4859r7751q1574m3596r632
76060b2002O290O398L892J3500L4904M5475K4501j4600l4915k3328o713j1183k4764j6222K3060P2165J05138J06707
76042B88303P2732J3596m4540p5729p3488m9938k1831l343k478j2801j5839l629O963n224l5422n5318m2853o37M9065
76023a2411P7394O5438K3356j2010j4268J763K199j8242l1643j9162N361K0416K4878L0020L8786M4884M1853K3722
76005B92334j2850n7865q9091r3250p8113n6854l1956m542J3288J1761K027M408K0147K9895K0703R07j4223j8640
75987f1914j2058Q200M1643P5356Q9773P5661M2193Q070j2910j8545j5680j4546k2886l9787n4008n3082l6344j4921
75969a5785K714J7655K8458K1963j1076n4798p6267n7073r512L7288N8593M5919J2685j1540p099J2977J9238M934
75951A9274q973r996j2112k7350m1934l8339k3745j6036j3789j913K0481L7962L9926K6948K485k3587l0009n170
75933a05877K8957L5996J0081j7935k1393n153J2206K3101K8363K5718J2827n871k1533k4366o198K7907N1951M0739
75915H9520K723k6906l1126k8677l7773m5163k9978r22J4744J0685N803J1348J6704J2402P659J4636K7950L1571
75897D5200J9633M47j6379k7095k9840k4762k1573l6068o8148q8586o3202N047O9605Q4715M9897L297k1009j7862L3
75878a36650K1004L8782M8844M7108L1096M249j8390j6745J2015M2705M5596J8284j6459m0048n0813n0818l9107
75861e9347k1506j0574r532r458p599j4397l4985n5807n7941l4793P823N6821R0588Q7195M7330K027j4057N172L7131
75842D091N7336N9923N4891N0497M0152J1167l0427n4744m1798j2441m541k1307k8937r169J4131J2717p982k7142
75824F6417m2664o2351p5841o2713k4198J5153L6477M0178L1483R767k2716n1637n6735k7613K4052O8448Q1101O4345
75806A0953L8582J4806j0313l3512m0466k8185j1213K955K2324M2716L6963q007o3438r0242q2075n6773k3812J3801
75788b64936M1259M5244L5828K9140J9366l978k2800r002K8817N1769M3210K1634j51l1543o9410q1306m4784J6892
75770a94751N7415N5182K7882R275J7190L4930K3755l3094j00490j22865q5057k2722K6026N3659O4449N3314K0715
75753a15187j1445j9052k938J4919J5562l024k7752m1047l6866k7090k3557j8169L558L2489M0603J8696j0022j8411
75735b28733j71L5541P2795Q7638O1999J0042k8132l0661j7001j8472m1126o5928p1004m6225m4M2125N9741N9554
75717a18062O0660N9660L5465r485m1865l9597j4495J5070M3837O1230M8067J1550q309P617K4758K581m9246r0132
75699f96j00072q1219l1883M1883J03247J13700Q1470M8480L3442J9677l791k3715l0088l2740m0978m7861m3798
75682E058l1127j9296j5642k1424k7683j8578J1027M6224O8100O9206M6016m524o5287r7343q2235m8776l2351k6604
75664b45239o393K1357L1053K8939M2270O2377M9815L572k4512k365L7895N1214L9243L2112L9954N1426N9868O4244
75646C36830N7655L5638N982k1211l9402l7046q530J8393O87n6112q9703o6644l9775p5211j47988j66276r2559J2719
75628c72553P4013P8526N6459K8657L071o428Q452L2102M2242L7668L1526K6402J5021m94r283j0651j6485l2652
75610a4407m9692n4919m5499k7436q127P816J9059K4850K2122J0990M782K2211N8573P6395M4626j6869n4216m3251
75592b2992j3739l291j1938j7594j3143l830J5234M8863P7357P3062M0295J0431l724j8481l9719m6909l1591k0734
75574A7557l7814o3156n9705k3753J4655L1127K4264L990j3610p499K7145O1635O0141K3377j2498j8829J799L0674
75556E9500M8801L7124j3560q1933j21651j01210l4886K9154M9301K4055p677n987K3932L7400J1526k0298j7904K579
75538h1734o459m5181n7894j2279N2971P8794N4060J2109j6529k4256j6259m104j610j0637j6828q847P736K3243
75520g3704L6848M6746M1448J3871k5157n7075p0899o4154m2439k2738j9803k2568l957L7368O7960O5016M6357L6951
75502i929L0178P871k0764l0025j5229Q537L4717O3192P7405N5726O519l5301n0539n2258n7408o3668n9114l6404
75484a46494N588N5649Q3605O1825J777m7784m8334o364M1616O3160M5922j89m5411n8586l5860m122R710L082j1794
75465c3004k6270l3927k5016J956K9431L5631J8700k954j2202p615L53o91j6469l8193m3537j5113L7118P7013P2970
75446A8181K9657j3164j7455J5306M5453L7554j216l2168l3759k6867m2144p1288p0457j7355N2841Q5629P2121N2475
75428H3344N3759N3057J9483l0844n3279l8610k3389l3301n0446n0573m1364l9443l3284j543M2811N9084K9396k1932
75410g7074o0776p3039o0789l2573n595K201o184o142J8215N4155P8217Q1972P0671M7881J5259j7064l2288k1255
75392b4208Q260L5059L7236Q586l3451o1555o4156n2869m3248l6970k7403j2931L610K0415L0676J8395k3608p2004
75374b90166q6478n2823j192K8094K7460J8768J6285J3845R640J9216M8081O7943M4581j3902n9210n7883k6679n566
75356b99986j0853k6432l0552j7586K607J6809K0570K2254L2164M7266N4306M8730L8765K7604O514k5972n1848n2463
75338a98103k9663J737L1413N2488N5135L5629L853k8207n4733o4949m3389K657L6704L7208K8364L7681M2942L594
75320d9639o4691r5926n9650M242M9157P5481R7401R8101N6776m383m0233l9465k9087k8866l1589k7117j7987o844
75302a14319R090K4317K4473Q518k579R391L4363M4123K5908k741j5135n577R155J7499K9790N6933Q1347O8465J0386
75283C13407n7467r1355q1485n4272m1898n4078p0297n6395n9O6672R4049O8913K7361P007N647m40j6605k8477k7894
75264B334j8867m786J0721J5421N01k1490k8733j9034r544q239m394R007K0660J6901Q99j1944j0759L489K0961K8797
75244h099J8919n451l2050m8483m8635l4771j7115o780m276L23J1773K2073K4912K7779L8340M6698L5341K899l3740
75225a0343n6580n5285k7857J0986K9716J0016k4540l0807J788M1525N7937N1881L7189J7830m041j8467k1378k0858
75207a1288j6908M272L8081M6759O160m8068n6921j6385J7626Q722j2069K780M6923P0437M7454L819k2204k3004
75189H6186j8138k3296l3169l0396p544J7644J3302l0324p8501q1697l2225K4374M3794L3101K9200L8978K9253j8525
75171c7983o8831o8018j1273M6820N2684J1884k2215j1711K6195M5751K7910l245j6171p683L800O689L570k088r195
75152c3110j0088M946L0204M4455L4086P980j3600j7038k328J6595J8559l902k9047k7788l555R988k648j6733p780
75133h04R495N471j8876l7711m0365l7319l2185j7417J516O043m744p587J0249K9863K7050M664j4416j6010l983
75114a37066J2195K7651M1127M9813M7140K9054N663j152J6984L7921L2846M488j6798j5653r667j8416l4938m1113
75096C0079l6766l7623n0714o4033n9304l0454P539K8649K1753L920k972l061j4755l1924k5884P224L1922K3303L635
75077a99466M502J5864N115k7535m8103l9407k0046r880m628P177K3896L6764M0466L2117J4868N948K3291N7847
75059h1210P6146N8839K2070o988j9964k3503k2473k1172k7361l8410l4223l490K9501K6073j8193o5797q2941p3711
75041c06807n8650l8008J895N2947Q1657O9120L6688J8414J9601J9212O833k697O627L0505N2784O1119M7318P103
75023A05661m8268r0173r5351o5769k0090K3388M7223L5837m221l5926k7292P945K5884O873k6556m5853m7258m1631
75005b95577l5627l3034l7901m5728m3916k8424q116J1406L2428M8813M5194K3059Q758K0513M1946M3442J7712j8975
74987b54027m7189n1842k5134J8907M5809L7841J9664K5460N0731O2341M9413L4092L0589K3463l291l8248n6694
74970g8115m7871j8489J7451M3134M5651K9010J3073J2042J9630J9343K716k4662m7442m9689k8542M50J9559K7825
74952d4926L3741L5497K5941J2657J0044J1200n566l6318m6709k1404R015J1435k785p58J8985K7239J0302j3513
74934C4077k3856k1703j9329k3970l4348m1064l0804j393L0387M7081N0264M8464L4891j760m8237p1441n5114j4921
74916a42776K4068M8303N4686M7218L6491K6510M125l8632p5891p0254k6905N424k188k4526k6303j0009L333J4075
74898a53251L3204M9696M2231J4715r889k4784l8853m6151k9446L691K1517J4137Q489K3207L7057K3551o413k3984
74880f1276k8382m1569o3318o5608l7806p161J739M313K8633O5162P4431M4962J4336J9428M7228N5848L2228M409
74862H7597j432P605R934J330m809P72J2682J7684N447k1950m6610m9213l2750k1735k8997l4966j4666K3019M2955
74843d8103L0027Q379P251K1763J9962j6074o5764q8308o3300j2467K1045J6439o248j5474p992p388k6698m9392
74825b82342n2188l2058r17L4099O9585R1151P8669L1716k1872n0439m5430j9100J4818M6431O1781M8260J3626j4802
74807b9012k0519j6421j9572j8108J3794O8613R8968P1735J1924k4971j5970J0756J6038q781m2772o2803o0216l6750
74789f4067K946M7753P4514O0945J3805k5875k2985R126K5604R830q474k975R465m61k5655l3391j3583J2298K5938
74770I4758K9173K7257J9717R999L323n865k3695l5500j9694J5083L3802K1738j91j4895l3022o1344p7189n9970
74752g6515k6300n264N548K8589N9731O5588L0296j9502m3966k9445N042K7946J9936r273k7030j1136K2741L7944
74734E4930K0297q271k0584j3879k801M569J2736K5667L6833L3289P390l4044p0172p7887m8147N078N1435O4892
74716D1331M4393J3825l171o506j1784k3791l0871k5833j7063j3756j4260j5483j9143k0727r123J1513J8221M570
74698g7658J161L6031Q7593J06161P6801L1989L261r711j8124k2458k3170k8109l5801l1557j2526L649P678J3069
74680A08279K4395J6109k8138p2042n8531J6803R4380J16653Q0469J9565l6113o8923o6251l1619M822J0290j3450
74663A16698l1479j8120J2872K5740K687l9995p1246p3571n2735k6113o391L998P480O035K557L045J1471K2431K5018
74644g9618J7508J2839K2443L7662L7960K0267Q697K4737N4370N9507K3669k7257n6738n8749n4983n8094n5950l5519
74626a07249n189J8738L6126N5935O9751N4815J0563k7152k4918N563K2162N313k3431l7030l6414l8252m5275m5547
74608a11491l5504k7913l3777m4671l9003p038L1693M2710J5734j6100j1105K7530N2249L1331j1903l3476k3094l602
74590a97430Q393J4302J3544J044j4080j3085M059J7074J6668J4268J4636N528j3199j6914P731L6793M2698L4099
74572b3871L4208L6451J7834j1704j4411J5905L7970K1563j0639k1327j1400o864j3812j9582k6796m9243p4492o6067
74554a86277j2934N1079Q9739J01154R8097P9360M4834J6333J0824O690k6917p3041q0037l7519J858m915l2778l2234
74536A3316k826J6485J4962K3066N5516Q1260O6553K0584k1732m4132n5462o2739n9397m0150j3222O360R925K97
74518H664j2907k2541k8442l1314k5524n991J7817K5171P368j7903k1429R655N9090R2487Q2619L2375k4949n4735
74500H9511n1735l6313k3812j1484L256R402k135k0741k5213m924L3486P1050Q2754N3706J274l1809k2405M341P885
74481A26094j5426l3740k7583j1315m783p464j0024j2796j9712k5851k2950j0676M671J5488J3189n895k9420l6401
74463a14594k3339j0249j1489j5207n384J0465J5297J2759J8562K7482J7923p612j5692J1698M7823N5988L5382J1098
74445F0911p010k8728n2240n7084l5268q428j297j0219j0858P888K8418K4646n661l1997j9807K9479P4670P8154
74427C5569M4639N703k2221m2707m9811k7233J4376L1433J055m1621m6194j1777J9772K4993J9654J9428J5045r62
74409a0859j1450l44J5883O634k8113n2557l8628j033K0410Q168j3766j1467J6259L8208L2110R989m178o190o654
74390c7578o747P92J2246J5342J0197R045J4968J9883K4305L7611N4298N2013K2622j3033l1075k9577k0059j1906
74372A23347j3721l0616m8943m4017j6954k638k2375m8286l8678N636M5338N2436L1734O94k6623l8562l0743j1535
74354a14506J1243L9590O4647N4760m257o8260p4090k0456K8986L0162P005J476J4897K5692L3239M7890N5874L1594
74336A65486j9757o1684o9491n2253l1826k0260k0182k9496m0084m3416m0413l7113l2530k2411j2157j0058o631
74319c84276K1362P7809J30720J40234R8517L5854p958j4094N596K0884Q344k8233o1806o8466m7788j6457J0644
74302g9114K6707K7134J0418j3007k3107r251J6499L0979K3426L018j5135k4500k6432k2281j2618j575N020O901R077
74283f7841J1351L197k3970o0001p9128o4814k7879N936K3994L4439M5881N0787L6671O258k4063m2118m5639l3202
74265b50141l740L2809N8078O4111N8465M5666J8254k3348n6199n7515l4582j4387p206R65K0062M0245N0596N5203
74247b664N8496M8254J0788m1206p2876o3855l1056q490r984k0019j9519r378k001J273J0279K5290L1959K1392R55
74228g2362k1279m5725o3174m7401J0134P0474Q2610M7196J5533K0380L7666K9542k594l0211m2572n2159o4480o8789
74210a97211n8892m3073k9078j3549Q486L2556M7145M3233K2551K85n397O697J7221J1634K352J2082L9093N6174
74192d7691M6416K4057J1952J0420Q4k9144o2090p2394m8245l461L5313N1227M6534L1855J4119o17k009J3359K8468
74173D8153J9898r821k7856r083L1103N4167M3205J7247K241J263j772j8522m3631o1032n6700k8358J1370M2304
74155A4176N2237M5883L6550L1333K8647K7049K7793K7453J7199m229k2330j9392N470L3542M2683K3318j7803o3253
74137B86326r5215j05426r5085o4173r397N8046J01410Q5698K0741m0101n5210l6773k5634l6356m6770l7446j7987
74120a13352o700k594P382K2447K5753P198k3260m6567m9699k8828J1287N4826Q0168P7156N7005L9287L2015K9435
74102A72959K4186J3460k898k0613l0194k8381k7360l9213n3520m8090k3634p022j2427j9898o071K2070M0770M0889
74084d987K7268K813k4087l0895p979J5842O287k3423k6856Q817M6661N5991M6670L4951J4025j8175l5436j9153O003
74065G4337N443j3265j5650L138J2071p331l7638n5497o0363o4530p0499o5954l4761K5001Q6505J07063P0966J2849
74047b8115j7742q971J1650J7776M138k5741o2975q4658o9311k6024J4961M3571P5506J10784J17933P7210J6054
74030A66046k0579k0912q584o027j4692k4858k8779k6422k7465m2107o3328o8733m9045k2453q582j261J5599L5974
74012b16208L8575K2669J4125L0290N5831O1729L7285l908m0456n7573n1578l0081p904K567j21o894o105Q079L2458
73993a17220N7897P5032P7125O0030K4707j8208n0448n7551l8950o642K3769M0161L6914J6192j2817l7521m7012
73976B5458l7910j8433l196K157Q700K8303N1041N0198J4288l5908o9078p3939o0487l9950j7197O50M342l211l714
73957a77886J5819M3727N4689M0328J9698J3831J7091N854k4118m3294k1643L1265P2376O9742K9647j9518n5987
73940G1621p2474o9469n3726l9119l7150m3627l9860j1439L3384O6877O8327M7606L4065L8096L6053N150l8005n4038
73922e7728l1302L220K3889L1270L0142J1092k7176n8625n7653l4571k0871k6593l3652k6889j1163J402L654o479
73904b88033k2715k8367j1968J7120M1382N6757O5063N5532K0906j3254r824K3735L5235j495m8231n6978l3154j2757
73886b11046n91K6399O3616P2460L7558o497k1963j3319o317n275L225J8784K7315K7746L2951M2187L6051P904j8128
73867A13060j5243J0296K7065J8410m9m868N644J4072R120k993j2717k1904l6209m8596m3743k1662m378q711k0776
73848d4182j2516J8178M0100K6113j5659n5320p3669p0962n4821l4587k1621j9154j3555J0314M6250P3329Q3631
73831a18131Q5386P7494M4303j2829n9194o1609k8280N403K2213L2198M0764L4704Q737j4875r492K2858N4410O1258
73813A85318L9230k009m4847o5559m8305n862K3795J2864k6327n2981l8336R022N4651O8871M8051J2983j1471j7683
73795A41405j6495j7371j4876k015J1273Q624n534p720J0410K7741K4157Q997K978M239p265l6712o4745p0165m8428
73776e1502j0475K2463K7386N83l1126l6796j6981M080J6631L1385M8562N0601L3596J8694J9204J9754K315k8114
73758A20260n7302p8923q3240n3987K463M7705N5036M2326L7562L5376J9028K233P645J9123K683l0570l2161P342
73740F2599L7032J6965k9086n2676l9201o066K6738L9532J4093l8786p2721n5025p755K4674L1753L2841L3671K2922
73722D1504N252N95P622J602k1722l0349j812L7345M1033L307l1388j7768M1780R9452J06856N7483j1625n9187p7976
73703A92004q9281j03109r9452n8493J366L4288J8432j7133k5659N768M8861P2812P4403O6591N3033K7780n944l1226
73685A65041l4707k1334j0091j7892m4944p1148p1198m0368j393K2008L1648M2852N3352M5301J8759r79m40j470
73667F2997k8322o4155o5172j8306L6035M9010K0178m026J2279N0822O3235L3881J157P461M3662O3525M5922J6664
73649C26847N022M359j0324m4403q0116r8478q9375n1467M9L3557K8054k196k5003k9121k9720l6693l6694j3999
73631a49701K3454M8722M2349R161k7770m5674l6413p849K3826M1761L5362R147j5993j9646j168K4768M7508O1314
73613F3158N1992Q265m7747o9969m5894k0199l5876p1470o9874j9369L0301L4693N358j6263j0650Q740K0401J6566
73595a67837P169R359K7972M5701M0840J3897j3895k6894k7302k2082j2290K470K0724M1168N7114N1415J1755m8509
73577A0775r7788j13829r2909l9932K9839Q4142R5113P0665M2825K4476L346j9944k1659N304L1822L0175N933k4238
73559B4116n9273r5832j09322q2136l4648j576R117J0473O971n34M917L6968P3524P6827M4583J1449K08K018P244
73540g4906K2624M6337N4237K9530j0765l4644k9822r086Q762J3210L792j4239l6940o2731q2119p4199k7272L9861
73522b38370R0908J05079Q6785N0420J2783p068l927m62k1814n7192p1155n2441k3293J000K7836N4309N5294K3225
73504C1917j1446k2423k2970l3927m1943k0774K3532N9501O9832N7657K7779q997k6252r854J2966N539k3352l1180
73486C5605n233K2774K8695K5173K8438K9814J7042k161j5017k2090k7042k6587k2007k1683k2483j0082J1765J7149
73468D2070k568k1053j7780j0793k3200l9421k7182J0742L9586M0676K6309R964q787k7419l4339k6231j3698n994
73450h9118m016o266o095J0636M4203O4500M3770K426j1523Q355J6677j1532l8112j8669K9453N3252L8653J8806
73432A45400J6112J6771P005k211j290m570k5974n0548n3158l6376k7906m1276n8010n4559l3256j5635j1304o161
73414b36946J5632M6731O1970M7192J5373q469j3019o757j960j23M361J1016J0430k854j8429j8095J529K0404J5988
73395e6026r090k7713j7731J4671M2606M5194K5927Q134J1693L0686L7791J7447j1354j8856p080p564l1878m8564
73377a707k7029J3286K3321j1620n2933n6427j9465K5311M6996L8934J7410P867K3513M8231M7778P206m8206p8701
73359C765p2409n1319l7191k5851k007L1123N1590M8005L5085L1033K9035P929k9449m8557k5815J4666K6244k575
73341a6698l5460l6583j2883K657m020j6456j5232N56K1346M1118N4253M9175K0434j3448j8984J6013O1577P2143
73323A69508L4436j8469m2208k3305J4912L8935L0830m825m6484o6704m8585r10M3615N2465K1505k1091m2289l4307
73305E7029j2332J3194M4834P2526O3167K641o3058o6028k554N3605M2310q907l0383n761J7821N585k1735k8220
73287A33734j1157Q635K0607K7323K7124J4264p676k6152l2297k5948j1414M032R480l434k9799m9932m5082j9020
73269a6712J256l505j6529n316K7423L8261K933m3027m9394j7871Q894J1216O320M682l318j2224L089M1895O6149
73250D4222N3780K7905J1157j1723n4584q6214o7363j1688K9965L4456J9906M927q239j4927r297n640k5560n9755
73232a28672p1805m5789m442K4484L4199K7171O753r481M100M5175P5263O5745L5519K3671L6700M4187K3071j3235
73214A72614l5740l8081m1429o0113p5198n8250j7781L702j0176j9457J6356P2925Q8228M6080p078k9295k6284j8572
73196c7549o414J1541J8455N517o551N30R706k954k3355j6367J9550M7143M1567K0084J3150K4885L2025J2761k8763
73177A34961o2177n7100j6142K2915K6483J223j8861j3875O952K5217L0443J8745o724k9229k7450N79L1311L9718
73159A06989K3224k284k2745l5922m5428n1371m8224l1611p909N733l451k7291l9598j9695K6204O8640Q2050O8770
73141D6081N2473M6059L4587K5m3941o0904l8460o844j10j4467k0599n721J5973K9034L3026L2123K5360J3041K058
73122A38794r46L272P444J817j9176m6798n8847m1887j1066L909p125k5359k8028j1782R488J8257L419l0055n8064
73103a52733n7074l1703r725m874j248J6222L4890L6251K9913M0627O7438Q2341P1244N0393L4990J7446p990k2986
73085A93422j2075L996q484m5955p0330o2092m0523k4826o917K0929L9619K9873O519p36J1357K2517K2036J2419r285
73066H1464m1737n7642k9377K1536L8720M877l4498l6469j4086j972k150L251J0106J349j4802j1848J3717L7743
73048c1818M3352L4788J8210n491k7124l1208j5340R021L3542N3335N6018L3898M016r931j4504l5585o8176p2285
73030b5282l2369J2096J8991J095J694K8301M3490J9495k5573n2728m5122j7428N788J1195J373j1985j7152q763R035
73011h3849K3748K2772N137j6680k9965l3410l1800k5480j3364j294K965M31k964p195j4313j7615p088J6718M5323
72992a67923P3098R1624Q2505L8892r432j9825R537L4511K1552j3735l4455k6092M25K7564L7131J6323k4367n4217
72974H3116n8148n2720n1408l6110J1624O8434Q9633O5046K5794k020k2222m4200n9851n5836l2446N7L3261O0619
72956B2623P2572N9366J9795l1736o8302p0485m8709l5163m5438n9940n3871l1428j3688n444M242J7590K8126L9316
72938b00574N7269O7470M7444O004j8956j1041L202k299j3655l233K2211K6848n770n1647p4646n9929j7488L2365
72920a96425P0317Q4773P7033N8281L7401J4464r473k0734l599L2413M8199J3865n0970r2107p7953k6348K6693O1750
72902D7580P0575M3797j1293n8510o6500m5152k3683n350K3552M9279L8031p005l6548j9044J9883M1181M4580N1163
72884A56536N8974M9320K5377J3661K7884N1690N7805L2381j4896n4453n9327l5839k1187l7076n8971n0140j4291
72867A27448J0281L416j5787k2224j5906j2289j8010k5380k2140k891K1026K3366j2531o7728r8000p7314k4408J9146
72849b09925L2507L1947M4988P2584Q3239N0544q172m5157l7181j0227J55n254j648J5855K6858K0519J0854J3122
72831H5608K3385K6490J0761k6202p1455r6305p9871l6284j815Q005J0843K3903L9397M2802L5497K5068Q772j7041
72813A1558m1602m9660m0616k5787j2271j72R084J1435M601j0478k6823k8640l632L6610O2775O2501N3284N0216
72795F2383M0202Q395k5878k8399m87J8296K135k9629m1994k6935m762M827R59k825P684L4310O1229O6127M1539L253
72775A90430k5763l8653m9504p3540j02750j06709o6479o032K5073O898k7091l2350m872K5510L9177L9820L1845
72758a74990J4606N23J0146M0058N9723N1774L3691K6191K1683K725k5526m3100m4333l8747l0572j6964j576P679
72740a07009J1564J5759J8919J8179J9507K5956K2726n979m9479q1141r3042r6396q8618n0128J6826P3547Q6838
72723b61971O7163M7718M0447L1452R470j9957m3982n2615m4435l2527l6082n4334n9569l1873R227K8079K0945J7007
72705c65837L2517M8975M3506J9443m344j8073k2651j9447j1311m986j349R721L4733O3174P7350O9843M4613J0339
72687F216j8192k3280l450J7944J8910P855R651K7444L9428L4009K5583K8188L3487K6453O659j8665m7335p2511
72669I8394p4391m2501J347K3328J7384N079j503j3003l5130n1662m7249k9624j4737l220J2864K9783L5695K9501
72651e9645K1258J6502J3095J1197J3264J5781J4314J5589K9643M9090N2699L4257J1520j567j4558l8163n6451m3702
72633H4123n538J9038L229l5449n8291m9560k5156l789J3827L3105M6364L9200J4397m181n1J0920k616m4440p8196
72614d3064o7551k0989J6647J5614r518k4734j6216M715K4588L8691M2301L0418J2731J2896L9346O6350O0873K5178
72596B08276m837o315L564l074k4064l3922k4642j8515l5202o1505o5095l1869J9491N7082O2324L9398P623j2196
72578G6522j0196O973K2593K5516K0365J9708K5837K5453O972k1107l7855l5990l0302l5298m3972l8845j9165m425
72560d7216r333k5579l4163k9805k5251l1038l6957k0032K6729P8162R6770O9359J8217k3486l8533k7770l04K9210
72542c1020M4518M0966K8453J3472j0394m2185n8154l7313O208L8654M8631M9102M3020J9020j4923k7358p248J5435
72524A18884J0617j3454l1075l5467l1866j5453J4659L3288J3345l1469n5615l4842J0982M8700O4800O4378N5625
72507A86037M2133K0837j3428n2958p2602n5487k0579p442l1563o8150q1667n9967j9190J3643K2649J6840J9857
72490a61037L9064N3589M4197K2210J0240O264p435k6765k7630n924J2866R472q647k7490m1443m1660j7199K1017
72472a46311M2690L7889L0577L8642M5263K8846o46j7263j3454K292K5663N0979N9264L7941N661n803Q618K3910
72454B54758J8145o826l3843m4663l0019N28K2213J9712K803j1272k0199k9308l5247l3802l2600l7075l4191j1091
72436d1977J8623K9584J9008M302o417j6718k1282j2219l891j9429m8149m8729p001L7653M0969P237k3906k6977q176
72417a27495J3729K5028K2092J3354J2931K4131L4807L3463J9887l555l4586n6586m2209J0161N9381O4234L3344Q380
72399A10491N302K638j2474k2683j9443l0766p9868j34740j35590p0181J0551N6642O6894O0675L7645m392l6764
72382a96063k6957R898K8197K0518K4604N1349N5259O927m6777m0976J4677N3286M7661L4394L9081L4219o117n4128
72364D9052o3995l2556O141K7521K9501J5159p037j4470Q649M3100N1957K7323j302p634K695R613O053k824j4524
72345A32422k9461m1375l9298k0753K276J3461Q316o68J900J3237R981k5923p9325j08035q2563j7155M3017O4321
72327a55625N0062K5397P079m621j1269q947J654J1002J4263J8499K6874K6937R231j0886r213J1762K2852O664k0673
72308A1042l1263j4629J9367N1707O1902L9175m159l9634m8810l3882k941L6883O7184O2702K2726j9916l7492l8509
72290A01453m3014m5569k8597N43J6201J3447J1316J7079J5840O07j4063j7421j7116j7352p273J2637J6139j2513
72272B344m4884m0353m174J6836k014l2836l8306k0455q221j3046j9597j4264j673Q043J1322O960n169j5087n670
72253b20244K6523O2978Q3897Q7178P8139N3312J0929l0401m4162k7711n432K081k336n339j64J2969K7841K8011j829
72234A36240n0900q3612p7756m9327k7459j7545m885J5820L4095M1655L8270K2293n816k9805k7040J176K3946J6107
72216d4543j0298k0595J679L8024N6781M2830M819l8146o9413p7830o0239k8892q981j4447k5933q477M1505Q1391
72198a40765O9047J5685k5432k0202J4017L8828L7989K0482k670k5161l4580j6583K2868N3818N2931K9896J0714J454
72180A02336j2634l2236l2492L13L9141M4778J5210j4744j9080n212N749K310j6007m0770n3594m0217r754J5109
72162e1794K6548L1027K4258l828l6888m0158j1639R956M636N09J9681L4185J1933k7285m5112m5160n0743m6774m114
72143b00762N1442O0705K2171m068O523J0311j5843k2567K9753R2350R1552L4819q526j0692n468j1965l207L4584
72125A51112O3458M2810j4753o2912p6134o1676l3398P59K9927M0420K9772J0663l251j0592j8815l0674l8634l4714
72107a6632k2878j5515j6977j8078j1176l378o693j9596k7297j8815L651L0419N0607N3437L4940Q785J494K6088
72089C2386O2213P2862M4696L344j8831k2080l1361n1536n3364j6718L0490L9279j413n4668q2018p6770m9470o900
72071a79859M1017P2771P2290M6853J7253j871m923P938K4639K3334l689l4963m2883k6956j0731r966j8388k4046
72053e2180k5455k7575l1517l3883l2336k8011k2189j1583R520L7977N6949N2531L3205J8762J0053j0168l9683m4377
72035a39960k542N6276Q2805O9380N1903N2348M9399J6533l4833o9385p2348o0011m9504l7108j3235J3857K3110Q109
72017e5206j2701j8369r191r6J938K152M975J1200K5420M9363O7804O0043K9589L533l800o533j7844k6836j9196j512
71997H4733J1756J7779J4725p891m5116o2162l4588R606K0634o771l0512k2890j639O441K624M444J7700L2364L4010
71978D5247J5316j1895k0117j32J4682j4255p0252r1615n0777Q930L1356J4679j68J3493M5422O9003O4896L3295l385
71959I3723j9091j4285j4780l3606n2906n4358m5874m2051l8905k8267j8517j7798j2418J3025M6557O4799O6586
71942a08166O5107N8155L6134J1278N006P923j2328n7303q4634o2316j0621K5941K8841J2185m454j1979r013K226
71924a08018J8263L6555N1507N1538L1892P730k044k864j5007l4657l2332q42K3731R769k4145l7406k3777q881k373
71905f1361J1538L4597L9432P546m0355o7600o0822l3351k057K4327M1124M6220M1564K8946P622j7866l3848l1312
71887f5656j9983j7680k6322k9530j6412L291J4389J7163K1559K5682J6390m545j1089J5501N3330N6659Q218o0007
71869a9042j02618j02498o9872j8735L6797P4019P4634M7858K2134J0967L637p412j0485M303K5417L5038L0567J7080
71851E1789q071m4330p1343o6225l5739j0074k093P869L9851Q3869J12134J09479Q1038L9834l16k5745l1491k9612
71833B00824l7670n4725n6408k1501L8279Q2060P7097K9477k5581n9322o7505n7721l6036j2362j986o551n222J6645
71815A792L8555K7573j3009m3555m0849k5515k5448l4920k9038l795J9342K2707R651n013r493j485J1637K0661K5109
71796e5093K9316K7075N117l1598n5262m8756k8314j6764r339J2282M2886N6482M3525K2825J5125K2965L7358M7418
71778A17248M2550K1438P1l932N380R568L927J56K091j3p888q739K531J1658L383k1013m8500o3911n4866k3658N891
71757f628J2640Q297J9312L8724K8747j9037o0766n7941k8503j3745j7984j2310J7433N6989Q7141R2202N5533k0501
71739A79603r3151j09651o3609J978M7672O6756O0827K2316l9848q2398o3954N732P0152Q0088L5280k4811o2389
71722C0593p0539o4936n4650l2855M11K2322J2010j5175j9328J5329O0459P7300N6004J6406j4751j8763P949M7233
71704E5019O6671M7265L124l2735l9510k1396M220K2292K6025J6674J618r394r488K65R209N325q578j0301J9390
71685A45695O8476R8361Q2505L3249j4930m1444n1572n9042o7844p1274o0538l1836Q576M2402M7917J9333k1145
71668A26889l8569j9656J1323J9135q99j8127o229K2659L1581J188m8715p7871o2835j9865Q528k569l0665l3016l204
71649a40917K2064J9619J3165K8719M6524L4144O781P422L4980M3951K0067K852J5270K3119l594l3857k3592J2250
71631A28967K3783R45k4822l9833n7827p4047o0927j8084J7165K2688J7592K1547K4477J4918M528J735q359l1160
71613c6714l6844L54N6295Q3598P1765M9102L3879J7581m527j8960j7720j2016j3186j8218k1934k7280l5508l9727
71595B9940l6202l1592l2829l8780m5043m6878l5675o335K7576M0816K7186J1158J8608M4981O2370N0939J4440k7945
71577B6735n4699n3062k8875l803N396K622J615N428P227P436J5969L4650M8845M3506K1507j95r370p638k497K968
71557F3765R691J6498K0533K3660L1658M3141M4796K5093r165l7227m5395l7734k6554j9199j4976r458j891k718
71539G4518k7913p4803j09247r5692m1407R015K8727L6597N8939Q6250Q9197O2105K5758m526k8896m4974m4282k9307
71521b9941j5046j0080j0357j1364j1025k748J6008K9576J9561n230j7472j2077j1689k4991k9605j1351Q595Q432
71503a20804K634J4694L2072K4091m219j4433O263K3173M063l6213n9453n3348l5726k0568k577K3995M8426N3104
71485a14826L3655M302j5114j5829n683P40k181n977n4J2589J5993M54k2061k7850q159J9684L1460K1675M719n058
71465g7521o576p386j4181k8051m2347m5821l4488j7900n093J1159M1559P3328P6062M1599M85j3255m24J3005J1408
71446b4438p36j5427k8632l3771k4535o125Q816J7869L2290N9019Q6107R0699O1013J0935k8424l7427k7983k5437
71428A13813l0448j6985K2399M9901K3735m4473r8821j03168p2100l6863p216K0713L9553L4801Q006j9411k6593
71411a43157j0913J3529K9757L0643K1996J5132J7187K7930M1600M8682M0770J9885J81o127k619k297r557j5305r147
71392A08170R115K8483L2731J1571k6841n7972o3439m9383l5504k9668k2482m575K0422L9840M1749K2896n827k5029
71374e743k6750k6150m3683p6817r8107q1474k5627M4097R0776R0463N3650J9093J6634L9166N7282N2426K5889j2126
71356I2999m5245n2630k8581M534K1587K6654L8754N3122M5040J2506j3792j1284O642J2660l391l2612n8153o1547
71338G263l5747J222K1076J7555P805K204m247r297o29J6933J9958L724o663L627J5732J1186K111O019J5628J7697
71318A13157J8718K5234K0038j1639m8772n8287l8756j0901K0888O1817R1255P5020J6037m1909o8425p5058q1020
71301G397p9400n4740j5242J0996N371k4807n4142n9645l9189j1272O556J3867J6866J3622L376r6J5750L8509M3209
71282a63014K6119O462m124j2268k0338j4361J6973O4357J04564J16121Q9813L7363j0575k9468k4380j6493j1743
71265A55008j586R629L948j9977m0403m3779l9938l6577k2045J0924M3481N2002L8429K1408P161j1866l5103m9763
71247D0953m9391m1457l2926j9943J627K3204L0821K4493K0187K6344K7061L295l0883l4070J0151O3932P5400L6797
71229A75595j5680m9697o1382n8027m2908k1634l316J0740K5658L8906M1716L3539J9882j198l2601o2407p5442p5669
71211a53925p2873n4242l158N5831P2523M0325Q284Q328J3994l050j9162j792K7415K2460j2907l1929j9785j2729
71193a36392l5407o0807n0437p260L0112L1945M586j7999n279L9605Q0964Q8686O8045M1334J3158k5341o6895q8670
71175i6052q1146n4832k0304J5767L7384K9466M791n282O489J4189k0k0669k6288j8183o835R334L2727M9903M6483
71156h3078K9953K0965K7129L7326L6804J9128j0370l6133m4535l8900l2585k5586m898K6666M3652L2638J3678J0406
71138B2260J7153J6270J0961J5477K4949K2432Q597k334j0652k7004m3449l9014j5783P32K192P437K3059K6865P637
71119F7785q992J089K0340J6524p521k1357j3314M80O925N917p752m0807p5450p6453l5174J7140N1157P0981Q8838
71100F0356R2144O1492Q939k8711l3222k0917j4624j8018k1640j8217m637J8666M0867M2506J5872j9614l2728j2362
71082A16152K1774M0691L2178M577k6573m8103n0334l0675k10K1070K2734J4728J4016K2096K1835k229m3546p5172
71064E5009p3336m2406j4336j5328l3345l1420L159M0439M9495L8779L3460L0066P100k6503l3449n073K1563J9163
71046B3037Q197J6495L1750K5160q48k2741l6324n1076n6803l6042m949n24k3287l1511k889L4202M6993M3105M6616
71027H561N6058N3773L9884K9215K3371J0264j1918k9659l1898j8569N258K8965L3280N448l8472o0834m1230j930
71009E9567J4009j0783m9287n9827k9523J7577N1005N9031M1536k317o2636j07800j08441p0694k7500j40J1903Q393
70991b65927j4981m3420m6562j7814J4207K6946L2687M9701O7972O5687M2254J3428j1681k8736k9634j7999j7088
70974a80960l6958m9872k8844K895j337m0034n8299k0646M5653R1610J00493Q5132N8122K6657N50j4979k5735l5624
70956h2176l8611l4161l5317m5749m2740m649N1614Q2812O9195L3625Q454J435J578K019L063K840J631J0802L8386
70937B4051O4505N3191J134m4262l7589M639K4315j81k7738j5962K0601L4552P185l8118o9874p1132l8294J6075
70919i2902O2302P8022P1511O2096M5345M136n0396q1559p5149n4777m1764l0663j6739j4733k7890k6676J1395N9802
70901a18639P3445M9485K4799J8362J1276j1311l1034k4256L304K7373L5225K8151N920l0423o3950p0264m6149j7169
70883a35855r008j9336k6223j8085l652O509J4477K4325K7999J5909j573M97K8455N4455M6277P598k4544k2631L707
70864c0699K7715L9840M7692M8355K3175l0209p7021p6071k7590K7038N3297N3047M2919K6646M541p888L576K2784
70846A71147J5745k4204o3784p0247m9515l3862m1639n9261n8406k4858K5945N9586N4363K3895O41l384p187k7770
70828a12795n1456n0674k0347J7318M0375M5334L8653K5038R711J288L071O231pj2669j6683l745J5728K2873R693
70809c3063j4826l5357m2870l8197k8090j8587r452L407J6204J2752j7212n5105o3570k7941K2811M7540L7858J9686
70791b24012J6103K4299K9202K4802J5600N896n063j9576l5906m5993m1469k4931j0110m809J28J4705K8312K0576
70773b32246n257j7502N173M2019N2067K3797j2305k4213j6888j7314k9470k6672N126L9068M2447K4395J9755L2736
70755i5284L2673R449o932K92K00l6006q0943q5965n0407j4474L838J9756L4906K7257m412k7485k1218k553O958R048
70735b81302R867M042n345R31K6030M1340K3782j0773k9966k3200j666K1065L2489K4105P363Q901L4968N9267N9206
70716A104M1900K0703o024l4014m1913k7180k3026m7444o4306l5079J6125L6960K7274K9436M6214L0237l3545r1149T
70697b44876n0088j5848N72K0419M6566N7896M9830M6738O4203P8996N2597j8726q8813j04306o0430m466J9235J4546
70679a35955J4673L2341M8138M2091J6991r208j8348j477L0472M7180K7436j3266m0382m4233m7206o6145q7893q7760
70661b92551n6205k849N0925Q0323P4181M8370K9046K1495J0765p936k0579j9623j6395k0488k5586k4330k0294j6823
70643b08554j0417l194m894j3878j3408K830J8036J6106K553r386j7871k5637k9233k7689k7423k6346r562K4034
70625c63933M7331L6890O874r072l6J8339L3605M6496N4001M5820K2476M66o949l743j871n935j0056n266J0450K6598
70605e7515K7958J1714p682j4126l931J8185M5752O6663O6183M5630K6616K2940J9424l866l6195m7347l0305r127
70587A40971k451k122L834O893q975m1214o8965p4708n7735l1135j1704p084o463J0490M7746Q0560P7863L5470k0675
70568G0596o2243p9037p1383l7493J8750P4696J00950R0003O0845L1024j659m0081o5597n5178j6202J5932J7858O82
70550E2463j0387l863J4641L1425L0401M227l1161m5288k6095M818J6347k871m2804q2285r2675n3107J8731O6633
70532a50850N0384o839m5601l8237r726L328r021l2296m5879l5112l040K5864K8598J1702J019M436N595k737l519
70513b51931J5269L6369L3742M383l3028n9398o3660m2841q170J8259K5837K6042L0381L1360K0993J3592K5983M3469
70495a33349L4296j519k6213j5415J0151J8448J0650J1509K8684M3916L9956J8268p997k3502j5553J4190M2054M1340
70477H9914J1739k2416m2796m9897m4814k1562J1703K5611L824k9204l6855j8523n371j1133j4019N578L2926L9913
70459g5382K3093K797q548j8911l6240n0268m3401j4187J8205L3117K6641R639n583j0743J02K5238M8062M7909K2749
70440e711r119l2505m6222m6743k2672K0351M9737M3434K2504K1511L9130M6565L4345J6813l660l7376p0477o9108
70422d9203l1747R04M039K8J1732K2094Q835j3131j8188j3058j7014k0383k172K5335K9417O666j6502k7112l3422
70403a32882l3085j1195K6416N0930M7440K7075P30l0085n4402n5977m2214l7978m3893l3496j563J9831J0472n355
70385b99231K123K4547L7231M1278N3111O7191O0572K9011o773k7907k9397r909K6146N4514M3325p743n3559m4271
70367c9741K0809Q8680J04560O3228M126l7913o1864p8426q0519n5144j2672J9822L1384L1631K5490Q842r420q347
70349A4526J4360L6302M2811M1630L7456J9734j0585k9836k5909j8982k7469l7708l1844k2196k7634l5209k0259P429
70331g3383J3469j0261l7782n0497n4775n6032m5657k1385L208J7427K3571K5631K7030L9355O9433R5583Q4005L6477
70313H5417n017j3048q608k3517n2632o7162n9551m8093m3109l4221j4486K501k93j8358k8006j3639J3023K6024
70295c02775J7105O815J8181M6986O9240P2166O2066M4178J5860j5094k6491j0145J0029M796k3528m5910m3440k5118
70277a25079j0717r352j6918k4146k2200o310K0279M5621N4577L9195Q724j1817j406L3881O2288N5910J6750k8412
70259H0868n4630n7708n1407m9726n0289l6017J510M2619N4724K9455o976k5551k3725j4584j450J9900M1704M6405
70241e4878K8687R61k3746m0831m5292k9748K158L2051M3983L7456J9382n821l1233m3760l6918k0620q152M8R227
70222a67046J5314J3388J6721M6238R6039J27574J09634N3217l545l5560m5108m5632m6307m9050m7876l2875n514
70205c88J3853P504j2547j4960J1485M4557N8895N3848M2947L0155R237k1316n3251p3650p0220m0877l366J7265
70187h29J8465K2273L6628L4484o090n6118o1839j4928L3249L4339m265l9110m1387j4354K1624M2978L1948r558
70169B7510n5345p4362n5961j4306K6397M8307N0210M6684N0562N4405M0434J1512m600P904K7751K4875J676j5112
70151A98541j7206k4403m8356o9791o3758l2475J162K2836L4076L6126K5758J0146P813K3192L3156J6106j3013j9441
70133A20469m38O963j8079m3624k9662J0463K8175J0054r723r474j0199k9717m5557l2351p177k390j2112l596K7139
70114e0836M7969L8103J0045j8149m0349m5592j7322L3756O2481L8117j4849m5649l6948j5864j1678k3556l2800
70097a23121l0268k1005q449J2644M1518N7631L6972j3615n3817n4410l2243k3056l0219k6130n13K3943L0720L4309
70079a79109N0474O6213O0229L6592J7304J3045J8836K7043K7530P514k9198n4407m7980k7297k0999k4055q644K5079
70061d1830M2229K2423j2665l0371k2603j285J9438K5810J0312j2571j5053O802K2621P336k7351n5166o7536o4001
70043a93461l2062L3317J00880J24414R2256L4141j6661m5325m5906k0260J0584K1661J7627K6333N1323N8029K1883
70026B38773l3829o7370o7150n0945l3116j6388n889o919j1772p759L816J1799J3233J1522L389j2970k2564r203
70008f3342J5799K4911J5461J3371L0411M5080L8722K5454K7047L7560L5344J7469J08p267p583j751J1246K1662
69990B79702J4576j0170l6277m9323m7340l7417l2273m2390n7376m5429O831O0935O1675Q235l7798k5452K8991P1605
69972A11305P4447N0514K2370l21j8073l4879n2758o2931m9307j2148K0059J7403j6661n0027n8230m4732k8579k3794
69954a56342l0108l5865l1331k2156k1336k4386r411K6317M9721L4377M150M007L5137N3803L6078Q179J711J1361
69936f6094J5525J1952Q993J609j6592k9401j3896K2493M3919K8477o753k6579j3560J9362M5279N0002M2771L8051
69918A55558L1835J0480j7642k2850K525K4914J3306j7778l5262m0866o2443r8383j09298p3212j7945J5728K0384
69901b20949J7075K2422L5356M4583L8779J9002M587J1861K5537J4098k0462l7413j7312L375j4166m7008l8444K0380
69883a38699P5744P9818M0125n848l3770l6517j1967L1447P0542Q6329Q0285O2620L6295M289j9393k2508j2514p930
69865B78348j5841k9761m4291n7209n9718m1322q050J7104J8171K743r722q744J661J0234O068j3778l7555m5278
69847c6940k9245m250R215P596K218k60l394q387r720p019q965j8834k6695k4336j8445j8659k1081j6218o438p32
69827b40589L074J3972K7674K8922J5505K516O5M836J6449L8907N8298M6324L271k7705j4262J7530J9699r198k8616
69808b3328k0310o374p56J3888M4657O0636L3285j9466n5807n9781m4072j8269J7038N0136N8424L2918j1035m7290
69790D494n5005k9847P617K3277N189j9098j6727P427K1318J2029k190l990L076R232J1042M514j3657l1436k7370O85
69770h9420K9820M2370M4359M5868M3034L2176K3113K1608J3216j6663n6459p9368p3425m6438j0365K1941L2658
69753b1975J3183j8434l2440k1654o501m568r772n962J0720K8830L3873K0494j658j3365l591J7108K5905J0537k0130
69734F00m4366m2370j0217L2465N4851M4084J5933j1368m0725p7217r9294p7732k1434K4934L5927L2071M0880N6384
69716h6594N6085L9427K6189K5242K5000J3173o975j9779j1613J2263K3681j566m7051o4270k9533K6520O1690P2429
69698A14318P6739O8730K9021k7695n7741m6725k5894k0086j5985k87O406j5703m3425m0080j2520n29j4428k1555p3
69679d7512K9127L8493L2336K7753J9268r592m9374o6924m5893n736K2725K5248N408k5170n0353n6768m7095l6661
69661b40720k9741j1959K1945M6174L0154j8080n6881o1857n0990n0217n2727k9869K5646Q3940J05305P5124J4660
69644b00093l4515m0156l923M1055O0598M6746J5123j5316l3014l3685k2262j1961j1730j7872k5876m1528o5072
69627c93481p1852l2830M0980R5485Q7232K8776k8530m5920k2108K1063O1406Q6942R6061R1269P1683L5471q089
69610A13558l7307l7640j8849l922j464K993K5240N7169P0276M7431O995j3586n83J9709J4980j2903l5050l4783
69592A62264k1467r070k355n137j8985k8181j0691K4755L7281P794k7520k2119J7750M2461K3763j6830m2554l9736
69574G1423j8500M824J9305K4434K5184J6087j9236p6917j13754q6932j0876N2938O6348M8905L6735L5845L0601
69557A06414J5021l694j8185k2283j2251J046l451k6440l8557j8875J2228K0495N788l208M074O838j0683l4754m3813
69538f4290l6539k6458k0311j3410o83J5840K7424K3254P13k5151k9577k963L5401N5198M6120K6129J7975K2104
69520E0776J7782q779m3032n5314l4816k589J3250Q810L811J3306K9488L3608J9242j241j1502q273j971k480q713
69501A1363j4119j7369k0704j9968n899K1611M7747N5121L7330k4m2857p0533o6594l7070j0714j1027l2489n1609
69483b27804n3896l9699j1768K5785N6877N8980K6934j6718m0722l0982K294L5914N0504M2489K2580Q97k2359m5295
69465a65989n0472j8838M0076Q6788Q9561N4847J3240j5050l0339l7691l7255l1253k7289k8333k7093j7200n108k912
69447b10310j0936j5628p063Q232J6757J5388J2730J5857K3267L1013L8810M8221N9396O9788P1260N1148O075m5289
69429A78716p4937p4117n8236m1060j9867O440K3137K0303J4254K7181N1924N8294L3301m394l1233m1061l6789j8941
69411A2915O681K2938J6814k765j2388j709R829j0173o6272j14536j00131k2873N4281P8269O7487P4236J03602
69394A16205J09919P0025J5923j5698k6581l1627k7334j2331r479l4397o1521n4374j7786R095L358k3084m5636m3326
69376g8649m844N2380P8462M0070k9180n9307k6382K5633M7053L3521P827j5062k8190k4494q539J099m234j3285
69358f121j8949l0173m6081m3490j2652J6045R833j6506k0466N164K2571N653k3438k6928L69L0698L8576K2224l092
69339i6763k0810k4285k0605k2982l5047m4588l6906j2612J2174K2867J9366J1078L833l058p806k232J6804L5634
69321b05938L3399P246j8632j6546J2779L8178L1830K537j1597J2728N3460O6289L5287j3876n2412p8482r5925q6237
69303b85912l2745L6014O3304L2235j1954j9910P429L8699O0584P9390Q9762P3027K5952l0061o9748q0102o0025
69286h4061k1052J2967K2334P956j8510n2346q6594r4990n3004K0873P1239O4519K2897j0003j7724j1809l074O426
69268b23956J2101R056M514J1700K9349L9711L0414R252o580r553o123n781r350p561Q951L6988N8735N5082K2738
69249E9687k1446n2559n5049l1823J81K3199K9770K3696J2484K48j1919j9834j3992J0820M1988N3115L1081m249
69231G5398j9353o099J1605J1745k115j7521l3840n1324n5927l6506p670O192L706K684R475J5463K0007L0183L7983
69212e914K6834N843P196L8175O4345N7017L1331J5813O990j8434o0152q9638q3192m1204J6940N9929N8697J5874
69194A06450k6487k9492q09K3577K9324K9147K7027J0241k1041m6355n3971n1506m1003j1211L3159O0383M7998J1487
69176I6918j9997l9315n4951o5127o0411m2371j9572P076L5546M7805K8220n535j5786O124K7332J9326n070j5953
69158g5741r637n529r798q028N745J7489J9081K3926M0474M7116J7795l3663o0582l9185L595K6752K1696R360N563
69139c571P412Q075Q435J2903K2299L0414K3693q278n3984q0191o3342j6079K8428N2632O2073O3076N1419K4779q407
69120A61786l6512n1219m5473j6512K5419N9318O7610M5655K742l9175n5639m1797j9969j2776j5175q535M921L747
69102B8416j7834l8411l6697j4021J1706J9748j818l8285m7805n634N3705P0720L8816J0098J5773K5126N091k3057
69084E5637k3069o477j0831l4106l6623k304M1214O3581O0476M0929J5672N64N029J3982M304k0094l3502k8458k3525
69065H2399k7288k2155N464M0345N6101M4290J9122L921J3015L4199L3955k184m2071m4813j9142j0283l0029m1291
69047I3555k1492K323L568O96J8381L6368J9129k2331m1407k1473Q246K1409K3125K4457K1137J0306L621Q910J6508
69028B05036J7235J8738K9402L7769K5330m840k8336l0418k4356l1355m9359n4397l4936j2077j4046l8000n3446
69011d2056m1458j1580K1417N2773P0026M8458j1303o1390n4823o440K6247J8759J403K614Q841k773k3630l1048
68993c5963k4923j9968j5227N95J9499J6616j5051n1369o2657l9996M057M7165O8553O2204M2459K7727J9199N678
68975D8598j3720k7223l0827l3767l9633l9142k8816k0423k1554k1425q930P841J4943J5310K1631L3750M0192L7783
68957f5412L2793K4846P032j7108l2674l2444k3696j3891k889P818J1580O796l64n872r137m363J3478L2128L0598
68938d0781J0289k540N359J5363R963J598O062O840k1513o2678o6834j6163M5649O2981K9810j1797k2647k174K1341
68919c1872K4142Q647l935P87J5430K2033J2198q154k7421l5153k7016j0892j235Q71J1646L6075M7582J8434l4644
68900A7523o0741l5325J0486K9457R598k4437m6506n0744m4579l3478j6386N430J8802Q085j8980k7060Q054O3024
68882a87777Q9237O8790K7276o948k8797l7240k1540J5204M1789L1418m218l2757m2275m4550m5161l4159r621Q059
68864b13270k612l3189m5649j0941N3516R5558Q4298M2795J2526R17j0910k1072p671K0875K0272k4971o7917n9288
68846a66733j3801J6121J2857M470J3958L1197L3603J0389l1327o6972o9865m4476l0440m9861o7109l3293M1220
68829d10062R6720J01805Q1097O3743M6627K1667J503m202j0343l0973n2562n4958m3904m0849m9417n0809k8803
68812c63720J3368N7695Q4288Q3910O4854M5699L9446M7291O2229O8889M7037o058n9191p4959n6085m1289m9608
68795c6204n4273k4697K8244O7026P1282M8917J6401j3154k9779l0564k0998m930J8571M2076M7078K5339q567l6348
68777A05420n4544o3712n6433l2660j1521p375p151N489J5606l056l7056l6141K1376R0320J03864M6548l1309o7282
68759a9617m5250j567J9908J3207O790J8841L1671K0363p362k0363q415N732L376k181J1276L6554M0698P266l8087
68740G2840n1725j8228L3756O2139N1470J8594j2789k9932k6703j612L1418M6451L3172J0221j851q694k6548n0060
68722A31919n8375m7983l5578k8642j6675M376K1086K2907J4364L97j9916l6541k8156O889L9457M7086M3758N0832
68704A11205N6039L1241j8076n3698n5878m4329m1744m3383l5288j9980o935O238K4863M0100L7145J3441k2947o2211
68686h4197q5637o4573P500Q6895J12411P1702J2508j8775k5225l3835m7615m8405l3046j8096j1783o001K543O554
68668a77075Q617K4024N1055N8593K2919l4708o7997n8361k8038j983K0516M7510O7476O0139K7572l981j4561q492
68650f775J336J2080K4069K7249J0366j9973m3438m8246l6580j0315K9080O2086N5190K93o3547q6695n9824j2119
68632a65763L1203O5492Q4624P2610K9377j5364l0417j5012R136K7397M0137M7820M3975K5099r97k0537k6444k6034
68614A76302l4172n4314o9969o5160n1030n5194q0413r3020o5008j1237L2268N2972O2051O0469L6212j960j8745L697
68596a76251L6625L9633J2378r119j444K2163L7116L6977L0083K1750J2442O605J0879K3595L3057K7614N892k0158
68578A49837l1344j7706O190J1442j0181l0219j7721J6304K9031J274l8852n4669m2241k1327o139l478k1353n3531
68560a34683o6752l2887K8020O4050N4098K9639K7169M2907M7937K9840K039j8188k5663k5140k3805k5324k6814
68543e3557k3010j3043M37J5105K4869J8872j764j1954J2540N7382P6590M2630k6099r0205j22684j14709p3067k3868
68525c05535J953J675L797K6337N0182M8722K6253P694K897O83r599k6988m3744m9744l8754j7545J895K3386O0915
68506b35520J04033J14468P5212J9702j0845j7668k4751k9241q152L4216O1592N0726J5363j5991k6172j5894l183
68489H7895j0877l6525m5437j5748K3811L0500Q854j263J0278J3747m076j7191o154J1090J1023k988j6216k3626
68471A7097k0174L845M0686O0905M7677J6165j2635l4294m5301l3174k007J6352M35k8940l6878k0180n075j1889
68453d7385l9115o9491p5911l6424L7693J00107J11809P5312J7340m2463q9709j04873q0567l6104O800M8525R0388
68436a34068J08317P9626K5437p265l770P220O00j4774j7145m17K3600L3962J1203m0961q3058p0823n673O1479Q2322
68417E5812N4639J3079p539L055K7340L6306J8288q924k3791l0467m5147o1684n7723l4247j9230k4707k7630n589
68399a38159L2885O7592R1759J00129P6972K3124k2857k3154O303J2250k6087p2142q3526o2347l9875l0485k1077
68382a08695J403K9626M4295L4322Q511r017O98K9774M7437L3952O322j065J9994M0638L1584j707k9521l4952k7930
68363A15669k4378k3765j2653J4715M4968N6085L9399J0021p642m563P058J1420L460j6297m8210q5350j08747j03457
68345a32267p4046l4796N939L8558M2272N763m6958p6358p3497o2165n3929l1692J1625M8920N4549M0694L3446L1169
68327b72773J5767n644k594L4308P5859Q6573N7646N956m1785o0263l9603J749K9373K7044J1426O967J4626J4911
68309d0457k123k0970j8690O736L3423M0981K9921J0663j5455m8939p2580o2366k2282J4066K7412L7328O5318R1972
68291E3958P7271J6662m7964p4566o0037l1313j3923j3954j9029j1808J1004L1468K7734j919l6109m8021k3588K7759
68273a36375P2392P3955K9926j9482l2303r294J4832J6362J815j1883j6117r145N713J5928P372j8420m2211m3988
68255a00923j7592K6056O2226O6904M1008J3612Q201J4239Q200p880j2451k715J454o658q852N473J9343J4456k09q27
68235A23065K0763M9730O3605M8362P695l7590o5731p2112o5726n1808l0517r382N94K363R028J9614J6390q089l7249
68216a6995n0375m2454j9908Q161K9092L2436K3113J5813J3096N404l919N037L7474O7578O6945L6915L073j0689L042
68197B02839L0330L9391P803m4841p1669n6743l5345m0228n3522l9317m605Q257j5414m1423l4818k682K3336K8633
68179a00018K4145K2940K4506K2621J7111J0998J425j5749l1530k6710K648L3482M1604K9515J3625m119k8734m5618
68161g858l3231l218M571k4167n8150o4808m6724k1630M519K7423L5672L2195L8222N4884M9454N905l9419m5487
68143i1847k4777j6391k3326k0919j2077k3207m8225m6929p739L1319L8373K7118K3299K4849J7335L238p570j7952
68125a75428l2132l7814k0626J1373L4774L8345L1318K7581L1182L5565L1274J6087n97p102k960K735M984O464Q097
68106C120N463m298j9028l3625l7971j7975K7570P2658Q2310M9825N407j6149r058L209n494l6839o2766n2692j2019
68087e8352J7594Q575j4677q028L1891O4753O0452K9531r02j4719n468K4946N4695N1669R014m4718p9912r2340q6766
68068e2762n7807o202M1561N1658J6782l9459q4987r8041p5112l2882L539K2093K8610L0608L0331L5266N4102P4053
68050e8649O5321K2800j8317k7371j7364j5043j2795J4489N5062O3736K4923k1739l2339r235J5434K4611K3214J4683
68032A11421l911k5707l3929k3391q665l860l428Q084L1860M9828M4527J7842j1721k5720j8078L974K7365M4072
68014A80563N5889O4436N8111K1368l7251q0177p8396m5938k0793j7416j8197j0432p423k4263n1817o8057o2573
67997a42366l7870K331N1107R0444R9675P3536K7119j5238l4783l0108j8892k0580l2404l1067m165K9762M1640K4846
67979G2987j873j8279j8306n886J2467K9048L6686L2558J8376k406k4820m0881m1648k4148J303J2752n531m1603
67961i204o1315m5045j0933J1338J9846L2832M8659M3489J4307n836P745L4169L5729R171j4011j0871R729K5544
67943A35343K6826K0823J8332J9075J1998o350k0074j4171j928j0429l7375m8387k5773O483J9747J6209R602k283
67925A17668k0906k7013q219J1114o78l5796n9607n8162m3067k2166N53O939j4358l4996j5961L1344N4791L5793
67907h2727J0891R808J5439K851k1697m3552o5980q6905q0738l4869J9640M5292M6841N2158O2410N6763L6320K6197
67889c1858L3537L4984J3080j7955l1807k0462J260J1761J499j6242j6270P283K6399R932l4259o3709m9138n556
67871a47521K6016J8223k0902n6036n5094k0572J1643J3704L91P784M1600O7806N9237L1129J6961K3267K6837J1744
67853E6217r201j3811J981K4002L8604M0713K7599p21l1431m3092l0186j3985j5553k5147j6184J3201L3698K4053
67835F0757l365k5451l8062m8620n4079m4248j8670J4820N0546P9855Q5179N7691J5357j4684k7562l6305m1379k8649
67817a6869M27K1260J8006L730k730l745j2759k9103l8476l2876j7939l292O076J2110K2984M4481O6651O7228L7136
67798A42300m507l0956l7026l5738l2141j8191N037J8193O606j8424l2878k9232k1274k1454k5125k1402j1565q497
67780a76274j9708l7536m7402m0386j4825K8314Q2377J27043J34606R5009L2844j0950j8568r823j2725k8362l6487
67763D7147l0999l1137n0463p0236n9665j6431K9022M9224M5494L6132L2759L4332L4072K5759J1105M695K0445M7300
67745A58555N1726J5019m2555q5947j01670r6214p2789l3502K762J3113M424R153L9842P0596P4380N6482L5504J2051
67727A10930k1047n1198n4927l0512q38J4770J4015P05j8171k4108P29M5052P1195N7236K2226r08l859j936o499
67708A22855j4489j9952k2161k3611k7868l5574l7177j9403J1487K5336M080k6942k6114R015L8007L2579J0312K208
67690B588Q854P566j1152l4429m7185m3871k4611M029K5781K6500J0271n766j0783n568O335K0227K7362K4900K5034
67671F082L7572M6693K7030j5030m0269k6883R3N293q532r027J8768N4012O4803L5843k4292q7050j16828r6675m5056
67652a73453K451K8247M0317M8769N1229M4990L8333L9466M1881L0767K666k7341l9558k9411j2140o371j3997k0649
67634D6196j5367j324J4882L2144M5428M0326J0837k6126m8791n5865n8450n5768m0164k0599j5251k0072j0498K0858
67616a57604N3254P0898P9685Q0466N6330O839l1528k6580O035K6977K4634J4042L47k1358l8780l3855k0895l4278
67598E4629p0800q2563m3646R370K6452P135j1895j1622k840L956R033O518j4091m3780n3347k7506J3083L2813J7365
67579a81736j5558l5451k5361O141L6352N3112O5126Q3134R6795Q3266M0078l693j8130p682m553k6657n2573m6458
67561D6152l969L8099M1796P514l4589o2182p3649o9987m8509k0160q978j9136k1141R263N2263O7334M6370J8138
67543c5371M530J243M186K3620N7471P5514N2366K631l7114n2241n6322o0055n6867m1659k3683j1890j708J2433
67525a42916K1690J4411j495m067J2201K6480K0705N587L181J2952J5655P584N762J4345J3605k511m615K9485O9493
67506A17532O3975R095m7403o8364n9546l8594j0242J5072J3221k0637n5587o1487m1408j2145K1095M9718N0327
67489g5378J8756p409N013L4296L6491J2567n51M072l161k6823l0459J139K9379J9003q051q730J6832L2155K0365n27
67469F8979j2135j6230j9932k2947k3586k2712j9354j3477j2747k5252m4392m9817k5919K2965P2822R3979P3660
67452B3905L0536j324r091j2050k8473m5606l8034o844J9035J9275L693m688M726K4576L9093L3998L581m5438r5778
67433h4908j25479j16498o7796l042M5309O6376P5440Q1685O6654J1938o1865j06471r6632n2713j1588Q543J1530
67416c59517Q773J0360J9420K6313J5258j6128m8430n7106l5499J52K5140K6159J2651Q862K8850N9232P3089O0648
67398a41773L8073K4504J9682R914r752k6902k5412m076K0885L2644L1075K9004L2250L1124J4401j6026m8039o7966
67380e6390o2601k5956K6115O0126N7369L3557J4869P262M962J2898L4787M9953L4130P75j0817Q786K8108K6185
67362B44118J9538K2868J7971j2040m4475m4722j6067P265N731j3611m0745o8945q1553o1713j9360J3258J7896O238
67344d8348j764O42Q342J1575O78k1483l1739p881L9843P4110P0787M0170O798j4751j9608o909J3901K2386M568
67325A41317l2579o8088q3218p0489l6319K758L3959N7580P3259O3240J0151o6085j12143r4540l4671J8892L8156
67308a58820K6436R43j7149r563K0029M0443K5466j2661l9117l9274k4889k950L3565P7972J00263Q2824M8540L2414
67290A84472L4194K1923j7357n2039m2935N851M8722N0121K0967j530N00J2346J5000J0683J3519K5521L3318K5661
67272C88937M859j8883l7370m8143n3914n9201o3688n9772m1926j8306o596j6134l8164n5186n5352l5854R78M6933
67254a66782Q3861Q9131N3617m349m8205n1717j9589K0427M2866M0078J8675r938l4773m8531m9180l6974j3929Q512
67236a26800J0193j3650l4109j7520K4670M1950J2700k1647j2659K9505N8374O0774O3492P7245P8472N3952K3074N4
67218C08070l0161p6209j11106j06513p3889m3617k1455M916L0045L3265J1311j8102m0322m8023l0193J3965N4431
67201a43587N4876J9932r315q991N889J5086J6375Q501j4711l9255l3480L277K5568K678l2327k9201L854J3341j7406
67182a58896m2247j6971M3948R1602R9989Q0123N1738K1290j4111n3103q3667q9608o6091k8008K626J7303K3500
67165a20583K8986L3008L3287L1664K9467K4941J8746J5985J9906K8180L6190L8447K6606n874n2887r3885j07071
67148a4887q5413m2336l685J1555Q676J1001K9495M5156L2591m328l4998l8731k3605p709K653J1068K0809L2779
67130d9909M3767M3304K3588m610j9333j4505n083j285L953J4088J6410M441o110k255K036j1482l2200l5631k1641
67111e2457r945l818J0747L0401L1957J1607m401p00M901k306l708J9931M6701L7799n394m0128l7904j4635j523r126
67091G999k7819m4705m9901l9584k1364p192K624J6172K8943K4318K216j2650m622R016P028J411J9413N6345P5950
67072D3598O0184L1326J5403P731q928l0141l5203j8939L42K442j8151n3646q6797r5053o6695j6900K3427L9629
67054b06371M5104N6595O7418N4885J0988m2809p2901o2167k1248K4284N4077O1187M7013J6997j6776l7068l4893
67037e5685k0665j4608k3479l0933j4583K7750P0543Q1315N1039L845k5417k2041K036K6701L9207L4624J6025k218
67019A43456o173m125k1216o2602r8616j00997p6906m7772j3266L3605O8713N4782n53m2949l9801j7504j3310k0812
67001b66046q736K8215O5726Q4396Q2742O3679L0505o824l6817n3920n2454k6959R050K3805P409o557J3811M7572
66983a403M8180J2227j7060j3538M087J5261K8783N2725O5944M6350P269j9980k7114k9873l6092l4170j2670K2061
66965A10987M8518M5498J1156k8582m0379j9264N170M039k1187n0169o8375o9263m8643j3576J5852L0741M6642P3269
66947C2434Q5331N1866j1686n2999m8237k8544l0625m7732m8810k6952m003M872P469J4134J9614J3241l195j6693
66929i0515j8569j1774l022O445J8561L0022L2767K4564J3227O090J033n332o272O709K5711L0614J6117K454J0411
66910H9241L3722M6220L0989p479n4917r7216j18818j06173o1632p750K9332L9527L1025J8762J2864J1441R14k8334
66892a38282o1191o3919k3526K7502M4204K4378R907K8684N7819N9051L3300J7642L4400O4591P3782M8735M561l2692
66874B08946m5911l7445k3888j7444j5205j1741j3489k7357m1706l8262k2040j8020l3409m4542l0947k778J8718
66857a96520K9828L6345L2972J3180r704j4336r25J1526J5357K0346K8523K5701O910p748L483L4245N5839M8945
66839A33967K2021J71l21J1789J1595j3272m5390n6661m2000k2112j3425j1419r013j3513l1622n0038m8602k7237
66821b05082l534J3121K7601L9497L7608K1582J1597K2490M0286M2242L3101L9020O2972O9777L1155k8807n5758
66804A98868l0764O656Q098k7671o1985o9511o4311p0211q2707p5827m2345r675o144k1702j9315J3819M5548M1408
66786b67771J3152K516K1632L6800J9797r028q326K7914O4674P1922N4709L4736K0273M289j7072l4632l4426j3490
66768a2331J2861K3301J3897L742R926K3603K3683J0169N895K1695L6929K4829j3778n2296o6057m9657j5971R839
66750A0279K828l8116p8594p6136k6454K7178L8779Q252k2521j7857J7578N2410O4146N3370L0614L512k0585l1063
66732b380k2288j197J9946L4685L9765K7125q621n3739p9551p1171m5164l0348l5071m1750l1369l656K7796M9937
66714b27051N3968L4477j635k7262j2698L9204Q4564P8231K0394m5610p8829p1827l8920O406N1132P3790N5639L543
66696b484m7120n7891j8226M4073Q3580P5581L6168k85j8880k6306k1109J0410N9397Q4182N8044P911k0921k3803
66678B22321l0794n2599o7052n7989l4856j0062J2988K4318J0985j4604k0283j065Q446j5301m9367n9456m5346k8595
66660b08311j7477r538r255j5519p757K6477O2873O8313M6193K3827N691k4646o0192o7544l5365O431K6576K4242
66642a64981J1204r248k9626k9088J167L8141N2089M2396L3145L9913N4252N7186L9333J0473p696m684K835r933
66624A26878m0085n7999m9816l8145m6493o1460n1309j1346L1648N6059O5386P0052O7612M9141J5477k0029m2185
66607F3386m5652l7920k9337j9703j975J7490J4525k4273p5741r8280p4137k0840L5524P9683R8717P8635K6192j9828
66589c3534k1153J6398M7856M1257J2091j136J4905L6690L6128J1079j8945l6132l5779k2363n392K701m799k0101
66571A9771k7369j9425j789J9709M4957O8699P3781M5753q408o3112r4473r4174o8200l0337L375K1066K0153O251
66553h3772j1506k4086k6801k3672k3117k4967j7016Q910M1598N9185N0919K3472j0070l7102m4404k4908J0687M0224
66535a16426N2192N1480M0945J4191k3467m4483l0093j674M227j0222m643L6554P1160N2754j808k9658j426M6663
66517A06266O4365M3397R895j5327k8449k9035j7383j085J2513K6715M3840M9351K7074j1284l3128k6137j3644k0536
66499A87408m0689n0809m4317l6363m0790n4415o2200n0445j7753K1227M6693N2703M9834M5893L4743J2168q774
66482D4114j2389l003L095M204J3335L0805L6149J6848q839j2021R757K9639K6692J1723R152J9105J2771k7256p3885
66463A29996q0765l9644P522K1601J1786J1627K6336L0269J0722j4677k8485l5181m1368l6879j3541J2427J7222J599
66445i433j1554q822n93m701k7925o2927r2185r5336o4694j6493K1393L5000L1861K5819K5027L4220N4666P6194
66427i0483Q1013O4051M1136K7997J8704l166l6077n7395n1270k8716j3715j6156k5516k7485j9092p127K530J1087
66409a29680K4289M4726O5287P1191N2650J6832j6528l3566l6185l0974j5425J5025M8809O0653L8706J296k1632
66392A55474j9915r135q571k1119l3980l2290j2329J2202J7514q590m9942p2925n7123j1532L8912P4592Q6818P2564
66374A20625L4050j6710n8348o8838l9576J2533N0830M9249J9453l824p023j1131l3158n3684m1659P19L9438M8345
66356D1291K6999j2967n3035o3759k8972J9879K6945j5076m5902j4556N1125Q2465N8220J8838K192L593K450o072
66338I3658j8518l7181o1100p7917p6060n5357k2166J2603K9928J7023q867j1235K1928O3621Q5925R0522Q7189O6024
66320B00020J6807l8561o2205m6291k0322j1711j7360j7195j525J9164K3669n85m1272o8298o3811l7799p171K6201
66302a48245O1459P8124N5579P808k7708l6383l7193m4090m3500k1105J0860K8303K3260M943j5334k9519l3672l2639
66284a99052l4011l1250o697L9403P7691Q1073N6020K8746J0399p624k9932m6289m5791l1413j7922j8257k9091k9684
66266b33681m006L4380N3270M2334K5466K3686K6558J7857R101J9792L6395K3976k1447o1556o3737l7664j5036j1100
66248a35412j6778j6463n234M591o012l5262m8692j5039M6084P6823M8837l779k9834j7466R029K7469L1860K3429
66230f1849J1463J5572M4998P7995Q0300M4999J82k3597k2108j4085j9016l8159n0848l2861J4207N6848O1759L0477
66212A76277m831j4417N842L3802L4871r661p3757j00080o2175j202K3880J1921J2608M6691P2112M3826k3021p1171
66194A01515o4703j7118K9151L5621o047o3615q8790o4930k2089L172P751J0333J7917K3396K3757K0143Q679r311
66176e5168j6930k807J4435O104k5072m5961l5570n845K0377L1547K6050J0389K864J8278M3260M7185K5026Q171
66158F6333K1581M9466N8040L6963L052k4349l5718k8798r275J0900K5760L9323N1373N2250M0963L2090L0485J7369
66140D37808j7022m3806k9401R930K3686q60j9540K635M0526M8346K3608j149j4874l7530p3831r4291p6531l9149
66122A38555j5630j3222j7967k4849l6583m1061k0716J3501K6283N519k0179k5305k2507l1948l9532j9115J7154
66105a27602K8642M984k0440k0763n440J0230L1121N8776P1405N3128K2200M329m930k4459m9289n8058m9704m2358
66087a18228l9518k6841l116J3953J8032K5076M5385O5519O7862N1718K6604k13k1262k7919k1024j2446j0315j2379
66069B0888j6450k4038k9753k1651J835K8066M7458N9292N5853K2091l4854p3836n9803r651K1607J264m8455q0973
66051a41110p6316n2874l4289j9140O906L7368M5007K2462J197J0750L5335L7461J3858m847o331j0636k5995k9370
66033a90564p757J5608J9921K2000M4176P1499P4208N5851M3970M2340K6269j6650o9182j07298j16979r1676l8887
66016b23151J1165K8358J6566M482M982P972J1403K7864N3424O0154L4184k996k7052m2528o1769p0390m1484J9962
65998a88854P0630P3162L4374p732k8177l6779n3601p1625n9371n342N6108P8950N7027K4711J2960K4278M5628O0839
65980H7186M9891M502m6710n5187j0247M1386N1752K8670J4823K4517K8919J447m5700p5420o2665j5262L1323M0103
65962I3328N506l7026m4068j0099K7557L2283P399j5199j8592j9470l9560p0062p9036n3262j6174M138J0701K6047
65944a95589N4598P6982P9091O5670M2880Q408l3143o2788o5827m5996j4986J7229L5706K4842o990k5677j2972M701
65926e3861q840m5928o1609l1901J7481M5225L9680K2027J5562K1052K0676K978j9005k1065j88J8373J3574m335
65908c0104j1622m767M35l996j0856j4278j5063r885O893K8336L7963L1211K0078J3805R727O361R244J7010J6881
65889I7373L564r865j0467m405n876j4736j7618p775O403J1610J559j9793m1624n4547n8954o2134o4753n6689l1986
65870c40713k081J3876Q997p479k1871k2815j136M1940Q3216Q9031N0162k073k7107j9013n571n108l798J4796L5728
65851a21019K9065o729m0212m6748l2251j1962J2407M0801N8286N1026L0240K0612K8185L6490L2485J9625M689j1761
65833I3229k7416l4468k9691j8501m774J3360L2675L9702K4319o078l1649l7603k6230j5005k0770l9666m6192k2265
65815a57023J5659L2912K0667N943J0573J8551N05m0348o7032n2787j0294K6166L5156J9310o428k6617l0021j4983
65797b20091O338J6878J3249J0103J9621L2411L0117J4457P698J9729L0756J8188j1686l3679l6323k8307j9347j3238
65779a43126j5855k8889l5444j4312K5727M7419L1573L547j035J8168L2937K8445J7654J6061K1186K3064K2008K5489
65761G4617L1694K6965M232k2256l1005k2172j8487k9777l2683m223L6069M5419J7391q724o454J417j4823l9055
65743H145l0332J5099N4981N5231K7131L115m633q451j9321l2337l8333l9160m2143m1501j9185K5938O1257N2750
65725B8251J1005j8265j2635L518K651p200o194K26m068j1373j344K2047L3530K1973k659l1815n9660o6526l4135
65706a32673J8966M7753L4506N523j2903k5420m1387m6822k4593J6190N1006O6919O4170M6796K7596K6385M4818
65689A66830N6618M0962J1201r619k5454n1554p3766n9875j3961J4962o282m9805o2497l2691O99J343k2289l3672
65671a48850j4401J8387L7815L7443K8731J7703r43k6491m4140m1209k1005N918L3262N3687N4926L4956J2085M426
65653D2300M980p402l5600n7423n0142j0531M4891Q6908Q8323N0196R209j101P270l709l9380o3657n3243k6328l883
65634a8322K2012N5683O5821K4852l7913o4482m3310j6488j2177j2001L199J5320J603k2756k4634j028J9578J6367
65616b8676n308k9494m3355l7286j0307K2330M0624M0935L5403L1485K4345J0202n111j4401j6947j5110r671m91
65598a0833J2496K7492L5936K5737j739k4703k4547j1913j3069l2173m5662l6342j4203K783J0594J2794Q980K174
65580g6198M679K2508M3067N0580M5795L8968L1570J7887j052j7497k7170k9990k5238j4806o357n965j3399k8838
65562H544n2284o9448n5793r243L6923N2026M3476L3140J7135j7727m9864l8547J3467N3945N0118K7033J9341K1126
65544H3368J2212M434K2545N3924N7185J9914k5155m6916n0843n6192o1121m9457k1935j497m419j6436o750L3388
65526e3751P3659P4883L3867j3181l3365k9329k3098k3129k1165j1646J776J4868K4643K5311J3646m281k0830l5044
65508f166m2869k9464R884M7285M5096M731k8636j8808K0969N0330M9708L3082K3432K9817M3937M8497L1850J962
65490C14637j8378j7174p946j0035k0503j9305j452J0360p838m9330p8683o6037j8832K0300J1542l9913q2384o8466
65472a49437p937M2126M4303K1898J9299L6779L3607m371l4938j7835K1721K1872l0666p9410p0111j4896L2847M5871
65454h9278M1281M2202M7305M1424K0403j318l412J8740M1796L2583j1671n0798m5144n363K0965J0296j2557j5886
65436H1568k395N892M279M034M294q519l1636l9542j7906J1407J4839j0476l4269l1383p325J7317L2728M0639M1194
65417G4740L3434K2850J4069P04k0912l1615o606M2436O7471M1399m761k2752j0501q902m1181q1703q9373n3249J170
65398g3282L7925L8214J2878q543p469N922J0700L455m125p766j1253q728J0047L4265L5011J680m2771p0140p2505
65379a16485n3567j7382K1151L6030K0326K393J1815L9086M9519L1681J1420J6273M1112N4744L4351r841m4065m6826
65361H1735l1393k3860k4539j1397J6770K7806J335l6653m6526k6020m651J073J040O232J4460J9762J6802j7k2259
65342d0300j9310K9245R4109J16396P2940k01n3219o8155n4037k4636L309J0682n629k6417l5910m1438n3326n8537
65324a54434l4486J5534N8713O5996L8248q40k7582l1985j7404O034K6894L4856K4155m50k4795l8971m7101n5482
65306a63100n5011k9291J8011N7233O0917K9894j2384m2696n0744l8589j5709Q225K8755M2993M4346K9576R116q47
65288g9305L011J0401J4001J4839J3196Q822Q357J5363J5396o111l0999k2721J8915M9000L9565J8919K3851M0062
65270A54562K5573k2980o4658o9253m5681j7565m05l548k5826m4642l5042n034J1524J650j3258j7597k5441m7798
65252b45419o2318m1794J782K8117J8803n302j5750n745J6053M2536O7032P5453N6081J9159n189K418K6978L5700
65234H595J6244j2640k8481k8470k0858r319K769O325ko26J6431L8096M1864K5377L685j4053k5756k4677j1637j0811
65214b7944m1818p7726o5447N375Q5129J24920J23020R9572O1236J3884k0684l1678m2247p5714j15494j28449j13810
65197b27875r5722p6302l2876L6103R4821J10390Q7772N4862K9594J1893k581j0608k641K2387M2522K5825l0418
65180C7146q5550r7933p2318m5474l3996k1821M539L6853O3915Q2858Q5520N9745J5841j0468L500M1047O8711O9331
65162B01446M3782K31m3165o2878n5903m7538n5947o3773m6644j6092m787j4554j1918J8237M4108K9369j4741m0200
65144a40967j7006L8358Q3745Q6624M3597j7838n5076m2933K206L8572M2073K3784L542j6059l8356n2845m7942l4438
65126a00959l1970l4828j7267K3412N4871N0081J6349k6066o6927r0508o7366N992P8180R0612M6820J704j2423j3142
65108i3435k1706k8796j8949J520J7344K3338J8648L087j0338j948K3181L3020J1992j5752k2565j4026r589q297Q85
65089a12386J1113Q190n16O245L1685N8657P5010Q0961P4618N0032R527l6742q0551j11980j13787p8183k5583J0753
65071a42937J7613O712o292j1175N25K7065M7427M1532J8286L998M864K744j1804k6120k9094k5159j7103L228L4987
65052f0703N6246M6753J3234j8564k9819k0033j147J1765R294o767k7465m4622n0978l8889q577K6857N4035O9847
65034a9533O9864M1412j1307m9816m1195r533j1250n6034q9604o6605n117M8452P4605P6463N1627L192l9131m3649
65016g7159j6153J0501J9446J9557J9159J4757M940m157q627r804j0506j6948l4865n3472m7695j1892K3688K9133
64998a50097J2529j58o090j8097l0065k3796l204J2412K4288M7144O9171O1415L2237K7772O2137Q8298O2456K325
64980B70677m6194o8657p6134o7733l8949r819l902q268O886L3315K9719j3827n3716m7944m723L8191N8020N5097
64962E2039L7785J8133P824J924k0411o3001r3884q0231l4304k542q975k8143j8546L0338Q9691J20115J03647N4458
64944A65917M179k4632l2408l2059l1593l1954l4216l7941l6152k3590q024j308p44O496K0500K6759K0289J3028
64926c7453J0017j690k6514m1586k6324J090K265k8812n4815m0499Q203N5298P1334N4457K6184J0613J1790J3812
64908G370R980J9795N7729R4615Q1137J3278n5659p9125o5573m7683l2591r393J4002J4534j1549m3516o3657p0001
64890a66307o4452m7368k3614J133K7914N5098O7874N3851K3906o50j6636l5077n3608n6205m0352k1601q686M123
64872c00657J6626J7377N299l817L34J2282K7791M9463O8453O4854L7896J2598K744q802l4875n3756l9570l895K2366
64853a07289L5091N2880P3891P1163L4475j1730m0555m9948m9248l9925k2957r464q969j5578j6816r839j036L602R31
64834a11321r164j9102j7138l784L583o324j7795m894L2429O4222O5914M4292K2058R909N483Q561J9449K7058J8978
64815A32414M486O419K3979K6844K64k7281k5128r821j9573m9230n1608q195M0927N3786L8715K6187J7700m826l7301
64796A38758n6209n5686n1465n1241m8785m5661m9601m8406j5455M7415R7231R7111O0134K9380K4716K6265P092
64779A05593l1460o0279n3116j4103K5713L8803K4119r86k1207k7621j3758J5184L4941K4526m147j8199p158O460
64761B3305M533k191J028M742q340l1843m1251k5440M550L5421O3651Q5606Q9236O3994J5888l2385n9196o2851n9111
64742F9346n6433m1521j361M6749O7316N0396K1716K788j4790m1104n8346m4720j2385P058O972O485R689l827l9110
64723b5082o3788m4070J1257N7947N9816J6034m4996q7356r0016o1325l1767k5165l6271m0084k1096J1569L7467
64706c76926M8189N3468O3760P1761N9648K6326l500o996P149J0464o256k1012j1490J5114L1434K2106n34r694J0043
64687a6946M6126O5998M7190P48m1003n9305o2237o3255o0709m6207k2063O26J5224K1530J9740J2061O520R424J5851
64668a10687J5818Q148K94l542m707j563J0333K6733L3421K2266J495j6153k8628l8451l6346o534M6101Q6522Q0892
64649H5412L4748j2088k9189k2117j3159j1413j2909j8036l1613m9816o2053o3376n1636j7919L9722R3467J01568
64632d0407N7105J992j9378m601J9308L3096L2021J2695k1374m8603m7774k6683j3568k0928l4657l7118k3686J340
64614a81220K6180L0721O382k1943j7925J7094M2324L4814K1774L6881O6991O9746L2523j4400m1203m9735n5765
64597C239n9588m6676j0695L2834N6854M7826K1504Q159J7745K7223J0516k7201n7882o7170o4981n9863m3104q902
64579b20162K3781K6176n554m2160n0018k2066K0263M8657M8415K4727k379j0481P594L3242L6217P565k5653k8773
64561a30609j358K1135J0891j7735k4409J2198P1776J10944J00559M8793q966m4561n9733o9976p3647n5005j8169
64544a27872N777j378j7140r639J6796L0738K1129R928J5572K6530K0137o650l4627m2729k6147K17J5054J2809R762
64525h1733K0543L4540K9010J619k6087l5984k6993k907L1636N8869N4934K0604j3774k7135l3910n5307q0554p9133
64507b11762m3428L075L8006O0247P5298P8442O1687K9063j931j1331J0851N6073R8478J10561Q3164L0949k0805
64490D46637n3841o5154o3791o1187o2248o4087o1863n3377l8361j7772M168K0645K7534K6383K1645J7364J5582
64473C8277J3797N096j3041l0532l2964j9472m574p2l089n117l856j25R412K7629M7546N4014L6493K20l4392m7379
64453C7871l9663l4249m8513o8902o4747k6008K5058N8751O0992L4128n774l0333j9215J3026K9742J9880J1421K5894
64435b0641M3654L4433L098j9261j7318j892J1806J4668J135k2318l3601k0737l362o633k2098k0187M067K5885K9590
64416a9712K3560J4183m756k7256k6489J3031P1379J13545J20684R4476M8038L612j6055q515L952m63k0455l8747
64398C44012m1623k6390q45J7665J2234j7147n2743p6767q2078o6776l2816N835K7389K2310J743j6573k2530j5360
64380b0460m297o588k8234m5886k7660K2659O1808N7131K3991K415J0218L0699L6439J5641j8024l7530l2618k5971
64362A3733m3871p3098p0901k2068L9491P4742P8940O5732M2052J9154K0685N0200O9486M0848j9364n7980m9840
64345A77941k0337p241k2521n0374o4481m9208j7800k904j5303k4823j954L5841M6998K5466M689L944N363p522j9339
64326c565q176J9129L5962L0316J5914J2817K5699M1067M4040L6984L5151M0932L5145N036l1171m4475l1245j1936
64308B47624k695p652k8807n7939o6218l2681J8639M1472K8534J6000K1750J8739j3276m7274m8652k6794j3880j3117
64290C3773n223N189j0052n3905q9624q6149n3212j8209J1391M3631P1866P1754L1982k5353o3649o6661m7189k3627
64272b73267Q99L0282N6582O3657M8781K7592J3997N814m539j5296j9758j9320k3013l4719m4947l5685L954O0493
64254a58493R6771Q2541K9016j8029k6186o888R810J6868K9232M9155N7193M4049L0732M0243N9995N3924J2078l3500
64236C68511n2758n8354q0442j11299j07365n3676M014J3880j4420k6190K339L6253L5421P649p905O355K9899L4966
64218B6878J7630m552j5210j2437k895Q399J7878J9785J3511J1438K4147L6421J8342l0132o6515n5300j3248J5551
64200I691J4109l170k5013m7807n3309k1528K9360N1491K7531o131q325K0063M9162N4685K8164k1188o1386o0355
64182b3956k8930j5737m3649p9289q4313o5781m8657k8803R299M9491O0561M5607L6258M2442M3979L0806J6875J1094
64164g2703O399K951J1473K5342J8829j3589m1326l7165j2798J776j881r246r907p391o643o999p285p191l011R441
64144a60924K5022K8606J0312j9150l3866j7661J9254N2865O9669O9544N0599R551m0120p0018o6903m6228k6476p186
64126a53110J4964K7278J8596K425R49J4301K4943K4124J5345O95j6753k6787k8603m0895p0545q5331n1790P888
64108c22306L6232J8522N21J9123N3645O4075M5720K2260P815K08k934j761J676R765K8506N0746N5461L5068Q753
64089A31095k520M84O419R933N248j7071n0397o6737m9631j7411M186J6265L2435M5829L7311Q559j8742l3266m1299
64070F90m6393m3416l2486j9479k978K1230M3750M8322L4533J5334o078l3848n3699l8384J0329N0956N0992K5504
64052B4879O383p176l6471p1745p2165k6760J8466J8569p411m551L6000O2489L9552K748P204M5099N5069J0360m3385
64033E7154n2515k4636p073j6597k4088n738K0566K0082j5423o0971q4996p2634l0835J6218L8556K2221j2737k5105
64015b58551M430M6705N5085K4258l76J7933N6542O2460K1623k5824l7428j1214K6085M9136M4286J2472k4776l9214
63997B3632k7841j5398j5189q800J8504M3414L1468j4138n6809p2508o6090m6661j5816J5348K3932L166k3168k6213
63979b29167k196L0965N6933P0168O8430M8555J2657k6738n2371n4755l7923j1722J7629M3637N1663K9508j1441
63962C832m0586m1546k8539k0499j3330P248L6492N2982M6097K5814P482n94K748J1969J7150J4234Q670K973q816
63943H3781k5134l0086j7604p538j7194l0189j9203R930K5579J6433O15q992j6740j9862n828J7485K0378o786l6887
63924f7842m4232l3487j7346N719L2141L9212J6647p883k001K6857M5309L9877K3854R135k027l720Q971K3824K2225
63905A15233M658j3704k8569m5607n7092m4689q317K9874N3501O2029N0400P195n3823q5921n6638R922N8616O2921
63887E9989M0419J6649j347j3310j2579L28O267j0179l1722k3053K0174N5331M0104j4643n6645n2931k0712L176M299
63868I615o356j5781k1290k5735k9938k6845k556M4702Q4055P1131K225o7951q3323m9332j6527j2638k0774k1377
63850a88695k0387k4831k0595M594L4889M5711L9431M0906O0733Q0077P3631L6150j5277n6647p3044o6216m9835
63833i9405l5350k2328l202K5293N7313Q1310Q6325O8898L7410P683p351l027J7639M1745M6381J5958l3729o1724
63815B19839m4830o807Q702j0009l2526k7191L276L1453L6907J9466q821l1750l3358q383K8265N1875N2350M1130
63797B89588K9612J0832k6054o9604r1673q1291n7227m0037k6676m520K3304M4043N7182O9080P0726M5085j455l8314
63779B02601m7646m0269k8060o846J8622K0753j2998m8670m4985j1940N232n048q188J4999L5666K5302K489J931
63761G2945K0664K9113K2151K2524L5788L7177J2431j7474k8649k9038l8341m7173k5105K8440O5853M0371l5731
63744A65946r8589r9729n3360j1303k638j2528j6444j4399k0873l5112l9917k7139p731O547J7179K7214K7613Q851
63726a86412j7878k5622k677L0162M1774K7188J2703K2152M6329N4830L4964P155j898Q775J7633R442r419k2426
63708D6775k0320o754O326Q559K194J166J1991K0085Q045j4458j7654O234K7494J9221l950q830N245O282j8887m1669
63688C7095l3615r409o320l1531n3656m6255j9443j040q39n047N72J2815J6334K121j9113k2409O675N0446P0058
63669e2561M5001l814l7383l8893k1497k667J3552K8951M2274N3595O5265P2118O2254L5346R213j066k68J107O275
63650B76802K1344L3206J9161j9893n2523m9189j2891K5331L4673Q857k9733n0420m5035l4914m1008n6203n9763
63633c2198m8344l2578j1179K4221N9389O3413L2548N05p632n557j2816j6993N776M8256P5936O6261K5722k3396
63615B11334n5807n2755j8720J6243K5371R847j4476l8620n3904m5283j5904P25j5811l3095o964M8497P4863N0793
63597H6334J4338j396p866k0376k2560J39K5793K7417J5113J5417K7068K8514J6512O627K310q823k9775m7667n2633
63578G4486m6388l3426j7981p348n953r251j2296j6605j9550r695J3262K6961J3271j3261k2929q497J3437K9177
63560e2586L4015J9830j7046n7229p1393n3717k3194N913L2788N1339M9549L2028J9412J9016J7796R960P407J3306
63542C7194R004j8218n2458o8106n7076k7588P309L0254K8617J6113K5257O2131Q8635O9746K0092j8914l0920k7524
63524I3548j6666j980k999l6374p6533p3611k0108L4030M6692L2687K8698L7910L6179J3746j6935m2161n0779k9458
63506d4114J7970N5043M6703N379k6213l5424m7547o9919p0354l2133N484m810n1593q0663o5464k8180K215J7979
63488d05641J8614L995q762Q592N5721R0870P5573K0040k8930l5609k952L5055L9834o76n7700q6861p1773l1261
63470c81871J4343N9636R2472Q8688M8544J1694R438K3138J8567J363K181K0636K5877R707k113L411O991m848j7877
63451B9977k2967l7562o9962q8513n8389L354L9181J6573l8325p4154o6027k9543N281K3636K8811K4916J1541j296
63433c03468P229L7116N2570K6723r338O00N5767R0549O2016O361j5769K947K4980K8612K2680J5119M232k588O615
63414A12953K3106K1479p546m6400p2576p4928n1722j1967K1622K8938J3904k241n958K149J7823L3396L5174K0027
63396E7233P853J6398L0309J9931j3551l9214m1923l8116m2987n0224n0640m2987j8761L3076R2078J07341N5925
63379H1741k0279n8938m3581o397J8032J7434p050m5515p5495p5266m6020j0281J1206J3068K434n411O031L7894
63361b06393O8539P4614N7314L6658K2925P834j4935l4218l3651j3289P690J0188m573j5667n160K1500M1406L8345
63343E9127J5791j0293k3317j5465J962J674k9146o3510o0779j9849J7224J9229k781k5188m0462m0253n022O0599
63325a60459J09833J05348O7691L8629J9321j2818m5807m5132j6656j998q696j148K8414L8988J4410J12K7538N1191
63307B08761J3872n8767q7630m8237O357K7430K3697K4317L2624L4960K6090Q303j4693l0348k1553R915L7703L7814
63289B30615J1485k1256l8058k4546J3104M2214K9814j8070o0518p0818o1167n0924l6348j0137J1626R674m343l122
63271e0775J1968J1197j6671m5953n2268m4244l9696l0128M499N3083P4027M6419O77j5904P107L9349N3176N2186
63253E8049N2720N4122M1494J1785j7766k9992k6718k1393j8941j1596N427K2516K5423J2346o251k3911m3936o3416
63235A9962o1510j8252N3669J07601J02292M2104k4908n1084l4323j8077l8560p3259o1315J3562Q4173P3521n924
63218A09672o6393n7068j6528l90n568N32J5554J4292J645L307J4750Q311j2178j1811J6308L8362L5570K7820K7344
63199A43531J4522j7084l5029k0174q087l8228q7893r9395n6804M826N5108R1098J08349R2296M8312Q177p413j1366
63181A84746k4285m3257m7500k5313J1240L3861K3324n322j2136J9053N2376M1811o829m3207l9597j9765j4177j6959
63163F8064n210J9696L1776J3157k7510o4560p4786n3157j6194J3716K8578L3944L2317K1836J0471J2763K7044L3398
63145A05343K2342Q935P689R236l720k9089m9632n6373n2804m1537k2446k934M003m364j4946j4038n098o874l0401
63126a76708n8069n3981m300N8207Q3941O0153K0121j716m427l822k613N050J2546N936j2373k1664p472K1082M0138
63107c9971L2708L430k3888k6945p976P695L28k1897l3618j9827J2625M5358O3514O3095M8585K4288q844m3518o0384
63088A4758m6137j4968N311R547J7658L6854M6131L0510P229o91K916K607P18N440M422j8534m8421n2649k8098m064
63068b9461L494R932K6943L9055K9211M999j6367l1278m2587m4376l0732j0343J670N15q088j5998j3895M225K8665
63049i4416L7459K2887L885L57O052J341j5805k8304k5305j3881o740j0058k1646l0864k3956l01K1541K6716K6656
63030a24382M1080O1685N7699K1792j3616j7928j20J1746J1565J3053J7273R561j1081k4226j6767Q0J1689J9650
63012F8753K6795J8639j9144p1212j01365r1898n7784j9237K1827O7921J02547R9024N3164n217l9955m3034l5992
62995b6168l9873n2733o0160n7510m9128l0684Q500O0796R6431R5908P1027L9976o65n6328j01380r8760n1541l879
62977b56171J5005J9376L0827M2999L9325K2366N238q611j8100j2872J1228L7865M9626M9449M6137L4062Q011j6763
62959I8997k3856k2615k9861l6439k2428K236O863j0774j8185K988L2354M3968L6815K1727M200o648L354K9367M2851
62940A54914K8074M901k513j305j2102l0504l3262j6896l849p339j1296N747L9712O3790N6646K1016k2396n2374
62922A80964n7588l7334j707K8746L5238K0677R111J4882J9928m337n7628j08901j30172j15177o8648j842N7032
62905b16756P3975M6644J4800J7366M8095O6838M8389R388j0914P903M2607M5540k351o2722q0734n1365k1323k2646
62887d7266l3477j7580K4036O1351P4396O1562K5576k3243o0022o6163n2380m2072l8112k5282R32K9196N1986O9153
62869g409P3146N2296J2723k0276k8735j8415n767M07Q44j265m514r882j7972k5267k7948k9425l3581k9196N07M3478
62849g6251N5148R554n9733r2363o6235r743M0117O6462O6803M8031K8405K0689J2367j4297m3755l7763R515N5080
62831A2031N8664K8363Q18m903K338P324M190k086l6J5789L2952L3302J9655J3816K2208K3091p68l5482n7948o8254
62811A05064q0058q9524p6687l5542J5452N3895P0521O4743L7333n289m5837o2629m4743m038K8264K4760j1794m7473
62793a03582m7074n474M8868P7101N9268J0635k8733k9150R1K3108J7651o660k8785l8965l6700k2924m259P980J3677
62774i3927K6793N1453O8365N9902L6891K2184J6379J556k4598m2134m0142l3404l7286m2152k8131L061K7545L0260
62756B615K2173J9570J6320q322n3845q6776p7106l6795m339N527J5014M1721O7236O3011L1360K68j4002j8285k0205
62737c4860j5347L70K2287M6177P1903R1169Q4306M1581j6552n1179m0195M46L2309L0659L488k5171m3726n6494
62719A41171o4535o0876m8725m5248n4344n1556j4246M3825Q6761R6184P6821L4009k5139p2688p6586m3610j5121
62702i3903r267J325L6884O7725N4075P173k3716j4467J4977L7215M0361J7613l0125p4139p2787k1536L5313N6377
62684B9098M5077K6895J0667n571j2585m721m708m0780j00459j36403j22751q0197l8145J637M8035Q8865J00309
62667a95737Q0582N3422L7430K6414M078l0765n9122o0268l3885k482J1700J1371J8712M4656P3986Q5580P6010N4363
62649A96045K4916j0953m2835n7824n7433n3965n1215m3115l0617k1947j2925J3011N4494P9497O0435J2138k3783
62632C3924k8334k0736k4390l6260l8714k7815j5360p494M013K4990M2453L4757j144l8755m4033q688M1043O9002
62614d1541N9816K5484j1984l8209m8850m3185k2185P254L0941L5697K1922O113N472J7553K0153k060l3335l9508
62596e0452r063K7590L0100m818m0964m7945l4414k7987l4235l1784n381L2108N5571N5020L9975K2328K712k4927
62578d6566n7081p2879n1018P26M3475M8201L1771L3331N8063O9837M5617R601l540M049P370K859P998K3433K6760
62559A82007P838j4820k0957j2806m115n34L51P20J199j32r039k5839l6703k8236r178k79l862n614p874l2038p6284
62538i6195r9626p0281j0251L1606L6003J9720M67j5996k1594r651O782P825J684J9137O3348R1644O6450O335l6515
62519i108l9708k6840k2490j8230L748L2558L8035J4442q276m725J2868J6619M522j124Q912J8777J4911K806j0547
62500B7150k8745m7938m6869j3548L2181O1237O8822O6355N2163J5984l2017o2824o2077m2171j9032K732J7909J5801
62482E113k743j9587k0864j2320n979m597o680j2466j4673K867M3383Q2901R1070O0998R907m0325p1749p0251l5882
62463b1877P746K9301J8102r939l1114l0167n171K8358M1612J8930j8521l2989j7186j030m188n770J9248N2200M9138
62444H6683K403m4964n1845k2380J2357L2767L3662P871m5043r6651j02085m6161L3635Q0172P0163L1392R180J9211
62426A0367L5490K6450k541j5231N018K8773J8598k0876n2956o0749o0339o0034l7668K3568R6592J30723J04480
62409A69665M2886j2867m0089m3875m5756o2919q9254r7838p0033k0197J6541K0282L407o792M890L2219N7631O7108
62391g4991N7049L1563j342k9849m2301l8562l1864k9915k1002O137L4675L4798P975r339M341K6083K4419K581j5220
62372f4764k2948l2115m2144l8147j6345R611K8247L9930M7079M8230M0965K1881r659l8715l9532r502J6137O268
62354e5523k2080k9618j4937j3261l5446m5510j1543M8955Q9830Q2604L1618l6453q5669r1341o1304k6141m098Q502
62336b71415J2267j416k1852j5059K9978P4307P3877L5650L430n69O860N250l354o339L88J1260J8683J9239J7400
62317a1415K0176K3976J5468p261k5648k3730r554p77l57k612j2195l5831o1809p0230o1135n0469l9165j0823L4937
62298c28454P0365P1962M7880K2825J0820J2061J9710J7278j3009o0665q0735m2171K4865N7273L4804N37q26K2948
62280a12532L5545K5665J0463P08o350m631J7255M5272M3578K919l9502m6725k8154j8025k5504l1959k6384j5670
62262a74031m501Q704J6636Q422q294j3225l903J240o858j6362j6641r311O248L2346N1525L5535j0152l8671j8563
62243a59856K4673M4699L0796N533j2483j5591M656M2257O1143L1252k2491m1954r930K9687L3535R685p459o296k50
62224D1606K181O432J7336L2371M6420N1844L8946Q559j9374k2881l564J6079K1649K1003K5327K9074J9769p58j9950
62205C12069l5621n5141p1607o2925k6873L436R30j3931k380K9746L4697o554n2280n5715k3719K702K826j5253m1303
62186g6896o6326o9793l6658J3309M0722L4038J8861J7181K1550J7589J0234J3143K5121L0842J9416n792l1047m0966
62168f5472k8550j440K4060L6238L3176J8156k955k0804k6318j6966L881L1147N7196P0626O2361L1893j3646n9646
62150A32937q2229o1794r268L4099L8182J5587k644j0518k4743m8023o1722n5048l7088j6802O038K4941K4981O144
62132a26970j1601j6793k0491k9662k6915L780M5308O3458M8684K2203L333r291k1300k6096j5515L879J7731K2750
62114g3508K6445K8581J7185r990l2319k9186r827k533j4720k3030p884K1775M7010O2250O6415N0648J5652j3314
62096A19650j2123J0777K9401L5726L5906K2140j9346p3715j02416q8344n1080j3730J8244L9193L4696O043j9377
62079b8355j9308k393R802J0596N515k535j1193j3693q637n458j0671j7823j8051j0722Q18J1892J2165m946k4101
62060a27098j8018J6765N1795O1906M9904K9314N303j6093k3298j8843k1666l4096l0661K75K9269K6931R266Q412
62042f33J6918K663k8637l1799Q695M7047L3893k0192o2361o3866m4529l4114l1425j4053K0003L9807K0243j9814
62024a62154l8304k5028j0392j4675j8202Q64K5913K7442J2460J6129M9461Q3766Q8379O1870K4137m446j4834j5253
62006H7133k4477m6839o0046m2998p141J8784K6476K7382K2334J039k9126m3056l1704j1771K024R743Q144j1373
61988a05472l7613m0263j0031K4999L7399L2788K9216K7100J9294J0827N303j1920m9850q1166o4490J593O8320Q5476
61970e8490M7514r586m4496m1852j8755m802j1894k4604k2437m042J7455L4360M7480N4251M7220K4621o216l4757
61952i030m9392l8564j570M2863O9564O8954M8564J6950j9833m6858m4424j3082J8908K6368J7922K1730M3892N6977
61934B09939L3961j8987p1762j02820j10897j00435p1802k9197J5028N1260P8315R1621P8348L8009j661r062J2768
61917I2626L0844K6769J5933J5135J2953r948m4821o1243m6322j9899r133k0612l9236m4186k4241J3388M6836N8611
61899f546N1148L7938K3683M669j4401k0689j3545q276j2400j3769l626L418r840l1991l3960r581J5071J7199M571
61880b0927j761J568m23j6543l6073m0982k6291o092K572K801J7485N6481R1205Q0708K4449l1150m6220k8451j0118
61861A2238n292p809j3251j8739j3394N409J5841j040k5565k2316N569K0880J3119J4400M1946O4049M7733Q843j4911
61842A27710j6543j3610q972O180K0360Q684k8692o3387p4997o6875m7545k2307m328o986j9272j3235J5659L8817
61824a69339L6581K8280M3021P5602R1364O8805K1501k0299l7367l0150j0819O551J0870k586k6643m1489l0034L09
61806A4158J9836R209j7128k9708j8284N121K9040M9620N7371L8097o001m9749o6608m9556j0109L1428N2991M2579
61788A02307J1013j5287j9784q686J929J524j4682m7880q8432j12801r8448m5218J9454N9458N9544L8445K7824L6847
61770i2873M6686M2545L4950L7733M0478K2844j2459m1673n0515m3667k7586l690K2296M1600N2030N2462L5178J611
61752A57950k4621k5038j7363k8931m6499l0604J9046N3657M1201M728k0076k9412l3362k6624m146J7633J9358P26
61734B7623l1460p2824j02196q3149j0652O8191J05193R9272P1383K4531l5726p1199m9734J133K4294P969j1935
61717c9286j6007k1021l4873l7983k0257M48R095J2150J5640J2959L579k817p968k2783l7162k3652J7796N0534N1870
61698h9738M3194N0692O3386N3869K0182j5825l6245l4975j4825N074k613l7090n8638l7429K816J6201l717k3810
61680i9491k4353j8211j6131n601K3858N7825P4180O8595N0964K8395M002j5824k5630k9575l6651m7362n0955l7183
61662i9148q779J9004L2452L3192L3662L6169K4513j2644n4802o3531k8140J8271L8753L4464L0549L1774J8362j3442
61644G0679l4924k3580K430J0174m94j142J7589L0269J5592j1836k2740j1416K804M542r38K059K0770M4005M9397
61625A63240K6423p982k7740l1906m3520o9782q5469o9361l5603q199J6657N4671R3314J02257Q1078O2032N9815
61608B79925N1891K2211o383o739P964L408k3168m0273l2347k3920m1396p1585p8698n3387k1959o429Q22J1562J3149
61589a5352j0581m2589m7199j9714R098K2197L6332O0507O9654M4149O000j4591k3550l9369m8769k9444r75k997
61571d7193k7872k7109J0043L6035J9243p843R6L8432O8410O6795L4577j7033o3597p4607m9939k8044l4023m3700
61553a47329k6802nP76j7025j0695L2166P5200Q3726O1880L3172J0718m099j3159k0743k8632k9341j5722M439J7211
61534E736K2790L1023M0044L8151K6238J8401J7237P501j8640m5097m9701k9825l786Q606M617Q0Q796J8066k634
61515I7603n7545j03408r3590l6091J6055K9230J8415J0583Q434K975k034J788Q485N721n587j4756j8839k1770j9348
61496a73679j605K6493M0968K5802l296j5857p387p236l5362o5286n2944L88M1921L4154J912p761Q584J5470k219
61477a76940j9904j5609M5P363O192N303J974r204j9142j4356J422J2153J3770J7889K8670L0143P038k8287m3355
61458a94835k3376R105K1542J1100L265J4339L4152M9041O0259O7783N6066J6417k9083m8578l9270k5019j9857j5379
61440e2328m133M887p34k1009m3621n1871l6362p743J0588J3709K5411N9318Q6401P0601K6239M116K2027M5350M1265
61421A92111J5844j3383m5560p7826q8505o3795k2254P632J9160K0910J5832M509m139j400J1173K8631M6261N1539
61403I6740L2592K279r146M108J3196j635k3419k9489k2882j5174n960J234p356k4073j5886J9889L3027q019n7117
61384a7091n1967n940J8573Q518Q065L5207N5172M3479J7496o805l5733n9985m8507k944K8724J8780k254j162O062
61365G688r170l5537m3313l1553j8719q192M659J1234O153N387J8388K2967J98k5870j9598J1490L0855K8576K3234
61346b1123J8267o02k6458l1667j2466L346P17l720M315J4782J6531J4841J4312R304J762L264Q842l568l2695m0527
61326f2543r45N8954Q8276O7028J2724m8569r2797r4864m6954K1313O4654O5964M2893J5429j1454l2722l4319r869
61308B199K6256N0381M7112J5711k7344m9832k5934L1365P2532O0957J2929k6353l9915n0716p4167q4676m9604J6627
61290i2472N9447M7944R729p594Q758L6206N5833O7440O9582N0557Q293l6799n9680n3362k9023l872O474l838k1724
61271A11899k4602q064N810k519k3165l1593k1436p438j593k280m191l219P103K7634M1580K7965p972l3967k8172
61252B1780l893J1886J1743P561P497Q340O721N179Q191K0424M4265O8569O6015J9109m9621r0032p4357k3181K4770
61233I0966N4580P4603Q6980Q0259N0424J0245k7647o1790q8969r5730p6216m7760l2104k6450j0338K0468M5449
61216D6970M7910L4682K0261Q022j725o22J3850K3797R721k0323l8861l5049k4573k2383k4013j9444q556N482K3340
61197C8486L9730M0074K0303J65K079K1747L2203J4091k7183o9373q9169p6528m5009k3038k3885l0106j9520K219
61179a92714J2836J0285J4399L1372M1465K9423N052j6944l6468n2738m8851j2907L6010O2376M9557Q012m0656p1313
61161a71804n9659m909N4650P2654M4137N657j3865j9947k6217k6847j0327J5646L0307K4367Q317J658J8365N3543
61143d274Q0370P3237L9784J4438J1076R20m5231j08066j37080j10718n6537j1988J3576L2964N4614P1035O5452
61126a6428K6637l4247q0661p6859k3667L8358O5575M7387P746j9821j7656M893K0364R236j9377l7140k7045R95
61108a31710K4184K9067J9423R273Q676J1928M222j2759j2021K3829O5101O0086L496m8011m5721j1069j658k9691
61090c3355m8189k0362K8368M4775J6257j8408k3937j1775j5972l8570m2730n777M2566N4972K7939J844J175M598
61072c6581j4623m4939n4036l3156k182J8724K2254Q051j4599k3865p031J6982J6896r867l4442l4264j3699J3454
61054b26923L9477N5795N2498L5277K5895L5132M8728M8780L4555J2718j7071n2613p7208p3314m3249n938K1288
61037h6173L1066K6476K2189L3906N5112N5991K0163k7755m8981l7437k0209j5841j4696l107J3549J9800P669k1528
61019A0194n9683q8533q5988m6678R976N8277Q5432Q8419O6211K8495K484J1234M2999N6292K2727m1297q9869r0090
61001a9398m7497M447L4839L8351L2918L5157L8455K0077k7388p7971r4429o7988k7409n083j571Q661L9926P3743
60983d2160P7477L8916k1475o9113q2169o3231l1521o253O163J3025K4097L7849L9826J8760j5137l4424k3344J539
60965a31175R733m143j2884M977L2384L4704P264j7540j3366P899J6868N346j0492j7342j7969j8243j6794j1679n456
60946a57908K011J5646L3647M4193M3349M6143O4371P9196N7447q11n1666n7186l0275j2279j7414k3226j2637J684
60928B4285K999j687N562K7062N0410O5191O4241L8117j3564o8777r7012q7033n1109o321L5171O1470O3930M7406
60910A60341K5808O660r435j7175j0375J956M28j8887l7858m0991l3198k6740k4086k2347k3109k7484k9428k2907
60892a48827j0025M293J9241L3972M2600L8657K0499q682l9104n3546m0647j1997O023J673j1781j7233j0753O254
60874a79383L4239O5192P9750O6168L2677n033l5332m4952k2082K2172N3154M9447K6797J1934Q765O685M963P079
60856A82240L918j3915l5170l9962k5977n643J2983K5486K4717J5089J6881L0965J7846n1508j35140j53411q4547
60839b15148J1073O6739P2434N4390L1645J2020N44r405l0937n4855n1637j8420M472j3105m6475n2503k9978j2100
60821b81246j2833j5153p990j962l419J164K3776N3245O5172M6721P730k6772l4019r721L0312O4874Q0314O9815
60803E0008L2175j9707n7916o0117l0006R546L9439N3086M8790K7285r49j6546p879J3833K1922K360k6560l1462m621
60784D2681K4163K6581J3967J7236L7603M4364K2271p469k2437k9267m3719o1590o7374n6852l5742j0535N082p636
60766a08673m4339o6458m1767J2367M8215M5152K7222K4951L8518M2698J7257l0520o9853p5734n4463l0546r862
60749b75835K2852O4821Q2923N9753K6079J9543L1098K4913k951k2345j8656q081l833j621k804j8755m2709m6115
60731a11723j6019K6000N2594N7686M6281K0756q385j7152Q760N4265Q8483R0580N9537J2120k4056l0302j6665j1193
60713B81567k6919n1950p0580p5190n7601j3723L7002O1643N3532L8962L3859K0726j3639m3499l4210Q557M5753
60696A94290N2378L6300J7311Q144J1047J4564j961m3566q3403q8146n6780j9258q67m557k4300n3973p7785p0423
60678a90985k0815M8451R4545R1078N2688K0896K0906L5295K9384j828k9982l6743l5412l8286k9700M750M2161M6424
60660A02827J8837n307p094k234q526k2677l4798m1779l9036k0922K245Q267n684j4328K086L1930N0908N0059L2580
60641I7354L4l9888o3055m6325O879O9532J14556J26909J03672N8180J7692r80j2612m4602r5090j24880r8846k8341
60623D0189L4389M3439M91m9599o5031m7570l1497l5535m2471l2825j7912j8587k5069p625L3889O0843M5434N768
60605a09279k2120k7229k1414j0907O961K6001L2381K4583J6724J9702K9925L7606L7319L0626K5648L1058M2251
60588A69836L8826P795l4697n8160n1613k9112n634J4474K6272K3273J2914J3495K7713L6953L0076J9096J5343J0061
60570B66911n347j8288j5519j1006k8452o2472q0902o5482l1701p667q366k9558n1438m8211q837M9490R7538J20047
60552F0740J15878Q2767K2930l9714p0999o0432k9661o837o482k9734o2590p4528m3620J1490M6471M3483K6291J8474
60534C927J4805O822Q201L1311N8338O1551M1159K0367J0907M917l826j1327j5926k3110l5215m6370m8787l8700
60516C9044j9239j492M864P088K4083N6602P5626N5305Q448k7869l7306l7213m6044n3945l4871J6595O8213P6319
60498A74208L2613k1914l9655j7238J0722K0560J6766K939k8261o3985o5916k1426K7111L2764K519k3244k8656k6310
60480a6403k1483j1223q705k9267n6339n7278l0641l447J4484L5586N5793N2714K7255O443k626k0094m4761m4120
60462a54112j1942Q531j3124m6981m9075k1801O191K9850N7463P4506O1652L5157K7503L5365K5737r140l9502m1805
60444b5527k2582L749L0414M7493M4137K8278J9705J8524N691j9505l0397j3006R787R977r153k4967k7620k2405
60426B2593j1764O080K5288L3924K6817R639o703j1648k730O021p032m3779p4813o7142k0623L2888O3850O7639N4144
60407A02649K9726j259k4972k3804K78J7422j217m4995o7950m0947J0112L2829J0470k2248k7422q595M016j761q898
60388f6566r30J5037K0598J0402l957r520l588R062K3549L6714M5753M9028M6491L6248J3642k0486n2090o2621m7868
60369C8898k1697J052J7262K7668K7407J4308q79m741J767O783L943o395k7351o0003q7589q4388m7948p447J0269
60350a99081J0836J7040L4039M5238L8049J8803J990l562L443J8420L1916L7457M0886N2836O7751O0824J7225l9873
60332B54237o4871l9189M321J7553n454k1908L060M7125N5468J0863m2402n3108k3645J643k214j5994j4078j562J160
60313A11005o467q007j608m693k3295l8028l2294j8212j7498k7175k4958n311J1857J2120N908P459J1909P841l44m85
60293d0276M592J400r817j3765n100K145l811j4678j3305O547L6892O2758O8229M6634J2397p010R0J6155J7164o57
60273A66584k5770n0694o9862o6270k3539M3988R0576P9224J6088n8670j05459j07253p0560j7963K3611L9094L4353
60256a02522K6980K8007L4268L7114L4787L4037L9251M1983K7103o911l9229m6577k9382q509K236P069J0530O284
60238I6519o953j3769k341J3627J1277q722k5053k8643l1202l8214l5838j4540J2294K6286K6105J9122O362p948p195
60219h826J4366K9883R398l2427m8124k0470J6552K9463K5766K2714P004l8344q5347q4035l4776L509q600l8905
60201b41199l2964J0205M3126L7326J2415j486M8O708J7075L4179N0024N1528L8687K5793K5395L6838M7382L9960
60183B01040N735m3443p9645q4055o3809l6832p561K8386O0063O2436K9028j1767k5369r359O292o190m3212p1247
60165h9509n5297N112O4582O9885J9491k7828j9070K9916N8373L9391N865m014N044Q046M321J1649K8328L1064J0768
60146A96117j4895l1401m7805p3270q9702p0041k0531J6498J0141k2243l7758j9046J3453L7767N7600Q2961J01056
60129H8901Q8002M4866J079k1369k9734m0489n4096o1105o0917n9873n6866m4178k0632N441K4242K8426J3819j3633
60111a68116l4113k8209K248L3069L9570J9259m158nL7073P1435N6682q838o9677p1502k2116K3174K8941R923l031
60092h8391r17O674J0877O860p402k3014k1660K980L2797M4104L2604J1798n928j7485k3695k4599j8148j23K8757
60073e3911N2914M9570J4326k8627m9954m2383j8603O897K2513J6241j4447n0939o6451n3067k6724o370J121l439
60055b51333j6432k7973k6485j4238q115j5681j9316K224M0871O5224O3429O2188Q7416J16806R6466R768r1587
60038G3232j39069j15704n7901m384L1605M7270M0975K6301K8259M9180N7243K6468k5756n8922n6950l7916k3773
60021a39842j8695j5239o849P096J9884K2050J2233j892j7125l7343n5326m8009n349M8158P8557P9870O9381N5824
60003D7384L3796M130k1877l7252m2294l7471k8624l0155m4551n0693l5318k1272l3160m8610k5855K5477M9265K4385
59985b72695o774n526J4676K8949M3753O6646P4003M9754K5035L4498N5067L4258l2380r4511j12260r1529n7584
59968b46620k7176o907Q007L1969O5031Q1089O4352M1075M1650M7316J7960l6545o2258l9757q268j990q227m586L609
59949d0276L654j032p142k0704l3926k5063J950J1676j0129l3025l2081k3684k4460j3967K4626O0463N4824J9779
59931h8517n935j7011l1472m0018j8842J5290J7085j6235l3826k335N1681Q3706Q2075O2749M1306K4190P787k0297
59913A11381n9876q0769n5928j1009l567m5126q1875o8340k4716N73n478j9387j9275R30L5558O2628N4027J2414
59895a97835k0449j4479Q830J1960l341p547M983J1780L795k979J893J0661J8690L1330M3711L8846J5724j017R422
59876c6022L9643O7120P7138O5218L2459r509l9911m7658m3017m1906m4553l8284j6783J2319L6913M9608M7460L0191
59858A40426L557j8307k1522q099J385j0555l4528m3051k6432p383j0906l0612l8564k2349K217J3058M114j3114
59840a20665j9906n003K0515K8249O179j8530j0112K4830M1586J8042j4051j2619K0769N0371N4617M1065K0908m907
59822A21338l1669m5326m0812l1378k9133k7141j3045P145J4296M814j082J2789L2811L0521N81k9866l4030j6556
59804g5743l265p933k1171k8321k4107q564J7078M3308N2198L5070N423j4204j4561k057J5073L1498L8589K7978N841
59785G2130p583n85J4627J6485j364k7654m9482n8801m6158n192M9848Q5082P9138M8084K4810J7050K502l1277o0098
59766A21562n0462n611L2365K8062j1910n4339p9157r1223r6120q2019l7051K3716O5450P0491N6154N0517O1117
59749A542P4183P3210M8000k660o1107r2210p5159l1645l241j413l24J9467M3654M8205K9613O68k5687l7538k7249
59730a9691n672M131j561j965R355O901k3268m8356l0337J4634L6340K1776O947J6508K9506J6842j6502m2601m5270
59711g2283l0733j5905j2944j6410o109K6243N9875P0630O3318N4507L5302j2400o6792p7141l3053J7478L3861K7892
59693D5336K3918J4798j1757l5875l1606r283J144p894k4896m5046o1431n0400k863M4702M9848K4564J5343K9790
59675c1608K9145k496k7828j1739K8830N1718M0789J0848j7867l0811j9747R539L7709N0617N0146M1821K4479p79
59657B32766k3702l4803l3027j9891K019K0529J7896q977m1338n6007m2990q685K4528K5511j7361p2332r0010n8592
59639a84466j2964J5110K8070L3551J7840k4508n8241m0635J9294O5083N7997J5924j5294j0878J6581L4918K1737
59622b0881j3912l6887k1834J6441L8626K6728J883o858J021K292j4433l0126j7371K4372O4289P2573M8145Q650
59604A42718l4311p2888q4702m6300K6153P4666N7933j10l7641k2626K1275M8054L2828j2079m9459m8360j3612J9912
59586A451K8282K1061J3744j194l3101o1102n6864l2034k6284m5304m6882j598O3054R7917Q8233N4618J7051j8269
59568F2779m6190n8435n1515k8522K749K8231L4632K5678K0098K6425L3615L3395L2153K8830N344l8936o5149l8828
59550F354J7571N0050M3435K9729K7765J6122k1255n8824o1899l1619M155K6752L3518K5387R614L113J2135J7636K64
59531A50003k8349l9369k5113l297J1730J9757J8839K590k2089l4197k2818J943K6066M4302N1668M0175J3662q580
59513A96923j4875j7494l4210o0909p4078n7045j5479L0457O2731P5666P3975O1587L5772k119l5036m2271k3981j306
59495A58308R412Q970J084j4678k8727k1080J0318L7600L6763K0001J5353K5578K9604J8125M287p48k809j2311l1049
59476B64001n2415o4016n4573l1277k2166m2190o4379m9596j697L5399L7208K3997J8897J4077k664j5863l986K3462
59458A2219L5645J7873j9344n7693p9276o9920l5375l440J0986K9926P4848J18034J08746M6735r981k1263j2196
59441A46524k4684n4125o4857m7355k4441r069R092L2849M4088L2444J4071P094N735m001j6127j3918k022o201l6155
59422a1058o7263p0702m9957l3422l6354m4358l5289o588K2864L1461J2872j8381l6151k3114J3275M7787O2503O0915
59404a80960N5462M8948L6789K3672K4954M5724O6603O1812L0896J007q043r655k7972n7324o6495m6428k8256l7969
59386f7235n4619l9663N441M2638N3431N6039O0894M6058l550o0878q6695p6097n0788k2123R663L1697K6927M374
59368a24486p493Q14J2828J8364K5104L2637K4142k448k0159r430R762M866k1427l3691j0973K8456N2327N0081L7614
59349F6888L4232M0968M0991K0526j2367l4239l1885j4981j048L926M845N760P369J1415J8245K1237J1655q778k4038
59330A60721j6076J6338M9736N2249J5541l1558n0469l2548j361K0704K9809K4178m039m6365o8908m8232m974J8637
59312H3383N811k9430p1639j11155j27693r9352l5169K5552N4702N6977M6668K8011P267k027o04p060k3727k3245
59294b22730R412M4776M6900K4741J3359J8941K0856J9926M0093P7390R0683O0093J9005N237R173k231l0673m5391
59276A99560k6780J2463M4061M6144J8034j2469r702K5843N0639L5806J2091K6033O5430O8855R045p1313j15354
59259C78386j10926q2011n1370k9480j7914n795K0616N1918N7914K9456k439o865O030N173j5227l2317k8296p016
59241A59837J6739K7736J7052n625j4064M280K7635K4512r811n5989r6955j22291j19644q7062m5639j5209J3394
59224b81104N3554Q1204N7822m571m4559l0652l64J021j5226r473K1256M5874N2597N8358O5308M6937p942o4781
59206B5259p9329n0825j7955o534l338J2145L0432K6822N036j435K0890L9568K0129k1835l9824j8794J1659K4575
59188b3354K3838J9041M957j7407k6167p820J7016J9934M275l557O665J9850K1947J7282J8882L1999M6420M1877
59170B15678J0314k3997k3916J1765L9574K7040m460j4815j927P183N176O306P953q272l5671m3048k4986j3569k5708
59151A10620l4981j6948J0387J8488J2980J4033J3533j0482m7992o4087n0362l4269l2407k7387l428K3327K9391
59134h9584J9317J5216K2553K7179K0950J1521P066O735Q162J1732J4548J1774P938J4781L0775L3962P404l4174
59116A47855n6218m2006q415J5455J5349k521k1043k3793p575J1171J1409n641j4107M841L7950N5616M4828J6424
59098A79579j2721l1736l5436k6856j9298k3148l0871k6777j0614K535O941J4827L4221N2129N0025K7702K516r079
59080A43939j649K0691M5466N4427L5729l308m0103n5706m8493l0304j3036j005O140Q488O824M232m7j6007n0492
59061F5786q6668r0285m8120R137L6659K3490k335j2405o710n229k4730o3266r5021q4254k2235N0701Q0437N9297
59043b15751L0166K6299L2676K0294n776j6403k805J3745J3235m61q714K008K9349N6893O8626O4237N3236L4016m498
59024A90372n4196q1774o7177l1062o175J971N161K607q658q214K3790O1280N3073l754n1627m9519k3822j6166j5448
59005g9338J6990P3765J00828P1515J9841j3513l3477o3582r1355p8587k3475K2855J7639j8538l1721p806J2741m997
58987a10215m3007n6926l0949J2160M3146M8270K7217q592l5671l4765j0709J5801L4341M8152N4860M4002J6458
58970A3573j2014l1189m3771m9208l9675j8143m03R532K5561N0405O2653M8573K5618J3733L026k3292m9296m3300
58952e7617r707R170j1668m9572o7687n6002k8168K480K7374L6100K3320j73j4170o980J6844M2443N3663M1171R578
58933c9601k2174l1761j0237K8059N3994M9519K7015J4612J9225J6583j3684n6720q0629p4731n1481k0167J7322
58916a74856M8824N6654M3017K7778J7673J582j9817k8124k0236j6954k3209j1233L1410O5886M9846K083k0965m215
58898B5144J2319n92k3420k7981j9474j7352k0929j9610k0355l7838o3285o6522l2060K1093O0046P0419O4198N9238
58880c6961N6448M1805J0908j8102k4882j2561L97P951J7149K2900O481l3280o8964p7133o4364m7808k8314j166
58862b49496K1958K4960J3587Q263J4581J9793J6580J2426J5229K4614L7842N1358N6969M8200K8696M657k4199n2689
58844G3329n9529l1112Q231J5577j6989n0013m4588m353L7027N3147M1807J9079L785j151j1190l1823l7046k288
58826c8100M6350N2812Q034l2553k4871Q819K6077K7869L8071M8423L1199p379l2699l6819m5785o9648q3860o8737
58808a52797l5195j548K7713N0981O2525O4727O4751N5224K4722r186j1254J6240K5098j2442o1338p4113n5440m3148
58790f4480m5151l4285J002L6946M9490M1744K8701J4595m374k6580m3287m6604l6604k1937j0578J004K1300M3241
58772i5857M3256J0706l2539n4266m5591k1267L877K3627L2296K4970O306j1010j5825k817K3837M4862L7862O603
58754b0970j6275j1174K30r547k6336j4242K4792M8344L4536J0848Q920K0831K1031Q821K844N674O72j6805k6589
58735D5605r658K4146M3304K8170p116k9295k3063r265k0959o3356j04138j04626n7133P541M6473M1043J1559o063
58717a86831J484J7010K3068K4167L0106L4585K7598J5495P367p442m1738p6109p1796k0953M0617P5288P5850N3703
58699B1469K1240o730j9311k7955n6087r9659j21060r5379m1300P636M0450O1692O9870O4381N7025N5644M9928L1400
58681A3254J2283N127n11j9541m4162n8413o5673p4948p1690l4158K4494O0707N1356J7782m301j32K0431L6595L1745
58662i9755R855l434R917L4170L9607K2868O226L90o348k0205k8965k4427j5859j1498o013K746J616j9132m5317
58643a53558m9112j5942M2055R2579J03788P0517K1999o966j1703j2419j7838j4217Q493M0772O8174Q1442O8505
58626C16569K2016l5046n7691l0680Q677J7953j59j6665k4851l8797n4899n0669k3868k029l275j1420l166J7843
58608B9843K9321K0532p43k3377l9798m2017k6200k058J5801K8808N2443Q5099R3447M7534l3591r1178q7106m1039
58590A5721j920L360j5297l2553k9790o225J8008J7842n999k3590j6791p339k0924l8785k0586K8534N4141K6120
58572e6073j9756l4066j8430j0908k5969m0018l0575l934J8648K5672K2462K3214L8329O4354Q5382Q4831N4402k871
58554A74694o7726j07058r9406o1159l0920k4595k3963j1561Q651L2666O7348J02179J00903N0755l494j0676J6437
58537A13075K0849j5523n0869n0562l3994l4687m4780k9411J7099N8786O3853M2513K8419L2684L3161J2220j2528
58520A50305j3645q06j2879n7146q7586o5000j4450P964q912k3561n999K5867M1208L7119K9114K2202J0599l972
58502C0422j0549m716K574m724k7650m4358l1466K882K1099K372k7737l1715j0723M182K137K317J4011J9393O006
58483h6243j0247q411J0767L3181M8449M7931K4992q532k2400j318L1832L9153O407m9056r7124j12959q9718m5588
58465b88884r597P086J5594K2670J9731P533O980K5309L2738J195m6625n9107k3252K0446L4153K4443J6871J5426
58447a77290Q825J456J2003M2093O6258N9986K6356j1878l7628m7559m1439j7798J6960M5462N2222L6171R253j1304
58429C2149j0530J1144K8559J1745l5303p1330o6030l4416o711J4691M0448N5866L8828R337J4380N5992P9051M8736L
58410B16609j6217k142L799j3061l5602m9311n0851l4561k745J8997P722k0429k8354q921J0178J0300J417m872j3893
58391a1937l0204m1532l1125M129M9781P8620O5057J1153m5416o6062m9567k0801O412L0354L7762J5851j3980j4303
58373b5808R742J0192l0248o4568m7489q39K2147J3092Q306K5353M1849L8467K7168K6164L2191L0148J3878j2179
58355A17566l9198n5429n4054m5272m7442n9909n9038l0875O214K5775K9048L7625N5713O1930M2801J4437j01K87
58337G8L207Q022K2548L9979M1621K5204J0037P519O198l320q530K354J3846K309k7062m6121m3099l2005k1943k413
58317a571L1638O0970O3280M1611J8489R399J2842K0547K5906K3305P718k1253n5130p7716p6132n6117m1377m8421
58299f2012o4999o3732l4688O705M0484N5744M6483J4833j7321k0797O273L1836K8097J771k3283l6263l7483k2567
58281a50919R910M2796N2864L7397J3645n305k0044l3037m2047m4925l8533j4747K8045O9142P7141M3969k692k7255
58263d595k0440k058L881p856k1901j9638O15K0554K0830J946j6525j6441J768K0757K2648N524j4650k0383j0611
58244e6575J554O834P094N560J753j469O30J993r334k6675k4400M921L3015L4751K5691L4766N5104N5277L0921P697
58224A89108o795l4011p7358j02008q2086l8664p674N781J6714K5803K4970K2197L0099L8167K6000L18r875L888
58206B4574J8055J3596M34l683P64J792m592j2627j6593j5309j2509j4254j8424r378K2448N5758N2786N945m7393
58187D1390o8211n8456m5523l8176k0518J3945M5156N1763L9707L3279M1744M6610K6896j0006l4689l4457l0926
58170d72m6826o7778n9838k1304J0974J3750P098J5132K3590N548k7535l6426j2128J1379Q989j719O107K5794L0655
58151a15010J7452J2299L3461O5886P9338O2859L2830Q936p764k5254l6511k4350M482J2419k1912o5346o6543k3578
58133e6306J5147J6524l820j9123k6229k6981r507K5442M6345L0285J053l648J2918J9177J0583J2526L0627L8151
58115A13164J9937n695k0345l0177m2560m4936k5912K330K0303K4281J8444J29l0377n7699o4539m8458j6468K2974
58097a65604N2322M8176J0562k4868k3863O279L0426K9175J0619j0583k4418k2455m718J3786K0455K2328K8273K5252
58079B1144k295l7780m8171l1742j7369j4825k259K8269N0987N0362M9488O8486Q4706O7237K7878J089j0918l3890
58061B50397p0422r2384q4705o2238m0524k2494j6754l2508m7997k2959M0319Q4460O9300K4832L510R711J2965P062
58043I571J1268K4972K6752J6607J5952K1359R44m9888q6915p1890k0580K3028L5514J9222j4305m2745l8758m825
58025a24717J5710r542n3577o1255j6955M6782R6038J18713J09711P1074K9331J8310L5474M2445J7039k1090m4742
58008B68749n1136m7260l0878n281R310J410j0456l754J2954J2513j1419l8151m8540m1338k4041n149M889J401l612
57989i789P657L2846M6357K9210n570k5478j4160J1401K0397J145k8775m3079l0546K346M0744O4664N4317R805l8335
57970A25157n6123m3522k7975k2387j2245J2183L6756M7095M7308M0813J6259k7721o4627p0997n8524n0304m1017
57953a49871j1299K9132M7589L5827J8837J2486K957k1968m6802m7608k0808J7253M6128N1243L3215J2135Q132J5824
57935C2402J5614R468J9342M4938N3642K7332q943k5872l1963m9617p0253o7095m1261k0506j5410r168P369K1171
57917a08810K4016K5648K9436K0765n630k9294l2800k7894l2935m0441l0825p219R370J4034K1009L3577L7176K6543
57899g4274J4580O389r655l1555l0701P678N0984N5860K7356J0365K5611M6492M3885K2249j654k7652n8800p9481
57881b323p2018m4778k2078j3211j1662j8214m0001o5355o3786k1952L4756O8278O8324N8115O3590Q3830R2982P0426
57863A64923K7507j695K63J1971m80m1043q0462r2312p7513n2939l1838k0338j8064j3373R911N0214Q2219Q4837
57845A788O6968N1231L8484Q847l9024p0777n4708o877K2932J1765r394l2L3739M8530K4331r977k0849j7091l0832
57826D9054o3093p6634m7028K927L3669L7576L7033M1171L0218q619n0213n7606l1465r213j1729j6516R62K2492
57808a17014J3023k0216l0947K49L8291M6660L7521M4061O4925O6780L1753k5482q1992j21016j24860q3167j6695
57791b78126K9284K9041L302n890J9986O0165P7092N2689P351j8009k907L4385O2416O8212N5127K7027o146k1913
57773A93086j0606K342j1188l3650k1123K7531N8905L5458j5433m2550l4047j6650j2780k4219m4828o4338o5698
57756g9788l9595j35K7638L3067K2833M955j7613m0050n2232m3546j0899L2962O1853N9619M0875L2298L3070J6745
57738H2057k1715m8480l7357j0657r930m0949p1388p3618m8048j0409K4566N0140P1809R7777J14851R0192J6810
57721A75651n7626p5181l4692J1204K2041N761r828j2028j627J8343L7573L8245J3816k0229m2606m5920l5739j9794
57703c2636m437N441R443J1178J2634J3034J2927J3655J2917O877l532j3550k0624k4609k4245j9028j2815j1575
57685f8945j9993l9880o2446o1534j3281O5774J17939J02002M1578m241r159M333R234L833n467k1817m5002n9504
57667f6576m9400j5561K7981O3144O9917L6457k2473o8754p3299l9724O638M1511M9426K5695j5458m3927l9811j4645
57649a28859L049J814k114J0675L5919N0573M3332L0287L1154L6629J8545k4301n4279m4884k0864k1027l6351k3367
57631i4069K2927N2315L0515r839j6709R166K4787J4688J1623M2643Q5126R3700N5554J305l3739m3629m5131m9808
57613A51425n3159m7561l4007j7952l240L863n759k9898m7327l7693p332J6364J5598k965k2137l1004k7611j6418
57595a96813n054L946J6158L1930L7224K2634N042R235K9351L2739O654k3054k9605j8756j0246o251J584Q134K33
57576h4915j9792l4292l0821q563L0023P6377J06180R2149L5265k6653n1186l0489N165K0824J0006n506l688J6213
57558I6297L9114N0430M1650J0813k9934n4902m9474l1238k9896m7324n6141l9098q958J6486L7141N6125O1752M2395
57540A05238Q798j5764k2922k3914k9988l8448l7027j6118K1180N7349P2116N8769K7342n657k6031k7759k1535l0203
57522E5426n9225p8272n4420k33L7541L7422K2015J4196R259J891M663J9090K0562k196k0704q134J8258K6901K0383
57503F4423J9732K1156P769j0612j0269L138M289n257j142J6223K0209N838k604K772K269o678L450L9606O2793L9109
57483B76214j2502m8452n3367m2446l2755l4517n1619o9217n9425k0470R866L850j3599k127L0676L9526Q579k8656
57465a00441m0213l3808l2661l8904l8349k6569j3357p328p471p513j543J3448L5897N8789P0420N8743K2429j9453
57447a07884l8155k4758l136l298k6379m6929m4830k0516J8021O3588J01229J10666Q8795N6329L0302L168l5047
57430A21166o6623o3485l2066j3203k8337m9798m1553j0505O762l245j9510k4974k6843l2106l0158j4490M03K533
57412c26032N232K3881M2365K9111j6637n7750o0617k6587J8219M7717M9299K9284Q971L271L571n010j3990j32L6640
57393b09194O8538P8672P9352Q1034O8995L0512j4508l4399k6547j5478j6819k2842j9850k841K3734M4286L6365n099
57375A43911n0223o0400l3830p583j0892l3058m3602k9219j529K0971K8571K3200J2359j055k1226m5887n6569l8269
57357b04330p579M28j9384k8929K582N3831Q0214P4701P0712Q6437R6774P1707K0239k0720k9372j6375o577j5503
57339B08856l9011n6436m7886j5801J5753K8632K8348K6305J7455p972l9337n3657m7650m1176m5294m5856k6930M841
57321a36816K9581L7315L3200K8382L2321M5422N3124L6512m952m9503p5341p5890n1231l564M8694P1206M6476m118
57303F0818m5500o4330o4594m4409k790L9360N3923M1922L0655L1596K5821ok5811k2672P165L0820K1635j4220m6767
57284A2616n2254l3515j1240K601J4819L1567M1422L0541N896j2521j7193j4302n052J3537L0867K8784R612k272O679
57265H0592K2476K5827J3145j0698m0377o1241n3034j7157J6403K4895K0520K5779L6367L1364J1179n57O650J4409
57247A46542L316j9952l4559l4864l4399m2132m7813l9224k6858l5052o3781p5888l9171K7111O8624N8356K2508K39
57229a66997j219K08l373M31K2798N2974O1789K7940l4234p8712p2031k9955N886K3281M6761Q7709J16965J01451
57211A61672M5126k2566p8105j06194r3264m5304R83J1644n255j4417j543J3871J0250j0792l0273k8583Q52M1473
57193a50425O1355M4228Q530j5374j8879j3375n667O334J9977K8157K9448K4006P174j7349k8818j4038R826J9958
57175d932K4290M3566O4977N1033k267n2229o5557n5725m9451m5650k9446m205J4625K2829K4151J6929L382j053
57157d4733J0574J6901m876l8795m3880r043L0887M0466K2736K278j0023j6776j2531J2307M6178N6351K3858l2677
57139D9202p6146q5665o5880l2992m065P036j053j2410j0687L1L508j565N32J5971L0774L3034K8534K4871J5532p747
57119h9185l7545n6097m9641j3436M2224Q5243Q1866L6508p043j7520r223q453j2552n574R362K2898M2758O9599
57101H4189P0052J7965m9128o2990j2709M5446O7307O1409M3103K480n7512r6667q6087n0905l3502l9424m8819n6460
57083b02252o6070o3242l0816J6620M5026M5640M2484N5874P8609Q9579P6767M7022K1450J6100K1713J3673j2444
57066A95733l3095l4094l2781m5428n6252m5294k7551l1114m7809m1507k902L7608N4799N5337N1608L7170L607l7281
57048G54o4526p1377o5809n3527k9707J1557O0267Q6151O3515P472k9413j2180L6237O7294O6120N3790M2436K3395
57030A92449p59r610n4M924k935N95K8234M8847K9204j2784l0972j5861r26o432j2762K44J7058R622j9488l7927
57010A80667k2967J4103M1762L6511j538n0801q1633p4391l3021J6198M2933L5699R106j2709j9025j5069m530J7436
56992G8731M6359N7077K9892j3969k5151J6173P1543Q6623N0739j420l7286n3668n9571n7371n0344m9474n7099n4793
56974b3009k3678K6884O3628O2496K9878p875k9556l3681l2420l2664k6418n037K2523L9420M7206O2067P9796O8785
56956B88345J4053n2229q5606p8786n3255j8780K6243O3532O2466K3378j7349l2850l0591k5774j8034n548K609J873
56938F3697J62n33j0729l1334m5396m2991l4265k7455j6081j20L973r817k2047j6271j246J1627K9490N6733P5325
56919a7278O9485M9902L1461Q805k1830m0990l6456l2214n1014o6887l5879L6776R9288J15479Q8399L3443k8517
56902B01973n8065k7791K8046M0117p766n7247n4688j1592L0408N4066O1049M6987J3979j4333j8759j0810j2272
56885B03302k5204m1343o2222q6760r4753o8166j9304K3690N0520O7205O9622M3617p179n2621o2439l5105J112J4557
56867h1471K035n553K0984O7434Q6000N2029o017m2613m4761l2706k5747k3847j5035J1776N4834R1693R3151N4488
56849B56674L375l0581m2000l9529k8549j7074j9997l8626n0182l6933j3045k236j227J0518L3599M7076M0281K1992
56831I3536l72k6393m6221m3005j8516L740Q994P464J1523J3507k52k3975l5424k1452Q547L3771M0773L1544J7167
56812E4956O229K58k059k403n572j6496k9980l1913j7596j35Q616J5878L3184N2094N3512L8488K8791L3007L2544
56793B51403J2163j2524j5739r15Q03k7510o5389q1627p1185n2109l3613p084K8601N2862M8133K5582Q881J112j1345
56774E0500k6233k1702J0104M7866O8790P2638O7224M8630J2723k6208m5868l9648j8991P09P843j470j6441j8163
56756A72303l585P029l425k6281m1591m2448l3187j7940n026o982j9219j5132J6335M4245L2968o747l3234l1409
56738a3326k2362j9356r643J3569L1243K3136p290m0659n8194m8142j5070J4460J5571k681q910N722J8282J2530q77
56719a11997j0208j9924k8573j6018K7063P5529R5107P8884M4883J1679r491j2363r89J1425J8236K2687K1051K783
56701A99764k3111k6518J300K5760J2725k3405m0908k6499k618J2192K2017L4429M6086M9103L6313M040l4809m9048
56683B16813k2300J7607K5453p441m7943o6142o0302l8445n496K4257L0004J2541k872l275m588j7950k5294j0424
56665A4203P760K316j5818j1822J8499M1420L5460J7304P247j972k2549m1323l9197k7801l6750o5677p6570m2198
56647b37468J7556N9107O1206L6924J0959j953j775K393L260L867R978J3972L68k6422l6643j1825K6486M2483L0497
56628B970J3472M963l308j7395k8137k6711j5926k879N551J844j0344q496K1064N1655M3166K403j8946L573L4275
56609E2794L5006J8933J7485K4694J2872j5985l4598l6980m3900o4733q5589r4703r1285p0047k5798K4106M8969
56592c28759M1788K5474J9916K5025L6875N4231O4648N0893K0018K056R270J8661O061k2580m5285m9815l4206k144
56574a07873K8601L3170J1968j410J7562N0053O1414M8095L3802K9580K4451J2115L84r850l1737o7568r3375q3751
56556d4369m5068r645L179P548K5887N2527N8667L4675P993M990J0516r969n3719p5471m5847R829M4332M1475K1621
56537C9151R852J4999K9548L5458J7749j6603m1908m3749l2973k2075o907J3900K2671Q236r999j0101m752j9337
56519a6840m4334m6296k2583o750j5557k8165k7252k3271k2141o368K7103M4423K3788j92J7903O1805P2969L7587
56501B5829O176J6525M0809L2928m814l4127l8624l3735k7358p055K7035M5309K1970k9069o6487o2964k4711K2165
56483i0198N2516N3955L1736M718j0630j3701j3425j2029l635J2340K6391K9188J8463n042l7551o4815o6959l9552
56465a28230k640J8781J7396J792j7409l0551k8697j4326m999j1142j5886M951M5456P2069O5147L8211J1168j4172
56447F919m1093o0345o2329n3295m2347k3854P990L6569L8001J5935j822l257o554k8409n8892p8739q3083p3212
56429e11817m1528J3479O5858Q0596N6132K9682L3397N8628P1705N4068J6401j9512m0458m4676l6330k1845p077O383
56411b36914K1146L7770M8974M3525J8613j3464l5339m1093l6931k5303N93L9218O9150P0825N4495M7676N4810N0961
56393A68712K1951j1354k3212j8232j6223j6706m683J5303J8912k394k9711m5657n2693n5051m4520j7353J1901K8211
56375g2799L4622L9460L7554J9984o243k3091j9508P049N6196J14536J47793J24908N2528k8103p9512r2654p7276
56358B35444m5716j1366R601M838k5817o6920r1244p7590l5577m064r380l0859k6298J1400M5175M4437K2174J0612
56340d1150J7629K3723J3378n742j4042k293J8173K6766J7876J0913K7422N9798P5105N2172L246m3972p2932q2357
56322H3713p7084o3531m6192k3455N298K7660K6961O402j1484j5491j8140k8330l1485j3490J1902K0391J1765O638
56304a27952J4941K7506L5833M1385M5070M2917L3188J6466q891l8982n6389m6108j8689j388m206r246J898K2361
56286c0286K8498Q646k0452k6296N149M6002M9188K408n4665p8865p0849n4322k9878J4312N7527N9135K2755M322
56268f7671L7204Q4657R1135N1272M52l7140n7667n4923k7246R05M68k0005k5206p288L170j2406l0525k2213M348
56249h8679J8531R625n945j1711o794L375J6791L2357M6121N3183M9758L3030J856m1001q5792j13776j04746n7534
56231b51351k468K1230P647p948O604L9229N2349L5037J4752J4876K2641J2743j1837k1769q02L2841M7251K9161o775
56212C3411l2799l0391n771J4828J2329k455k803J6991L3573K9075J7127K0609L6112L9736K2591J085q224p269p308
56193A80447j5161l1279m9005n3952l7477j2520j331n288m404R112J7912J0159J681J0761K8529L5354L2631L3545
56175A49714L1927R545k6271m1319j9820J1282J5957q670l6331m5345l4690j5246O12M022m015j1817r744j097O772
56156b4534J7112L6733N5060M6127O19n4513q1155p0389m4879k3259J88L4281O6466P5196N8091L1645P926j1603
56138A19112k2618j9514j3178k5383n5505p1165m6678K219L7531M3685L7433L8805M7322M7236K7631k546j7937l198
56120A23252K2019J9666j7488n1444m8325k3808j6753l1863l7987j8588O170J2053J039q805n157J4308M4105O9677
56102E2071P4593N3958J4744l2578p1044p5002l3486K5188N4003L4864j1307n7428q7537q4164l3921M2823R7446
56085c6777J03870Q1118N5210K7932p54j2258J622J5096M633j1715m470J4357O567l1855o4206o8028o1321o4809
56067d5788o8126m9887j2295K1008L2600K5469J4247R646J1237J3993J8587K7243L0298J3751j3167j8822O419K7077
56049D3490Q660k9509l9343j2438J2798J1858M680J5853L7289M7614M3173L0593Q617k0749l6282j5599L3710P5980
56031B20395Q0700M6397n498n2398q4924j02925j02995q0684m8294l2929m0445l6529R781P2911R5183O4959L4174
56014C6879M6690Q2603R2879O2241J4848k2351l9769m3420m9888o8401p7640m4981J7012M6385J0392m4025n4673
55997c5219k8644j4693j6493L027L8530L4929k0184o0198k9332M0006P8710P0367M5273J7851j6909m2724l3668m952
55979B5677k151l1307m3430m654N5258Q5872P7381N4155L1667R217j0046k1532l3652n3088o0845l0834K6701O6726
55961A41115O1163K7441k131j7377k4237k2514j0035K456J050j0000j1748O012L4800N6702N4773K2747k2405m5829
55943B41983l0121l66M482j8786l7692l1685j3825j182P739J3074j907m3211q0548p5656k9093K2127M8043M7469
55925B0845L1542Q390j3681k5965k7637k3297j2526N475J9320J5215J009J724K4411M3795L2816n015m3045n9944
55907f568n1108k3387Q024K4862K2406J7844K9986N2216N7553L1782q979l7174m1533l0110j2235J1626L9311N4838
55889A39354L9347k041l4863k9585K007J9735O481j0849j887K2121K3727p847m2408m8839k7992J667L0530N4300
55871A32958N9314L4427n890l0340k5962j0113m853j4036k9638m3919m6406k6074P830K1307o325m7668n5829k6904
55853a18121o215k3811n0488l7881J5742O4688P2904M8337K1911J4452K8903N5776P5430O6987K7411k1651n2450
55836A81924n4450l8171k2294j9698k9850m0773m2383l8642m0177m5151l8344j3367J5298L0079L0643K7381K3513
55819a14462J6049Q063N533N260R52l43J3767L3655K9183r117m7332m5763r523K0044K0704J1791J6524K6059J7282
55800a674r057k8197k3450j278K2683L6598L2708J1486j1783j9116j1719n751m648M936K3112K5866Q61k5579k1926
55781e928O04K940k2653l9356j9245J6588K7003K306l0138m0557k1259J5883N0382O3791N2571L1955K0093J9652
55763A24632K1064J9842K0606K4694K4128J1848p995k3848k7820k0617p981M710J4122J6909Q689j1945l8214n7406
55745I5418o0945n1256l7415k5254j2982L953K4231L7723L4150J6359J176L114K0243L9738N1213M7358J9829k9463
55727A77190p4853q3656n3137j6780o063j8540l1353l1267j8501N439L5088N3691M7777K6844J2206P614j710j9762
55709A0227k7994j0238K4150N1213N7618M7325L1024J7792J3173J7158K3262K2687J0709q551k1097j1484J9240M5609
55691C11823L8635j929m4354n8580m7348l9580n7004r0880j09528q8149l4063J8641M2517M0374L0617J9131J191
55674f8486j4742q823J9291M2224L8654J9001N571K925K929M714J0782J3756P081J837J2797L2762M0825L1975J6675
55655B11748n798m6656r6372j20871j01084n6804k0064k784j459j3339l1003l7380k4838p306K189J1081K6414L2588
55637b81738J6701J508J8836N6670P0602M9568K9758L1976K7119j0355n0325m6481o954J5518m595m1481o3767o7244
55619b54684n6346k8345R756L6502M4464M9766N7764M5263p56n0672o7771n8022n0793m4479j3459L4892N8060M4860
55601b44000L8521O7804R4006O5524o78l8191k1056J1167J9111R589K538p816l2137n3622m7710k0320O50M066J706
55582a50848J076l798j4401k1871k2761k3575k5357j8344K957L0611N2143N8685M5253J6676o542m630J5994K9036
55564c9696K2713R905M19j3948l6084m8306l8129k0707j5303j5090l272J4621K1511K1752L2583M6523L5351l813
55546b8970l6718l6302j2507J3809M0247O8561Q3792P1147L9721Q740j8237m6190o8060p3791o9863o5065m5010P985
55528a66711P0296Q7019L9453k5403n1733l8781k3960k0541o645K6248M8819L2882p436l3031k6158M5L0143O0387
55510e107Q2483P7933M2989M247q568J321M759j4392m3570o2771o3807m6723j5989J2952K0827R194L193J6809K9236
55491D5016J2840k5198m8754l6001O55L4677M7375L1245p479m3216m4847n786M7497Q1452Q1864N4307J3281k2781
55473B16147l8874l5810k7896k3186j6111m458O70p604j7313j4769o680q688j7498j2074J7080N3697P2944O3561
55455A93138L3080K26j8946k5745l6458n6269o3490l7001O173K5044R107p860N52J4144R8l4098n1323l8733j8960
55436a07321p432R192M0107O2465M8102M587l1267l5920j9165m348k836q487o712J2093M1043O0482O0117N1766M8510
55417B14976L7994k857o4613j00062p5680j3308L5467M5962L4560K5058K2660K0909J3308p887m6654q7054r6665
55400d3886o0274j951L9329M9928M4428L4384J3824k0007m8713m9262k2652N733J4410O226j502J58N511Q529J3897
55381a1890K7747M2522M2211K4630P296L526K526j3117l5995l8592j2058J8138K4597J0885j455o362j5250l1690
55363C7669m3855m2623l0817j3014Q004K2806K1552J4016K4130N4264P3854N9098K7638J2889J6030R167j8027m1972
55345A90809m0621k3156j3687k0190l0825l1876k0157k950R128J3229J8424L1515M1050K7964p558m3895o3850o6414
55327c3060n1218j4164L1323N1741L1107n051k3128k4328l0511l9628k6759J1232M3069M4869L0644K6120K9554J8111
55309F9923j3563l9597l2182M089L4631L2326P646n314Q772L0068L3872K2569J5001J7224K2859L3043N1228O0202
55291C52797L1707l3453r6202j19785j02376o2449j3510L2972N9457N7440L9507K0440j587k8301m0822k1503J0740
55274H5072J5411j5928m4696l2698J2961N2038N4527K2281k0810m8038m6167k4206m926k030q345r255j140R184J6157
55255I392J7657J0400n879k1481k5348k1916k7748m6477n8061m2638p587K1516L3183L8500M5998M4386K1142j1638
55237b6599k4827n474K7359M2345K6428n018k4747k0291o478r465l6467o5430o7858l6377J3383N8449P8425O2024
55219b0618K0250j2902j1208J2976K5109J4878O698K0589M3260M8239K8439k528k7796l4772j8950N687J1325j2528
55201I6148l9864l6341k979K3654J5606j3944k6330m28M2407N7197K2404l4148o4737n4851l3007k8030l7104m2722
55183a57069l8363k3144P555M5683O3132M5755K1324K6248N3494O2054L3567q565l4935l7957k4402p968j0784m3044
55165b7419p6187o6622j5808K2602R675l1393n1036l1480R924N1327P6057P1125M3312K3782L1016M0483J8609k2128
55147G5839l4416k805L1833K4648j9587n9009o4710m2853j5229P009K8697N6331Q2471Q7508N9757J1259l0759m6993
55129A48991l8664k2086j5356k4611l6773l1144n131J8685K0824J1897J5203K6725J4564l3906q1819p6857j2056
55112a21514O0959Q4046N1483R522j515P571j133l2517m7456j9788K1040K7366k466k7383k4517j2038n885R475M5669
55093B0919P3497N3768n609n3296n4364k2589Q424K2446K1239R264p044j6980j7033j7437k5450l0026j7941K23m54
55074e8443k1634l2238o527M1143P2057O5260L1325q573m0474n6530n4603m4513m0435l9748k2413J8698N9144O8878
55056f9626M8817K5399J4309R578Q660K3751N4747O8993L1616m5923j07252j07966n9607r172J4984K3322L5151M7284
55038G065M2974K1716L057o2K862k209j1901j3551q163r118j8068j9288n911K278j7100n2992o6916l8969O530L0831
55018a46935K6047J6817K1649L0449K5216P449p314j3232j8099k7197l7438m6979n6578n9278m3876j4978M765K889
55000c36623m944L84Q665p406m8466p7256n9219j278N9231R4059J00574Q6294N5592J7213q959p949Q909J1862j2708
54981a22025m5081n7058m5309k8671j9250j2449l213O913K1837N0169Q4086R7646P8587M5519J9921q59k4443l6421
54963I899k0676M846M756k4052m8838m7380k8674o173J6058K3785l158m8937n8415l753P0527R8425O8987K2557r689
54944B0095k5018k0436J0849N0631O2013L7122R741P424J7069J2909n199k0580k7236k6716j2114K0237N0527N1443
54926B12761K5161M642J2922L6034M3835K7045L469q502j2417k5856n3604p6060o9374l4224K573J5229O63k6949
54908G7348n2438o5319n9847m0099k0341j0859n968N987K3746L3396K6111O679j5021l0841l1306p594L5273P3256
54890e7837Q0825N4214J3233j9326l6167m3972m9275n0084m0773k2007m133J3j2560k8679k8607p579J4315J3306n215
54871b30308q029K2837O1310O8687M5393K7425L1754L3465Q290k7896m2956l3404k0416j3048l839L892n232k7975
54853a10050l6986j6570J6344L8027M5862M6770L5908P393k3355k9717o018K5491M1041L6969K3223O811j1365k7983
54835F1795l3388k0112N046K2513J8902J627j2440j9291k6384l0395j5049K0272M6144L2781j4323o1352q0963o6731
54817a71348k2645M0252R6535J16083R1038M4122M250j9164l3396m1853l5717p334L2177N4969M2126O268j9511j7137
54799A59715P21J2338J1301K763r735k1269k1855j1118o550k1286m3356n3526n1686m5478k7925L897K0764p024n1706
54780a61015m8558J3183O4901M8791o059l2278j6274K446L265N104J8678K5177J3357J698P359J9622K0859J3543R661
54761C460Q476R06j4098l0041m0831l8711j5552K1355M4923L4754K635k1773k5816k0227j4762n889Q390J8620J7886
54742f6295J3890J7283K7482M0602O0715Q6749R5544O1278n159n8093o7704n0101l5015k4367l742K2041L3814L0664
54724A79586K7329K0704r054n8087r0502q3478n4282k7441j543L0685N3671M8368K4876Q485M428K714P380K9828
54706A13667N6235N2773R676m2472o6834n4026k0220R557J3728j0531l8605m1131j9221j323l572j3138j5227j3833
54688h4497j5270j1608L762J8899J8031L454j1840k4783l9995n2655n0614l4971k4839l4472n1495m6693q104L9483
54670d08207N7456L6435O026l491M466R433J1153K6692N4887P0769O1194M2915L3951K6380L701k7108l8566j4972
54652d6886K8456N8206N1426J6893j1653r577J1745K0699N513j5565k3881k2132k1168k1797j8838j0647L715K5754
54634B0263M8940N9186M9907K7892K731j7915k4720j6507j2518l1039n4523m6357r564P452j7925m1865j5228M3614
54616b8176P5594O1265L2942J6619M822j0451j5778Q0K5359M0028L6654K1747Q165M894K538k3051p5365j16225
54598F1661j04711m9316O204M1039O6424P9958N5998m123n1550m5297k157L2657M2665M2799M3080L8104K4395N073
54580B82903j7264l4766l0991m216J3991j0527o5233r6211o9464r161L3185L2665M468k3589l6963l6633k8888j7989
54562a14683n037R174K0949K4893J9778J1872R596J4461J9349J6858P632j031l550j249o27q049k3403l5820k9649
54543f8536j356L1566M5886L5676J2749j1937l4554m7972m2907k3835o600O632L1047O7075Q5365O2093J2919k9090
54525A24221n4483p2009p6131n2506j2197J2156R796N234K1201N0627P2040P1187M0877j6574p5424r7561p3641l6863
54507a60050k1134k1211j0989J3112K9004K3728J1141J1942K8544M5259M8169L9909L3525L3710L0791J6790j472
54490A50768j4099k3366l3603l5506k0558m632j1574l2757k9610J5918P5338J06688R4835N2580K646l2804m4472
54473B15792m6660n8195o9519n3243j1989J5830Q937j1173k2736l5288n5866o1782m0589k2724l2706l7547O058P4214
54455b39186J01652P4320L8368J9178o174m4225n5567j9610K1581K2711M32k332J2745J1065j0569k0502q895j666
54437a06674j0536j0004J7425M5230L9322J1092L453K9771N4733M1236n160m8877o4926n2931k3385J0337L0687K6654
54419a2553Q702j908j067l337j2468j0102J5875M8438O0447M3439N466m3396q4948q7134l1937N1956J05443R2617
54401A43533K8649m0996p5573o0282j3369K5779L0328J0533l801l12Q999J0766K470j3957l1264l1642l392L5618
54383B2087N1371L4752J1221M786J0252Q176q015k8023l6119k0733J6967N9507Q5652Q6475O2056J1563n5473j05385
54365B11117j04864o2068j9841l590M03R126J3120k448k8498m2337l4902j4963L090P136m528j6081q344J5245L2055
54346e1172L1617K3552J2910n080j9521o046L0603M8900K8147M175J9021N8963P4219M2844j4135o4571q3421n7571
54328G3434o032J9777q363n1844n4042k0358n412k6146l7327j755N9153J00143J01000O4854J867o4648j02441j00582
54310e8722p6389m2935K285M5252M9407P714l0301j7679K4589L6538L73m2163m7773j5132K9161O0327O6253M8965
54292C9770K1062r569m6807q5443r5887n4842J3974N7854N5610L4703K5040K4176J8600J2694J8040L1766M3038M7777
54274A51556M2892K1058j2387l2704k6698j7730l4991o6297p1047m0073j1565j6851l6665l0314R250N1884P2950
54257d7732P6713P6221O8998M3096j53l9231n0796l3248q656J572p37N86Q041O122j0957k3726j2828J1688K3470
54238H8443J6070P832J2317K1890K3776J6531M375j2326l2847n0392n6814m8526k6637J891K3751K9547K4324J7492
54220F0697M548k5718o5410q7950p9800n4117k6374L249L2771M5812L4210J6649J4984K5046L0051K9089K9718K4771
54202A2226L764k0499k5932j8777k7190n4914p1005n4192k1490j202lr648k5281m0436l9919j5628J9718M7027N9813
54183b83568N9970M8378L1974K6652L7105M3724K5851r034l4619l8542l0716k3540j9507j6959j4137o907O606J9041
54165a78228K0944J4420J1284J8436L2237M4508M6426L0911J480k4179k9715j7126M1J4972K7191K9996J6123l939
54147E5782p604J0163K6630J7568j6482n4737p5769o7894l3103J0116L7012L8926K9634K4289K1837J5917J1729J7937
54129F1951K7273J9972j2447n5791q5797q5545n3322l061M1849O2858N7323L3814P22l3594n4073m5617j0414K9680
54111a04219N2728N4196M3182K8172J1432o434k1577k6654j5363R950L5491M5558L6649J8657K016j0977k0890k4415
54093A07502j7925l945J0798K1994K9626L5073L8086L4474J6995j6237n2707p1596o3527l9796j8149m654N836J7398
54075B9246K8158L3364K6767L733k8858n0030m2217j0647K1939L7008K8833j562m4521p4374o4069j6986K9040M0698
54057e4478K3005M116k877o843j2890j0107R115L1360L4364J1870k0808m2703m2929k4110J098J6063J0940p241j9251
54038a02306j3610J205J0219J3320K2427L8076M3712L0427J4400J6645L3457M1806K9470M447k2711m7959o3694n8337
54020i006l3570p712O442J5174K7509L8110L6882K5250J2170K485j616K431Q858L442j5007k5304j2957L451j809
54001G5223j7595q551K6024L8876k961o7385r3624o5745k3110k615N1M428P728m389k2373j5705K4701O7415P5304
53982d303M6770J0588r388r169O901L1360M7506L8440R260j3868j3229K925J5852J5904L140j5690k5275j4280K692
53963A26136n057m1222o8478n2371j892M8412P6632P5262L8035k5926p9900r1768o9227l8199k904L9188O0622L1223
53945A8566k1220k9859K0046O5714N2625L265k7146k6443k1144k3101k0903j1778o060m073K290O498p922l7020n2666
53926a20331l6199j652K1393J9618M759n609r957j9867l4668l2580j989K9581K4364j0039k6755q747M276k1814n9345
53907b85561n6975j1305L5382N5151N5395M5670K1670j1109k7154q111L4466P0192P3863L9919j3177n3914o5975
53890a01573o2844o2377n5847k2939K7229N5799M0636L937j4422J526L3881N1784L9154J0072l436J3287L8786M2413
53872C5066K3368Q082J4254L4448N1804N4421L6718M582k2680l2780l8624n6377p2047n7601j9013M263m874j7724
53854e4714p486Q434k055l2770m3112r719M5295P8514O7713L0548M177L712N103j9535n5306n5572k878O4975R9744
53835A25068R2152O4369L6341J9002K1936M1968N3352L2388j1886m9154o4829o8012o7046n7232l4684o849J4626
53818A41510K1655J0745j2689l0928k6867l777J6284J7070M561l872p66N449L383o989j5152j3229l161J0111K3648
53799A36986K9042J2521k2624m5099l1509p742k1954p1640r4741n2154J5837M6360L8084L5419M6440L1207k2872
53782B1561o5081m6521J2507N1727M7820L0318K9287L8522L4993J1967j8127m0299m5433l0617l570J4960M139l6500
53764A1653q2687j03929q5348l4034K7863P3505Q4692O5371L9209K5889K2537J5419L400l265l061m566o949K213
53746D7912K3977M0445L8942K7823J7606K475k4037m7690m6138j7606J6542L3038K1169j4288n1741o3237m0534m483
53728c9825K1696L6496M5103L8407J0609j6545j7373k791m893k3636k4951L074K9528L0038K1186K3602K2974l78
53710A52321k7330k4326O89P926j0272j6297J0689L6837K2361j7839l4601j3283J1945J3445O618J5365K6244N804
53692A66296m3629p4992n2535K645L8682L4038J4707J2339K3576K0289j0533n1874q1237r5404j00939r0255m7282
53675c36108J9784P2016Q1566O6210O1152O5770M7067l038m5672m4087r636K0323K9592K4888P718k4608n5283n4966
53657g7312j8079K6715M7102L5361O619j6017j4603R788L4294L7327K3077J0661M323o363j9593j8840j908R884J115
53638G3551j6742k3797j6119j804J3244K4536K5384J5444O074R279K6218M8168O0424M7386R067k7424l2803j5838
53620B24248j6230m8692p8231o6157j9231K5852M7692M7181K6404j0559m3201m8506k9393r657k321j631k886q538
53602a3856j4153r149M839J3535J1173O618P164J2723K5934M7306N7631L0130k8875p3028o5406j9268K4505M4080
53584F1903M3867L2520J8537J7645L7045N4901M1426K247k4485j9675o330j0523k4505k6461j5568m920L321R982J037
53565A91964l0820n6541m0388J907J5357j6100m6340m0010k4674l7291n7951m4994j0446l790k9942m0829j3022K0894
53547b63016L2992M0331N9647O8443M6972K1527K3708L4479J5002k4977l8662j5338O093K97j1872o829M105J632n633
53528a1099L195K7804N1199O5051P0140O0403K7846j8173n3432o3774n7638n1503n0737m7990l5576j5372L021J1837
53510h4798J1071N028l182j0172r212L942K2593L3958L4395L3005L6274L5429J6672j6760l9884k9381Q311L8195
53492H5484L1859j055k4278j7227M840J5667R546j671j1391k2687l5390m4172m8220m9665m4156k7401j0249j0561
53474b00727k7064l7324k6538k076K6616O2112R8865J08157O8045P65m4968m9739l9092l9072m0385k2337N988J3036
53456a45738j0643l6610l1965O279N5262Q9856R2748N5237j2763p5300r1088n0755J2313N3460N6227L9285L0289
53439C6094L7929M7849M1540J6743j1321k6981k7752k0583j2071p344j1038k0054k0045j21L0610N0704M8924L0640
53421A83723O467j2919j4739N765L1661L6349J2768k1693m8842o1814n4913k4944J1099K3014L912j9805k6492k6388
53403B209l5850m5135l2248N345N0734Q5306R0631N1159k2228q5261j00283p3151l2475J0066N3779Q2140P7364N3304
53385A35406L9829L8438K5358m646l1205m4475n4263o1428n5272m4002n1235p2749p3114l9229j706J4735K6440N1576
53367b01542O9078N1555J6454O486K9495N1896M8532K8810J1348j020j2479j9479j7191j1830j5996l2320m6610m0314
53349h5127j0330K6210M8449M8680L0741K444k1910k4413n378P951m989k4827j7855J2796L3071L2352L4664M9828
53331A32357N2355K4556j3349l6112m6794n5991n5642l7744j5895m934p76j267k1081o0099q2379n7861n495L5070
53313b51081N4867O6792O5339L3698j9090o2389p8841o8932l5062R312L1952J8713K383J6689L9611K8608m052q481
53295a59964J7173K2906m640j6505J3336L9316J7878k1375k3870Q219L0788K8192K0057J3228n268k9903l1713J149
53277h0996M4528O5707N2418J5984j6618j7417J5129M3733K6745l2426q6172r5215o5618l0592j0611M4J5584L7269
53259a18524N0809M3471K1005J829n554r595j6167j5137J383J7107O773k6490m6056k2980K6924N7507M1595l093
53241D807l8582m7739m2112l4656k1219N144L5819N5411O0493N6250M1846J5208j2879k8348l5877n1655p2595p3847
53223a84531m3574j565K6242L5687L6307L0125J3001j0436k5438j9175Q716M2353N7286M2352J3732m647j2203k5860
53205b1628m5453n0399l6398k7620l7850m4495k2218J6224L6168K5967M361p643k350J9271M7579O3822N7116L9264
53187A3718K9340K8563K4123J2208K145J202Q487K0985L4417M1493L8340K7806J0461j7291m8144o2148n3890m6789
53169F5026o1823q3534p7638l4919K1145O3214P8659O7774M3471K6790K5324K3884J2118N994J8751K7581K504m2368
53151A81953o4118n3203m0626m1836l6004j1438R100O933l045k570O94k873J08J9136L0992R079l2373n1894l0580
53132a12565J3938N4293P2734O2346L1055O1j8367l4536n8121p4176o2817l1477l020K0103N2385Q9318J03470Q0432
53114A85056L5974o702l6026m6429l7752k7106l7907o6215p8208n3070q964K7259N4725Q1899R3505O4730L548n0537
53096I7780p4290q1895q8985q1059l9629J6309M4880L6595K6715M2105O0527M4322k191l8159m2826l4526k9178j4117
53078a57622J8983M4212L3114j526k3729k4558k2766k3204j1214J0478J7130M898L759L0057N6302N0956K3354L745
53060C2369j04J119O879J9651K2392k301l6164m0533o424L8395O8594P6851N4788k346o5616q5657n0781m50L1513
53041F2175N1434O6785N5013N024m3438m4962j3438N70j5187k5806j1572M160l286k5496m0641m1842l4624k5810
53023h0941k2385k4202j5317J7940N8716P1897M8048J3311p275j3082j2001q476j2814l3931n3897l8973J1689N7423
53005d4270P0269O6800O6711N2632J707o6520j07438j03528p1893l2566L777K7146L3651L3488L4402K8493J3437Q703
52987A5001K5670M0294K6870K944L978K4597K5581m758l6529m6415m1271k9843r917Q269L784j7419k1506L077K8902
52968A309L7242M3995N6695M6007n098n5509n2552o446K4643J5277l131P99J7477K4163K1816K4155K9236K2662L38
52949B43078k7661n0773o1668m9600p171N0164Q4741P0898K4393j6016l4087m5570o0485o1646l6842r620r994k7540
52931b5399k6139j36J8902J4362Q056K0416L9728M8528N1995N7229M8587J1592l4801n8137n4925m6949m1831k4776
52913F302R672M2201N2890M4680L3748K6048J2478j4762m6549o2234n3434l7147l5612m6030m5103k4406l259j31r259
52894a49907j6065j9182k3331k3925j4644j379M689J759l430k734J2311M2725O8991O3503K6188j0845k5146k8057
52876i8479l2788k5956L608L1926K9439P856J957J4355J5755k000j0467R872L8140M0305J0036k7277m0552j9926
52858e4196J4458L3358L3241L6880N0577M5888O830l1167k6747J672P12l7666o9239o8218n3274l7349n726L8637
52840a21329N8438L8089J4354K0584L6864K8589K280j3645j7534k5930l5912l2960k2263j8373j5674j278J3973J0402
52822h1325l308p35J9247L0731J9258n308k9633m3294l1294P362L7998K3086k2381m4644k3947N760J8765L4799P1420
52803a7443R9659Q4056M0644J4708J5171J0731j4176l8232m2212l4943k9251k0694o431j375j4207k4355p061K7856
52785D2445M6503L6883K1377K1621L2277L5914K5313K810k4884m0625k3345K3497O3481O4730L5804P475r869k9233
52767C32174n5554p6067q0841p1542n0296k0331M032J0762J2421K9959N4254N3399K1986r636k3928l7818n9809o3702
52749c0537l3261o01l395k6899k8121k736J3402L089j1455q403P237K2703L4351L8763L1446K0977K2624L2771L1105
52730A13060J3633J860J0962K7692K8966Q390k1582m1177l5429r198J0317K790j5712j3141J1213K6059J6207J348n18
52711A35740K076j222j860O178J0188L584K443J4543J5917j2980m6261m1182J957M0241M4581K6505Q454l911j2069
52692A92922r824Q476L5291N4150N3281L4578J2445m67r744l1426o2007p2527m6605p882J1010J2341K0019L4334
52674B28365L2787J1762p573j7515l2481n1296m7984j8263j249k7186o8599p5361m2243q823q44l913M019K1883L3403
52655g1111K6039l638m7224q1899q4428n3745j0797K4745M7371N8018N8785N5911N2764M0014J1083j2372L011N0031
52637F2558P2689L2814l5014o4620m3110k0412l3167n4560l7530J6142N6348M6493K505l1234k8310K918L5565M6305
52619B6380K7512q755l5614l0082M499L8688M7210L5087K3344J3322j4511o0517q7791o4301r040K9329L3725L0423
52601a092L8992M2037J8716j7059l3483k0910M899K8097M1294L7674J6208q690k1322k5312l2058l2801n713M6231
52583G5708Q6390Q2601L9533j3049m9097n6991l8489r498Q556Q411J269k366l872l962L271J2848L687l0522n8801
52564E5627m4843L621L9494L0497j0107m8022o3143n3862k4323J7899N7667P7051O6250L0656r447k9779k2559o430
52546F6247o463k3705l5091k4204J185K5860M6165O3808P4125P2641O3459M8929K1239k0010n0716m4851j3320J849
52528B67147k1283n7822p0710n5715l6245k5289j3553O166K1994J7958m066k5270k9824k0215j4120k5826m8899o0125
52510a95697m4375j1092J9678M0831N6463O2818N0126K5564J5077L2393O0576P4679O9426N2905K8032k282k3220
52493C11902k2904j2902j3189k0895j6583Q2N825j1100l4644m6978m8542m3042k5329J232J5533M834j5280k4359
52475C661k5808l3402m3170m1366l0317k2875j7816m607J1596J4381M625M40O891J0043N868J0630L2387N3423N3971
52456a1445L6600J4033j1240l9238n6851m8559j8474J1911K5807K1442M462j9079m2245n6902n6014l6417l296K8110
52438b57395M1879L4333J2481j7113m6879n8808l5456J4926O1865Q8557J05677J20192J13567P1068J4415k0792k9660
52421B12857l3768l9499l1033o834O533j0034l8551m4923j9167J6051K9655P707l7516p6233q3429n8231k0737R020
52403b18132K4368K8773K9461L3338L9035L3558P393k7732m7870m3785k7078j1279j655k690j5947k7208j6610J0908
52385b33152K5972J5194p98l535o240k4133l6669j2837L5621O1001M0786J896k1188k4228j9499j1458k860l407j1021
52366b30555l90M4678R5343J00705M9415j3031l7086k3325j0981k2883m0009l2823k654K0891J9574Q541J2404L0066
52348c2120L6605J6721j7701m4520n1293l3783P996N7788P9736M9270j2446n3005m3391n628J9109J6721N302M219
52330d20J1640J1675m286k4974k7814m176K5162L0474J0798m406Q75K940k5587o8862q4307n9478k3375j314J0127
52311b25308J7222J2245q58M817L9445P0259O5514M5214N1898Q2174Q7410M2789k1272o4562q1448q6913q5865p4529
52293a21768n3853k5752J0567M7045O4720N3158K0514k0117n8303p7236o0983k0646R846J6842K2079M0692N2481
52276a00714L8145J6938J6139K3612Q730k2008l0852p797J4401R608r915k0045j5380k404J4550K8546K9612J9528
52258A0694J2647J5793K2072K7459L5316M0866L2475J5076J0979K7679M4861M4024L1284J8119J7k8131n2139n5202
52240B53889m4885m4390o1391q0535q4443p1688n6030n3197o2787o1026k3395L9960Q5636Q2862M5415R155o079j48
52222a33077K2912N2195O3009L7825o438l0487j4243K4943N4200N4282K9898K945n163O687J8858J5753L754m055
52204A93798j0522k7039n0305o3524n8662m3141k6160j2437p130j0810r569J2040M3660N1684J9457k6629m3769k0444
52186h9502J3925K6053J4908N485J3553K7556K7225R386j2387k5525k4365n822K4502M5778M1541K5905K8278M8557
52168A95051N3112K4424j2394k8834l2193m2067n1066m1039k3760k9652n8373p1624m0126K3167P9390R6397O6760
52151A07173J1829l1164m0820k8721j4941J055K5778M2664K8233q057l1646l0708k5967l0374l0778j7486k106O067
52133f9969J4873K7562L1499K4151K6673N2084P8198P3143L5695p285l3542l9091k7960o459J2593J2138j6486o1118
52115A26699q8621o7409k747N7872P1895M9083L1530L3113K8449K807k1905k3949j4979j7294k9969l7285l4721k8927
52097C3642k3853k0009j7011r875L436Q660q804l1037j9912K7652O7619O7402M4451K6523P683k5936n6262n6987
52079A7382l8044l0015l7470m1597l7872l7772m1054l7601k9894k4715j1039K2494N5550N5783K8290J2420K7136
52062a48018M8387M4685J1099l3739o2498n2890r764K9397L3761J7970J6263K7770K1460r942m0149n3937o0759n7450
52044b78354k0852M5116R3258Q8907N3969L1280K8192K0652l854l2592m8348m5955l2574k0722j4773l019K4013M8903
52026f6753M3285J1495q425K498J6564R2m0796p2999p6478n3655j4967K6082N4170O3340N9586M6551K3045q63o904
52007D868K931L455j6710l8143m2506l4869j9566J4596O1560Q1135M7309r577m1903m5707m7550n0250l3450L152
51989a61225L8841O7092R1053R0628M1454l1181o6194m6242j8296j8068k0391O442L8482L0728j1555m0805l5439
51972d4676j9535j6932k3269l0420m6091p3317r2174p9727l6446J9961P5393J18795J30505R3369J9947m6472o7760
51955a18849m2659J045L6820N4524N4656M2389K6792J4581K998j2386k3821j7840K787J7272J2170m190j7969k5753
51937B567k5697r222K3398N1337N4475L8055K0298M382j7996m2620n5567n8250o6106p9526p8475n3060j9695K367
51919c09335J2927J9031J9029J3724J9571N1364R6507J22509J09907O8593K4175k766p753m346j4578m7006q2580
51902H8973r1350o6548l4568k5299l7129l9082q522L9717O7552N5328K2239K366P625K2095K7860K3382J3940l016
51884F5563l2134o4317p7459n6252p888M3090P3849P7358O1159L6449J1202q395j7337j7396j7352j9642j1322J9433
51866E8609N8493P2998M9804J2805r264j9454l8845o4034o4364k7462J5519K6780R516j944P398J6520M694j7933
51848H9836k8264k2937j6590j6030j3357k997Q994J3916Q103q552l0393m1640k6876R302M2465N2169L7940J0989
51830F6078j7794l7896m0696k8771j3987r64J5198K9305K2504p782l1740k2977Q90K67k7240l8503k685N7073R3841
51811A4121R0860O7670M3496J6388j9455n1744n7173k8740J1515L2817K7376J4365R939M837j5940l9519l2615J2777
51793A00975N9851O6449L3406j547j2641j1432k0241l6156l5671j0831J5282J6812j128j0678j21J2398Q387n229
51775A67885j2347j4792k4153l6210l7178l2069m0199n8466n6746k3111J0417P637k3803m7345m7752m0028l5044
51758c43304k5820j0453j092l05Q667L4381N8376N9588M2035K0791m421l8175o2603n1692j2433J7158J8679J5327
51740b75296K9908M7081M0546J8620J2242K6254L4423K4416J7632L3039N5017N4376K7074n551k6913l8890m6709
51723B7269m4033k0243J9782M9290M1820K962l0687l4383k5016l0826m4685l8169j6752k0267n8296q5795o6577k5326
51705c99932m156K341K6852O4983P8957N8707L4263K6028K3907K1064K8007M1063L3826k234l8172m5874l0694j1868
51687i2932K259M166j6762m5890m0311J6446P9116R1898N8021K5791J8720J5783l781l1892n2548o3081o6066n9958
51669a61021m4285k0366J2712M7283N8138K9026j2836j7836K2850O2661O0710L0662Q872j473k2998n3414n8733k2855
51651h2903K4065M1357K4744J482r835j4990k1673k0546K264M2828P8567Q6578N8640M865m9303p5295o3792l6220
51633i167k3958l3596m1855k7677R62J8178R581j6194l7843l5953m745M0238O9605O4977L5789N711j4164l0635m9788
51614h0534o3689n8892l3077R3K2165K6822K5514L2237M2768L7794J0726j8184k5031j1438J703K842l301j3436k9836
51595a34754m3250l2298P190M6104N1539K4623o435k4260l2466k9404L50N3420Q8460O7461R093k7746j6288J0230
51577A1569J3301K585J0606L5396M2270J6281j9360l9679m4202l9769k3424M161K7768L3779K3692L676k2326m1481
51559e157l5711r719M694j1267l6963m2237k4774K37K5637M3656L4482l580k9218j601N9657R5904Q5215N6185K8505
51540B33945j0750n9462p8214m4223P978L2047K9180K9238L5208K5119k444k3225k6153k4753k6896k2484p988L148
51522F9271N548J4567L8884N8530M8370J1975k6159n3976p7128r3788q7624n4252j6901j057l683l097P714J6212
51504a46594J6301J7671K3915K2164O377o367J159K0769L2923L3135K5350L928l0321m7767j9991K8491L7093j1770
51486F466o5866p2492m1878j6776p727P205L5265N7159N7155L7716Q650j4464r036K8431N9222L7949k5931p3487
51468G561p0792m6206l8569l9507j5152L3552O5036M9323K057l7271m4123k1121J4301M4058N6387M8759K8271P539
51450D4103m437j0083j8461k9033k6316l05L2060M0418J7550j1854k3014j6507n173P020J9215K2126J2578R674L1370
51431I0931N6677L8959l2248j03775j11874n2999J5887M3263L1294J5808J6741K3525K2053J6478J7256K1145J7103
51414A26224O146j198p064k7135o2171q6712q1020n9815m8830m2926j4796L5137O6851N0608O491k2711k2280j0434
51396a95635l870n26N844J3410J8353K0926K1779J9905J4663K784k3204o1938q9873p6377j9028M5546P3651N3506
51378a80084J0287k0060j7755J1515M4420N7966M6322K2245J655j1098k1292l0969l4556k9558k6139l6722n3973
51361b67796n0286j0912L8916N7547L7822J4825J7717L6602M9972N9392P1833O8222K6459l2073n8035l9329j4724
51344F152j3248j6546j2K1469J7602r402l1228l4794k9279k0134l665J4119J7085J114j8825k5652j3493J2740L8729
51325h7268M6202L1350J4996K0994M6808O7780O6609M5615J4826j6355l8139m6437m8790n1707m6732k4420L400J5133
51307A3865J0089N685M676q441l1887l5502l217L3122K7117k1751o3081n3835o368L0260K9034J2629J9264N1438
51289A3097P2682N4501R751k8095m2582l7605j8455Q539K5465J7024l875n692K2407N7199P0442N5478K2595j4261
51271B78615m0114m4098l1252j9378j8530k1673j8061o374P294J5622J3720M158m169r097j8857l2857l3164j2934
51253H851K485j0996l5388l6078j6523o736m312K2284O7154P9763M3791J0135K0336M4860L8198J3557J2348L0490
51235B84219L2105J9239K8930O2392P0437K1549n4101j02272r8722n7456j0774R894n745l6576n2585m6722l0498p398
51217B5916K4647M9825M3769R483k1673k9463k2711j5837j2798j8595l9501o2119n7074j8334J9882K1154r909l4709
51199a48047k3747J4575M3006L2237n682k6559o972K2904J8542j7062l8490k0509J6211M4282O0653O8139N7767K7849
51181A19097k975j9963l0747m4002m8782l2770n707J2448J4783O453n224q158R382L5898L6271o519o2401q5532o4006
51162a82454k1666J6816M1404M6208K7765m140k8438k8120R09M7977Q6097Q3928L5203k7842o2432n3767j9815J2371
51144b9996K5030J4364q998k7509l2018k4807o692K3640N2603N5475L0803J1396K2437M5125M2940J0127k7485m7251
51126A29184m2685j3986K8246N6999N1067J9501j3375l6453m6746l4932n678N341k6297o6288o0648j6216P855r416
51108g4527k4397o800J2929L296j2727m085P776j3469m7701m0797J1652N4273M6636M700l7591o7564q1692o9022
51090c39110k8153J9336M9694N9162N5832M3658K4698N366r040j8086j9537q620J2536L4688N2514O4191O0545L3075
51072I2749k831j3873R640L5525K8849m217k9585l1490k4300k3104k5633k6870l1832m3510n0495l8626j0352J5793
51054a74162K2839P852j8711l9190l7393j1192K0830L3315K0671M672Q914L0577M7530M9695M7916M9963M6765L2285
51036A43176J8159J0640r905n8820j06055j00678m0192J9021L3930K6358M0499P5864R3334P2349L0414o874k6016
51019B15204j9879Q244L2323K1647k1995o4865q2224p7698n9949k7160J4920M4129M7493L7986L0842J9548q587m7055
51001F2924p7476r1004q6907o2103k0985J3354J8254j156j9457k1724j1571N999L0605N5130O5361N5072L1035L225
50983e1424j9385k6378j4262K383L861p308o576J9028M9991N6030L1367M71p918J1523L5367L1847q430n9558q2114
50964d1485o0003j3264K4492L6098K8795J9609J7144J5992O706j0525k5432l0888l0319k8763k3157p751J5303L6364
50946g1084M5891L9071J9492J320j763N759O300k735k582J4205K3941M204k9914m6894m4472m5066n1836m1830n160
50927a83153L8744O9970Q5570Q0693M2996j7113n6066m1146P316L6842J8653l0208p1627q0002n6917k4024j142J0818
50909a69796K1483L0447K8569J7694J0701R766L718r184j6639j6035j9809k8645k4025k78K0773K4001K5751M3029
50891d8479N9868N0398J8751j0944l1040m8678n7615m1907n620K6587L9156L6125K4316P170n304j177J5269K5705
50873E2581K0685Q470R84J460M286j313k2429m9385o0347m7456k5652o406J7231M3926M7894J7557j1458O29L5332
50854B6589L8032l464m5449n4109m0545k1988P431M8038P4403O9097M9864M0527L8395L1831K6186K6988J7209j9661
50836C09374o4947p9843n1055k568L3652M2688K7563J852j7788k1051p475J7996M3898M8508J5422m0760q1076q1859
50818I2531n1872o659M8020R5883J03609O0017J358k9349l3383m1618o3828q1967q4121p5228n9271l8866k8537l9917
50800b33198n5804m7835j9892l571p875o569J5636L8074M2346M5008O6727R1379Q6141N0354J5435R03k712o406l801
50781F4340J1638K9745L6988L4906L2623K8840J5250m830j5056o613R401J5311N525j3219l2722m6372m7695l6978
50763H1082k6221k5492k6415j3524Q234J6007M505j539J5247L2468J5154l2776o7485n6035r746L5767N6751N1984
50745E7966L2585J2580L276P891K0916L2788L3393J5864j5154m1532m6979l3530j5534j304Q466Q863n565k4089k3914
50726B6987K173L4543M9008L9535J5458r579k0417q960R414L407l6139p8498q8938p0232m9430l4324r060K9210N7161
50707a38681N7478M3647M0257N1835O1797N1875J4400m2320r0224r5855n3797J671L2512L7297M0247M8326M3002
50690A03467J5214j6099k9488k5504j4133L305K3037K6499K964k4693k3423K270J2558j2095m2297l9408m066L1664
50672a0228M5862M0877K4720l1k8659n1350o1036n5415l2933K252L2543L7212J3935j8057l7448l5435j2430K6262
50654a19359O5980Q4321O7376K3610k1820m6772m7813l8850l2386k2201O114M3257N1460R152n0963p3385m5711o588
50636a54578J1909J7953K7651L3688K6961K0645K4904K0469j0623m5275m6351j8449J153J797Q957L2305M6575L7021
50618C6712K6235L5695N1191M8528K8709O615j1565j8638l7L7060N2765K3317k0287l6452l5303n4892q9459r2087
50600a1893m9736p353m310k6340l7420k6197k415K3544L8056K6149m456k2139j0684J0569J8936J5821P074j3857
50582g6651m0518m0571R86M8099N4851K2298j5463m0994n4151m3583k285L8982L9548P939q886N226K0361J7005J1685
50563e6122J6109J5309K911k785L017k735k5111l1662p049J2908j046j6557R575N2455M8289o985m5263k0209L3918
50544b1033N5528L1719k901k0058k4742l5850n7258p0465n4471j4314J7820K0309J1869K5439N8169P2117M6601M426
50526D2905k3064l3550l9961l7987j2131L0576N5544L6859j2477n5030o8802o3133n4553l9816o606L3936M7339J8746
50508a81205k0301k4996J1345N5120P4729O6504M2376J3610q802j4830m723J1559K7116M0990M9106M5687L4771K5801
50490B43857J5683q139m1211n6174l4865N499K9956K2045o363l3169m3949l7532k3281j0808R23J8200L3658K5249
50472I9579j4682n7431o0497j3718M6643P3179N2100J0749j5053j5715q713j0999k0906k9354l6007m3266m3525k8279
50454a15895n102J1304K2182L9526N8057N5612K7990J477o06J4969K9286L6931L8398K5672m381l5971n3133n9465
50436H6851o0206m2643k767K3411n699p2840j10325q1851k2222J7648L1961M4007N7561N6867M1207K8102K5017K1841
50418C5920J0543p335l1226n9448p6569o4363l0371n865o569j2051M009L6545N6136M5668J6680p109j2659o536q083
50399a22683k9677n7954o1930k8333J8961M5871M6404L9360L4906K6757J5876J4901K0205N078m0446q1508p4340
50382b28552k1027L4805O1546O4504N8794M5797K6491J4048J4702J1103j4422m7447n3499k2695J6149L1942K6761
50365A9000K3632K9133K5937M029j7104j0632J9668M0167K9633N734j874O365L341k1990m6728m6899l0722k3313
50347G377k7779k0834J2417N4861P4865N8585J9352j7930l5000k8319q752N827L608j1939k7106l2136k8477k3004
50329b4384j9326j5710p528R272L1238M1505K0170k9125o8461n7377J049N8180P0327M0971N458j3745k1456k6596
50311e538k4939j0189J1337K6547L0799L0335L0988K8724J3224j7936m9415n8276l8258q485Q445J1291J3662J8511
50293A0827J4192l782k2771l0852l1798l3380l0741j3559J4407L3789K8584J615k7850l8002j9166J8229M8954N1245
50275c0059K4621q688k1111k701K9157M4153K7172q354l7363m9145m8991l8148p594M0556P6750O5130L721o5837
50257f731r5930p8239m6107l2760l6562l3750j5857J861Q166J1974K2325L0241K6228K1738L2553M8779M4038J2509
50239h5524k3436m2036l8750j5076K4698N9791N9761J8975k9957m7947k4870J9203N2105M6159q53n1518n6680j1194
50221a47149L5993M0396J1347j1878j1508K813K1060L9100M8550M4964L9267M0441L6144J2685j5572k2732j0756n368
50203A47797j6524l0551l9797n0185n6602m1522p369J6780J3507o22m139l77k157n199M040K5567M7080N9162N6611
50184A15500L5223K214j9223j3080N339M138k6164o0737o9884n0550k3622o046O218K5688N0764O6098O6005O2830
50166A70711O1746M1981j5580q8633j27277j10910o8516l6164j8252k289J1765J7117J8724K4054K4868Q936j5111
50149a02830k3098m389K7206M8887M5380J6904j7518l2528k5051k0730l6039m6630j8169L8538P3629O1169K6435K546
50131A3712r382j9744j8176Q878M3003M8354K0944k440Q625M1114N8810M6473K0466P31j3635l5301o2337p2888n1998
50112B5209j5659N392M245K200Q970R79m0538q6443q6282l5665J5147K7694J9042K1738K9935J7378q556j0221K3260
50093h2175N7185N8949L6132J2784p082l0284m5879l3151N363M0223M7385L0471R507n63K158R367R093m188k3222
50074I2073l5508l6080k7775j2193J0103L0793L6342K3855O762p73K23j089p674r642J498J8630K4847J4251J070J969
50054A31682J3051J5052K624m286J3594M6097O1439L9004j2984o7083r5718q7489n6358l1530k7851k9915j5666J0530
50036i5807K3763J3875l609j3183j7502k4114l0742l2843l2254k8239j1274K2635N8756P4603N9436J8408l2690o9694
50018a20475p0349l6693P29J5846J8221L4270O1212O2354J6192m7325p4395m3726J7209O6937Q5645P5691M4565J340
50000A07248l6749n1037l9716k0612j0523q281l411N617J0631P516P71o263j7794l7819n8451n9978k7546K8113P1443
49981a46841P5190N2088L7987M1232L2278m037l3441j8507J9644K6382n807k6548n595K1739R266l5091o8868p3950
49963a02879o2201l9617j093M4796P6991Q7765Q3739O4699K7439j1283k4466j1886j028n560j0946j0873k6206o5564
49945A1827r3163o9043r677K5158P216k6797k4882J9640P0074R1773P8015M0641l551l4704l4213J475N3701R3332
49927A96822J00976P7700L9932M739k2504m6816p0260q4794q3109p1056n9683m8322k8560l973J1005J5861K7879
49910d4163N0201N5608K2366k7355n0046l6350j8846k4243m1976m6317k9163j365K3019L4408L1108K2119J7812J5802
49892d7381P376l441m288J359m335k3319l5423l0505k3144k2961j4704J3996M6702O2173O6164P4387P8515N7830
49874A99001J7144j4514k1553j5334j0440q121m691Q27Q802J4792N323k6630o3073p3113m4430P118N3897P0605M2403
49855A38013j9997p7007r2306o9375m1854l2212l6562m3395m4938l2905n413K3246M0601N8570R1983J19665J01465
49838G7579L7933k2105m3282l9181l3183k1100L055J6440m079m2779o5822o6393n9604m5594j1274L5964O7749O9519
49820a46157N1596K5884k947k1384j0381K4396M7552L4049Q33j4583J801K8309L3626P491k9888m4542k0740J9960
49802a5125L7665J5355k5452n1887n2583l9037k6399k2964k9345l4437j7959K6746P2799P9839M0254q443k6804j6911
49784i4688r788j9524k9684k3138m625J2084K1827K3140J1617p537j2189J3512N4148P7687P1616M8468J8666k1341
49766A30251o9337j04237j04133o8403j5539L1879N5521M7931K1940N020J2158K8367K8118Q571q385p416l24p317
49748a5335k4916k6655k15K7710J8244k9429p0465o3025j1654M5764P9501Q2938O1261K7945N648O945J5231O169
49730A35662j3909j6423J381P680j3294l1698j4661K3063L7093J0298l1981n6894n3322l0389o911k542k3215n2977
49712a33039p0375p0782o1911m2712m015M9056R1996J05657R6303Q4531Q0618P7014O1446L1668k948l1013m7049
49695B14445m9856l8646j7033K664R012N239L322L964m479k4169m0135m1592l5957l1331k0547J445J6875L401l0508
49676g3886m8104k5759K0403N2653M9148K2678O670K0572M6736M9226J8442j7146l2727m1810o8549r9496r3612l9928
49658b54489K3140N4406N3353M5714M4905M3949L3705J2056j9436n3272p2096o0795k6760P64o84k0689k5123N762
49640b15590N2665P6288N9031K0479q212j5343j1297j1199k2151l9261m6528k9258O477L5015M0556L5910M0232M8096
49622A5910L8070P071k2751l2785k7832k2904k2466j9755j0645k257o152k1208k6958n420K9667M3685K9196K1370
49604c6164M7296Q0114P1109J4659m8751q5597r2920p4830l4275O698J5291j0506l7561m4770m3447l9755j5017L3394
49586b95032O6721N4056K1933J8125M3486N8106M5187K8866K8451L1052J8512n657k6866l7454l5822k3960j1988
49569b2284j0703j5961j4920r552j5840l5436m7088l4664p460J6231L0498L6816L3016K0786J2791J8022K7299K5412
49551F963J1905m13j450J0051K7753L5600J6129k4125m8082k7505J6498L5282J4598r845m837J6901K0229m610l6969
49532E4073n5972n5163l4116K453L6676M6923L1041R284N11M173P600J655j3541l0766m0765m0253l4407k7219j4951
49513a52764K273J0401k037k2773k9802k3771k4439l4020k9520N70L5440M9418L9652J5776j4624l5972k5734J3119
49495b28807M2992L9362K6406L6630N5897M5793P652j6968o752J6572K7316K1621N62l5610o7508o6285l6350j5949
49477a53426k1008k2544N86K2049J1860q431N866N3141Q4525P1961M2915L7158N3934N9181L3472n567l0264l8986
49459A96422n1916p3221p7203m4993J380K4222K0062J6830K5440K5845M877k4119m8090o9739q4879p6980n0667l7986
49441c24715m9129m7885l407O0519R7562R6094P4471M4458J4955R298L6335N9433L6863j7063n3083n9346o6261q3317
49423a74218q2396n1679j9313p976m852P115K2879L5447M8361N2819K8399j3614k4652J5375N8340M7542o137m1935
49405a10495k6323K1242O7342R4335R4880O8859L1059J647j4325k4592l1310l1679l1880m0501m9902m3950k5392
49388e0985j6026k5276l6028k9329r267O416J0720J1775J7113K3145K1829J3375Q052J3462K2493K0243M506p880p52
49369b414K0109L1776J7962j6405n1343o7860o0576l9248j7353J083J9339L3893L3061J4779m105n320J0760L1496
49351e0366N1228P1208Q3914P3972M0004M569p474K628Q196j2647n1525p7191o6542k5138K1674N1600N7565M5762
49333B21437K9927K3048K5879K6219J6475N487J915n748l3196o7915p7114n2584k3276j2945r709N058K0297J4093
49315A07348n171o776J5971L4218K2806r072l3069l2651j3177P607J4248P049J908Q861J4481r22l1494m9997m5833
49296F335l7660l8551k9626J1371O6450Q7334N2338m158k8672n874L1317M4049K6686R0k1390m1354o1996p0642n4887
49277f8840k1673Q944K3308J9475J334k0365k7719j1930J2154K1698J3681K143q180k3549l5727k2521J4305L6761
49259h6701J7551j8715k6192K166L2875M4128M8474N8840O1112L5683j2218n8718q5057q4052n8281k6976k0459m6903
49241b23443p2757n7694n025M3898O3233O5461O7081N9322K9095j0540l1854k5037l205J6927K4228J2293j1938k4706
49223h4661j0749J0758P320j9172k9867j981L7767M7676K2895n459j2875l750N484P154K692l977o247L732K4633
49204h627L9982L1444J132k5250k4403k326J3760J0833M684J2555K5573K3845Q835o58j444j0816l4039m9497l7497
49185b1914p282J7367K6485K5736K0672J2496L316m150q139n427M907J3917J1343K951K815O902k672k2162k4733p466
49165D4962o214l9610p0702n9197k4471j2622k0503m727M1439P5361P4524O5901O9658O1728J8696l8354p4716q6599
49147A4554q5964o8677l0682N623J6094J2058K0794M0078M4949L2647K6310L2649K7537o290m9054o3354l2611K4759
49129c8580P0246P3729L8089l225k0361j5396r407j0910j1779o886N77R514J8907J9231N606l804J3926M8844O3843
49110B42164M3470J1931o548j8089l3301l7550j5275J1858M021m1874q4637r0147o6299l8870j6015O913K4083K4045
49092h0120J3298J3449L0234M1346K4563j1746l6890l1497l432K6221M1890L8459J9157n571k2589k4358j1685R687
49074C0416K9631L4247J7889l873o462J2993K9014J8986j1377m2959o9165r1393j00116q1855m1758n26L0173N2193
49056a93942O2698N1892K2145r535l3039n1319o0341m4973o238K7478L2974K0645J3504J2813N646n035l499R715
49038a48411J6476R636P34l965j2670k5586k4584O38L1454M1688L0858K0685K3679K9854K4452P797n301j190J7897
49019C4141L3659L0498J5546J1353K4802L5832K6953J0854J0400J8716L404m5583r2808r3356m0756K9245P2497O6681
49001A52078K0292l4963o5669o2399m3973l2776l1949l1825k8502k4608j8892r009j343m122j1198o242J4024L2017
48983a89059K9202N985k1712l8536l8995k7426j3593n555m479o981r418o726O952K9140M6429N0862N2028N9010N7879
48964b4993K9214j3561l0754j0262J1063k741l6823m9276k9980o583L372J5180M3458P0026O3701K2120k3650m6419
48946a6908n1607o0973p5502p0893l5759K157P978r491o170L3782P1390O5108K5131o339r122O981L1001N4521N6749
48927A2034K3165k1364l3713j2132m96k3111m9551m1629m689L0223M8869N2456L6907M674j8419j0624J0944J4414
48909A7958M565J4355M4921N3080J3032m0873n6186k7534M272P237j1477k7369k9439k3344j7513j5819j9434k7858
48891a37426l6717l8156k6840n301J9212M2430O1878O7208M2600j1143o3638p8718n1634j0795J7778L3163M3423
48874a32676M4965L1727J3492P023J1212O539j7567m5622n1338k4107K2586O3488P8730O3811K9345p118l0960l6594
48856B6936k9523k3712l0510m5008m7890k7388N012K8746L9356M7779N7087N6281M0615K1704Q120r168l7538o0065
48838B0834n1163j1779K8459M5084L9900K6378R893j0092k9472m0257l6915j8342R969L3609L8201K4462O520o445
48820G8844j6116k1149j3436M740J6187J3192J1705K6599M6395N0344L8330K2581N72l6539p3236p8289m8828j8720
48802C176j3981k3643k5251j4965K622L1055O7148Q7642P4734M2455J4558j1261m8482p9719o6169n681N0640N6796
48784A41674K4545j729n744j0208l3439n9883o0414k7741J7360M8939N8261N4985N0941M6067L2146Q011j5708k8755
48766B39308l0888k5340j2444J124k838l1991o0075m8938m11L6258K3765j5228l0830j2487N823N35j4435j9981j8382
48747a7455j3458O257M1428O1733M0252n595l4578l1948j1130K3160P5319J23146J23448O8649N944j9853j6916j8403
48729D00000k8019k4016m432M628j2839m0361n1004l6952j2615Q30q984l6294o0578o5385n4463m3755l9224l0697
48711a44160q304K2123M3027M1185J8759r355k8104l2221k4082o091J9080M2919N3944M7129K5293n467l2853l7170
48693a4348j0685K2452K6545k21k1977j5589j607q295k5942k1650J2399N0362O7099N9344L5211L160k6265m2394
48675H7599m1568k6125j186K0338K0284m154l1416m0589l4541k3639k322L4381O3568N4546J3370k1142k6909j8111
48657B2384j3327j0989l398P608J6491J7602J012l4168o1900n1178r763K2241K8613L4854N8205P4750N8692K4836
48639A82565L605l514j2941k1048j1195J0272J7469L129j3614j8675j8650k2139k6181k6087k2555j5424m735R48o699
48620e469j7260j0591J0657J8057j502k0257m374L7088O1587M9307K5100J6564J3999o982l7683m1400p642K7218
48602A06417K7027K781o216J5575M6377N6838L5465p617m4294m4913j1979J1063j1328n6536p0183l7326N480K7726
48584D4357L6153M0904L0449m63k9915l8518l4778l1005j9971K160J5444N488p892J396K7070M5427N0312M6704L0198
48565B13520M613N03L7164P8453O8096N531n2216o5086m9543l8937m0023m0523l1821j0939J9867M6812N4778M6707
48547B46956L4567J3678k8089p5985r5414q0599o4489o6716o1945k1012L9845P5435O3799K1833k0729m4294m2994
48530a06153k2007Q138L9594O5311P0818M4276L29k4329j2128J2264J3818q898k6557j8243P259K6205K4030N699
48512I9426j0365r819K096O340n964k2399k6573j8373r274l780M369J8048K6507J3916k1017n6153o2927l5833P46
48493a11029J9776J7512N983p042j5279l642L4264P1848O9751K5130k2498m1613m1400m3482m5510l2985j0882M28
48475a30670m804j1194n621P076J4305J2561J0073J5629K6710K9859J4739j3406l7574m2918k5894L178K3883K3840
48457i0228J9363M0456Q2144R3375M1071l3269n7898k1666K1550L5210L7034M4540L7303J495l1088k6477j290O027
48439A97652n112m988J4023L0105K9526J7993j267k9725n4479n4769l0750m372J0003J7637K6740L7980N0009N8537
48421C04743N1272K0560j9790m5923n1286m8954n0424n7262o9228q2320q0329m7339P895N3730O4711M1145L763k0501
48403b5537j4352J2907K9051J5254o457n65L0898M7171K1679k4151m8071l3009K801L0011L2186J1755j7381m0404
48385B3786m7918l8309k0256r383j1667j2037M868K3360J0295l2542n8046l4224J1291L3911L6386N4600R2801J13486
48367A40402R0822L8860j7227o5720r6998r7811p0714l8282j6667j517J3428K2847K3230K1545K0421J0110j3977
48350c7248l7126l8736j3570K4102N0998M9853K3907l305j0395K755K4286M6671O0039M5033k961n2665o8503n7188
48332E947n2007n5931l9047L277L1052J5972j5887k0109J0980M9316O7078N2816J0104m0012o8598o6743n2344l9505
48314b03641j9740J3402M2483M8808M0120L4325K9120J0505j7760l6287l7995l4366l3881k9905j3091J3300L3367
48297a61236L2221J2141n962n099N677M536r180j3216K194J9484K3545K3898L1631L4064J3771j9423l7357k9685
48279g7996j4518j4230l1086m5105l2000R998M9115M9011J4319q414J4795O3800Q8661O3781O774m5707o9446o7198
48261d5446n9887n9128n1181k0728J6457K9770K0877K1754M0050M4029J7427q985n400J2554J8527K3033M8012P8782
48243A20517Q3549O4065M5212K7386p162m7898o0664l9868j6712j1420j2964j1200j3693k1705k1548j1283p950j6185
48225D0477j5155R462M0981N2111L4666J403k6201k7727P9L0979L0624l623l9441m8797l3574j1386K986j324k6110
48206A0430n2841n6353l6362j6277o126R826L9708O2838N7232K9684K119j7447l4339m8584n2674m3694k8193j7331
48188a98384j8617k6009k1062M101K9337L0579J8244K5928N7613P5989N6280K3861J6803L1811L3495N796l1397n3303
48170F1065n5997m8480l5322j5627O441J8082J0185o762r209Q431K0207L093k4175k2019J2850M1112L6970J9281
48152B0126J3386J1803m706k9887m2328l8903l3878l4120l6058l9020m2052l4494q324K5095M6370N0953M7742M3733
48134h4562M4020N5541P2284O7698K4970l1718o0747n5775m9864o4016p5926n1242R870O9608Q8793O0418J3535j2613
48116B0274l504J9861K7589J3451n873j6474j8742j6685j0600j304R749K4095L8802L8615J1900k5475m1370k8538
48098C5771j7004l4706o9911q6338o6039k3420J6589L9324M1988L0088J6671J5430K8707M6231N7578O0859N7222
48081A49040M3390J5668k0787n1798o3950n3449k7671j043J2741R648j713p551N3J8278L4727L1662j770n2138q3495
48062e0158p1326l2740o863n881o774M167O378j8075m6495m2220n957K8580M3243M9888N7781N7042M1043K0126M265
48043B6024p678j4596r593K645N247n569j3909j1027p935j1948j2821m479J640k94L567J9779K8063J0908j5469k3709
48023d1154j3347j649Q767K4328L3375J6753j7224l7942l4283k5299k6374l0538l0195l2898m2781m4603k2031J7446
48005b99649M7845N0452K8265N6j4370o922J5209L6852M4875L3845J0693m044P912L7424N0811L0070j502j0063K798
47986F0557O536j1132k8245k2632N43K4100M3215O0152O4911L8480k0691q0697r6811n6226L95J5917k0352o1754
47968h3734o4968m2367l4690m8157m9144j7459K5653M9094M7076L2509J4916j386r544m319J0029K2272K2399Q284
47950a23536r179j0399J3237M5545O1716N5807M1003K6982J2138m322j9271l4334n2275o6380o9507o9279p3227o3976
47932c39257j9307M0914O3266L0741p833j617L4754M7391J9228j4649k2187j1415n219m394P999L6149N9885N5000
47914c0551K0406j8371l4307k4756p265O775K2977M7253P1513Q2265P3086M3001m873n3741p4742n3086p437K8043
47896H6190L6426K3982K038k2368m1486m8995n0335n9121p7587q7897o9436k3221K4716M6216L7890K2945K3156L3353
47878a43534L3215K2193K5586N7287R1671R0372N1069J0467k674M03q702l5339n9630o7703o6553o4127n1614j9418
47860a37031J8302L3833K1380N144O021J6150J7545J1290J1297J8408K0493J4764J0625R759J429j8139l6846m3092
47842a8668l9586l5535l4247l2243k3055p25L2798O4245Q0386P8812N9386J6577m1752p8957o1898q181K7489J8808
47824C654p596j9140j7150j5890j2175J458J5372J7718J3906J0886j005k8879n5212n7538l8519j6594K15J1213R064
47805a86212p245j8108o381J6404K9656L4747L9739L0748m834l8771k9271J4304L7790J8141j0594j7806j6819k2463
47787a36975j1532L6921R0140R3076M0672j5954l2245j1856J2628J5687o634l7874n1903l6093o510R514L694j1257
47769e6501k4568l5492l9992k8075Q6K8790M2709L7918J6247j6059m0145l3683M41L0165L4067L1226N0432P9633
47751G7199P4823K1930l7482n5156l0708j307O753l946k0294l0871k4458p81J6401R12l5372m7732j6479K2343K3502
47732f0723o956k3411m505K3573L0449K0368J2756M942j9873n2967n6176q988N7966R4226Q5322N7906L4821J2814
47714B01544q783q338K5126O0144N5782J7546j1532j2697j0898k8181n2099o3789o7041o9702o1358l3301k077J1072
47696e8582J0544J3817K1125K1370J8269K4511L3937K4116j0865m7973n8769l4430J0607M8572N5391K9452q025l6410
47678E6657n0583m8010k0836K2856M9162L5092L208p474L316M91l1237o6218p5495n8896l2751q650O876J0566R700
47659b02226J6857L0740L4606J8092j0599l5461m3672k7356R835M6258N6367L4191m825l9919n2864l2276J0566M0609
47641a51077L6456J8917J6724J7654q311m5030l8790J9333O6502M7427j4402n2762l9916l173K1961K7367K8137M1013
47623a1970O3357O8692L5655j6737m3688k9098r8J9055L5307N4895N7993L0692n625k5635l8106o3008r0280r3312
47605e1911o9871l9893j3839R321K3774K4671K4816L6444M5377L0712J335j5879j6498j6641j6084L478M2410P5501
47587G7223Q4537P2890M5421J488m5643o8571n6610k8879q333J451P408J1030R514K229q919j8866k1058j7618k0558
47568A8136l1808l4231j9792j1577l1126n5945m4502O71L2594K5832M952k261k023p393q160O792K2079J6789m617
47549a25590k4059l6049m1618l2928p257J6785K0404J2382J4636K8933L8893L7455L1646K6458K4016L2258N3175
47532F9540O8026N7823L5631L3402N5084O7758M5646K51m2562p4367r9312j14285j11091q9400n4584j0621L3443
47515a29618N9025N4677L2126J2606J514r947k2182k3197p993J3703L2310M5982M9076L0674m469k8478j9828Q687
47497I4668K6996K5461J8393J5184Q590p008k4466l6118m1836l9938k5193k329J2288R083o828k9253n4626o6846
47479a23778m2601J2449N3516M4236J61l5647m5475m0963k8514l647K4272L4766K8229K7133L8456M1464K3187J207
47461H451l453M893J1791J8580L2321M2073K8794l413k5470j7156Q692K1228M758k8150n4369o4669o5592o0629m2557
47442a83877j0487J8736K9788K9529L1557L0187J3618l782N650L5196M4113J8745j880J4216L7975K2007k3411m3149
47424F4731k2158r870m4022q8598p8677p704O2642P5830L6755r345l0779k8571j7272o945j819k75O744K3962L4627
47405d0744J1214m5613r2296q4633k8843K7042M9607M8143M5075M1342K4920K6j0514P876M1748O0372M5769J1942
47387A12433q659j7K1489L0142K0452L926j3152l2067m9012n9569p0598q5084q0114l0652M1402P5651M5266p664
47369h5827k7443j0107R302J2482J1266J7058K4933K5808J6312M87o723J0834M3626N5477K8997m903p970J0736J2931
47350A37276p503j9780j0893m170j3596j7425J975K0796L802m4082q2202q4254o3201m6709m3977m1476k2437J5419
47332c22437N9080R2543J07542J04022Q5902N9180K9962K287j7823j9130O68J7476o51m7671p5564n4097j1777P813
47314A7325P465J8009L6669L1338J519j6184j1084j6788m8525o9951n1622k1048j6959k7346j7012P684J0544j0004
47296a75970j6394Q307L8001M6670L7917K3410N122q770n0L0351N1443L7181l440m3023o5440o7313m8461j6975J0325
47277a57109K7703M7842P4688Q3910N1150r980o0213p9771p9723p1676n1981k1763Q10K437n935o047K119P082J0152
47258b36305K3754M5961N5582M0119J4652J508R87k984j2996j2290P558K9195L0293J1171j0961k7608m2743n3823
47240a38930m7954k2879L222J2932R915P131M222p802k3422k1780O280M2407N9319M8578K4361N306j114M59J854N56
47220c7339J752R687J8253J6420M390l438L650J8696K6680K0977L015k5162n4196n9713k2228M0942Q2143P3084L5253
47201A52866Q481J907n069k1264k9538j9133q418j9620m5416n9440n2061l6245k1581m535J2576J6015N524M652K8127
47182i2172N4050N2248L0815K6001M6767O0216M1403Q882p420r699j7876k8428j9758N385J4149j2020m9442o0339
47164D2762l5553L03J7620R015o487l953J8221L3483K1067j890M00L3587O4503O3548L4492k739l5051n1744m1382
47145A60202j0676J2028J0371M80l25n611l4170o8050p0358l9855j3344j0193p545J6758M4664M2490Q660k4498k9999
47126a8971j0972J0578J6244K236k1202l6890l1980q026J7492K1680m608m3172n9070l2698K0228O6135Q6624Q6319
47108E9947P4271N2610K4125l435k6107m6649o4118p0261o1971m8779m1577m0925m1799m1397l4520r869L5870Q2491
47090b02093R7705O8227J2677l8467o7528p1059m9415j0081K3023K4174j972j9115m120K0652J9486l561j2264M225
47072b09506J6162M558p676K464J6017M322j8420j4526J5035K9231R942j1693m310J8509K0552q475m2957m8348r018
47053b38137N7563J06182R7234L5276l4099o9750o6093l8927j573L5384N9421O6357O4276N6669L4618k541l2551
47036A29309l3022j0880O809P065J694N053J4082J4575J382j2882j1785K439P594j0139l4100l6381j3649J3340L1808
47017G2312M5604N1176L3097n496l2833k6556m471m57k3939n7934q1896q0559m6820L372L2190J8856j0926j5109
46999a30389J2988M3565N2640M1303J8275r057k4381j0771K0498L0844q61m7140o0385k6586K0941L8803J4814k7954
46981d2853n8375o1153l8153M69L8939N9139N5573M4680M5850N4498M9661K8165J1270J1908J5513L685k0458m1789
46963A56569n1509m4719j7801J7501L5092K6631J6378K5785L9373K7300j1175m8736o3415n0766j6084K1635L0179
46946I2238l725m8922o0855l1771J2003N0577P8245Q0777M3440j5315n1681m6556k2358n062L572R042O803n281j7181
46927F7990k0673j8911j6930j6747k1964l0092k4061N749L5010L0745K803m454K1817M2337K5777n529j2563N895
46909F6199K1846K0351P444j0043k9521m5521n2579m7216k1385K7969P5503P9410L2526k2361m6101m7023n0462n3342
46891i4306m0921k5331k8059l7189k2246J3964L7530L8306M4507P3375J00644R5284O0108K0531q938k9275l9931
46874A58053l4937j3738J3186K9268K1841o877l8166n3608n3793n1677m8605l0798N659M0036M8042L0447R210k351
46856B1192j3561l6401o0424n9752k7588P184J0191j4306k4971M439M7998N7032K0163k4022l7065k5896k4348l9322
46838b19457l8380J830N4500P1767M7401K3468L0149M7438M2823K0954Q556Q651L856m937n59J1967P139j5857k6489
46819G4820j1488N623P280P388J4442O007l0752o3518n4346j3508J8681K5671J8595M108j6215k6696j3372Q458J4067
46800b4755P877J0253J6355O459r419p60K7363L1248o240m5272m1484J105M6518O9146O1957K7733j5755l9752l4881
46781H7696k5875l9545o8515q1598o2327k5311r8n936l5352n8480n1898k3810Q30J6177L5157N3494M4553L827k8497
46762b65508j3146L6587P2727P2038N4156M4501M1144K3242j9525p0445r5463p2611j6206L3360M7567L0849L121
46745i3612k2874l8501l1515j159K7899K8460P201l41K4403N7132N8935K1231k6731n1080m5307k8752k0576k1087
46727a56274j7307m89K5358M9063O2353O5224O2497N3674K9922r254l8367k4696K5256N7698L0977k9754o2706m6396
46709G6779j6739q732j4817j1300M035J9266L1203M0368L8028J7409j2314l8054n7634o8829n8028j9979K0583K8868
46691b9887j23l7472n3120l8684l160L5170N2956L7326M165j1882O860M2980O6249O6034N4773M4807L2124O491k7699
46672B47908m9455m3701k0173k584j651p474p344o16N818O950J569o372o577O630J9651R284k6084n6875n3400j8397
46652b893J9555L7626L5618K7991K7222L1483K4737n558m8062p2069n5854n795N0792Q2976P2250K8921r224j5176
46634B24540r156l0927p3758q1373k5560M8543Q0565O7847M7236L0616K462l2367m6105l4473k4989l1743l7639l2556
46616D1163l5002n6744p2220m8334Q062N3432N4244J8201j8310k5878n590J9673L4381M2236M5995L2506m893m2092
46598D0830m7532k4588m765j078K876J5610K2204J6393J7440L7483N7180N4152L5211J9175N584j6536m2628n8491
46580A28520o1993n8198m4045k0693j0146l1230o3745o5990k9962Q265J9093J4143J9671L8815N6174O1961N4274
46563A4914L1811L016q797R687L8780M8581L9750L7339M4538L2257j3196n8342o1149k5407R048K1376K6700L8872
46545B29778M5933L3604J0507o064j4119k0734k4434k1653k1769l5529n1916m6610j6183J3122J7289K312q959q852
46527G5723j1447k7791m5264m0948j4760K703j3312m3822m4001k441L8368L4327m581l0756j9564J0627L4148M7310
46509e5481N7026O2098N7153M2569K1415m819l1766n1996o3690p1065p2257n5943j6093L5217P3850Q0348N3643J4546
46491G4755q294n703K581l378j2502J127L4341N1827L2631l808k9107m1019m9336m5858j5063L1854N9399M9071K1286
46472A44804Q598J7880K7635J7223j0322l5123m3455l8491l0320k3332j6598r546j315R137J5333L789k6503n2061
46454d2667m7716j9098K384l112k4251l5092j8673K2765O6080P9070N1511J1757n475k222m681j4495p092J9374L2491
46435F0858J5888n593j0114j3242l2449m9076l7901r535J0180K1600L7067M5021K7660P5r126n993j7471l6617k8744
46416c7512O440K6869J3032l900L148J4900L463k0375k7204j3889r05m18r459k0791k0871P693O0161R8939R1176
46397A70497M8527J0587k089Q35N697R433J1142Q717L344p087l4429q2507j25672j25421p3076k365M4314N1996L5341
46378e2216J7993J4164K0723K1719M769k5342n2099o3489n8397m2211k3514j0370j567J2971L4153M4515L0979R064
46360a18155N170J8444K2949R535R83J5706L7764L8477J3147j8928l9421m1356k5384j705J2357J1471J0424J8211
46342c0311J6713j1351m2346l1784K2593O9085O5966L0551O722P027J2256J2144J5434K3662K3555J0299l148o778
46324A90289o369q277p000K002Q693j143k7732n6537p0367n8704k4097J4085L0239J5666j2219k8793k6082j5224
46306h1570j2378k6120n0297o3729m5706O91M7586P0509O8931N3407K7302m329k0581k446L6819N9054M2941L940
46288A04024l0145m8225n4722n3773m5437k9898o830K4131N5668P1171N9431K9560N343L865K0951L5900K9639J419
46270A72072l0484m6399m3750l5260l0135k3480o759J6690L1814K6533L777k1046l3667l1937k3562j5437r291o136
46252a06457o191k072J6363M2341M9434K3970p452l558L8117P3437O3470J6716k9031m9375m3604j7408K1557N3749
46234A34006N4788K0619k4467n1084n0131l2278j0935O338J4431J0035k326j1048j0778j0572j9970k9304j7661J5013
46216a5324L8250K6143p987k8209k0768k984R304J8652K5504J6624j0596l2425k8520j4093j8494l8587l9327k628
46198a25465M7517P6740P8625O9718O0267M5734K1774n930k6814l2710k2015n055l551l2677p8152r9741o8164J558
46180i8341O0734P3725N0217K8755L2732M8426M5894J5521k0710l3884k0371n021j0950l1384l8924k0888N682J7927
46162I9140J4273Q134M192m306j8361k8648k9043k2045r547Q390K2694J7614q736l6864m6178l4554j2887R060K4804
46143d2868L0193K9002L0552L4341K7819Q399m848N133K7812L8384K9224J2351l273j8825l1972l3590k0679o49J7143
46124A33649K3676Q768k6235n6170n2145j7840J1582J2597j342n704L08j630j9808m2214n2121m4715k9282j8495
46106a77121j3059J501L4576O9052P4911M7171J3835q61l550j0659j8501j3547L47P937R440J7820L0258K5745l470
46087I1825l7701n5950n9985o0943n5559l1869O707L8144M5206L3741K3986K7969L9623M6300M4535L8878K7866L034
46069A65807l2359n5793n0861l2943l0390m1240l1795J3127O0333O7830M1191K6739N0942Q8712R7667O6227J6430
46052D19624k8109n9598p4177o1158j6204M0115P0404N3486N001m0069o1535o3849n6057l6179j616L4973N1875L9574
46034B16501J0087j3760j5691K287J9750J3997j6436m7122n2865l4013j1091J212L814P29q382k0434k6230k2252
46016A01j7988k5878m7726p2015p9538n4287n56M9491N9338K6493j2809k3836p779J0940J7851J5204O424o942j5743
45997a79255q911Q611J8038J1764M242J1049K6730L3037K4315J4378J6654K4395J6588j6267n6218p1658m6693N113
45979a64088N3849P5805O7030M4302L3077M3860N7739M5431K899m4258p3346q2248o8673j9960N4360J04028Q7899
45962B17706L2104J231J3743K5499L297k8077l2542j8474j4605j6513K430L7599N0276K1038k4844n3365n9019n6193
45944A01291n3777n2314n2806n3548m5027k0634R848K7160K4191J5154K0144M1845O0613N5782L0527Q120N29q969
45926A08129m0762q2712r6209o2220p136K6299K4150N745r686k2727l7056m1466k5017j822J732j1537l680M6486
45908b29489J02454J07218N5368o59j8436q826k18P466K6272M1641K7234j0350l6777l9229l7121l9623k8686K83
45890h1478J4614j0737m7251m5694m432K9384K6638J0813J5255L4457L9539K4581J0923R989O621j4375m2513n3092
45872g6758l5015J382L6423N2582M2398J7080K292J1788K7397J9200j4819m5118m8965l4755k1029j0420Q74L827
45854g1636j0674k6347j1840M0084R8763J24786J03104M8205j0240m5340n0323m2857m3490m9098l8896o733K7866
45837C5334M5048M5924M1495L4519K2886R895o4q136j4196j2514m259m263k2144m4663n1933m4914l9865l9236k7853
45818g8939k17K7430L9312L8849L6425L2597K5006J9518J9159J0899j7769n2698o4015m6334k8575l4355m9541m4117
45800a67365j3978J8358L8365N3202P0115Q1432P7555N8068K2774l0182q5642j09693q5865l9501m083K4814P2711
45783a8915J29494J47555J07539N2055L0786L7125K9278k225k4972j9688q090j4643l0418l5132l3291m1547n2043
45766B52868l9891q302M408k2862n8196n6700k2456j100j2705k3936K38M3330N9570L4622k835k5119l3864m0669
45748D6401m4137l8639k9415k4810k2696j5160J165K6736N9774Q5657P9023L3076k1321m4030k9733p206J952L227
45730E9864O477P029J108J414J8392L5628K4374j7618n7936o4927m0772j4108p878k0734l4907l5368k2520j0415
45712a72897j1763k2509k4085m457K6110M5771M5540L5773K8339K1879R960l557o951L210J7035K4128K4796K5027
45694F1349K5481K1245J0937N87l118j22M530O767M414n521k3073l6713k7257J0627N4516P2492N5679K3521l425
45675B52916k3233m0863n0695m2858j9789N075K1689K7998K4939J5972P400Q41q660j8296j1653J6612L8593J9278
45657B15266l4571p5126p0211l8135j4763o490M143J9333J8602p906l8258m1467j4077J5541J9846K991o807N908
45639d6181K5033K6667J0405p008k0914l9833n7144m6423K865O2086R0105P2881K6608k4499n8950n9080k2919K5825
45621d0476N4345N0057K7549R627P572J4886J4140m141k5035k2356N535K8333K4274J0995J5973L0576K1700j5976
45603B07578m9305n2351l6201k3279j4454K297K5139L7872L0791R835j2977k9980l9008l8947k6545o29K8680M1760
45585F0276K9224O100l592N960K0091K4559J6547j023j9953k2919K039L9267N4461L2272q467m0666n4320n1767l7367
45566E0722k1913j9380k5985j8210J3612M4805M7214K7342J2475Q995M60j6026j9887j145J9067J7680M653R163L5327
45547A68969N1407L0627j0269k9277j3774K360j2849m0696l5892N939L5575J4914l2863n7521m4808j8907L081K5550
45529D1566M5979M5484J8004j4623k9175k6057j7872r862m245q908k5408l7829l0237j0716l325j7189l5275l4311
45511a53999p010L5458P3918R1590Q1184M8175Q643j7220j4948J1973L8492L6558L877l2410m6635m0923l2167k2465
45493F2091N93L5459N5847L7298j2164n4442n3983r884L9892M9847J1600l4029l9623n321K2588R347k7988m7105
45475D0023l3122r025q13j0293k3121k8359k3695j1557J176M445n531j8320j7169K362K5384L3695K7080K2074K8281
45456C515L4845K7129Q213q386k1069l7374n0208l9072k473L1445L9623L1407K5741J9810K620j5937j8131j1359
45438B0339j7186l1294k7105j570J6066R589k073l80O512R570J9253L6768L5511K866k4425n703L8503M8244N151
45419A38636m7751o7174n2713k4357M951K1545R744k2141l9033k0407J5712M3994O2926P6760P2020L9915M487l033
45401B14081J0142P490k4776o1368p4962o5322m6390k5994p628L666P453R281R302K19j7185k7874j9916J340K4075
45382h4366M4577O0556N9660L1394j1203l7445l1490q190R884K1480M0676O5453O8812L1189k6755n9617m8055k0444
45364A06116j4592k9257l0748l693K6806L1053J3641P98K198O309O603P396K527k4011o4171p7042l6538K7088N8609
45345I092M2688J1666o823j8745l4441m2201k9592r076K57K570J4344L3151M0898L4387K9780L4872L6119J8458j6026
45326A51378n2344p2368n9416j0887M6487O9806M1299j0476l9259k5579J2084M1708M5233K8208J1140R381J7184
45309B03579J4920n754l1009m3313m2233l8379l3253j7863Q170K7119K0188q174k9158j7629J7914L8356J3168m4408
45291C2241q8086q5758m9555j6471o850r676n600N676O964j0001k7712j9801J5781M9222M9732J8173j7111l1008
45273a89840j9719N929L2144M7153M6289L5610K4170J3257R14n806L855K5046L5909K1055j2119m4427o3485o7183
45255a11248n7226l5884n883K8450N7233O6662N3878L6685L4669M0996K8533j2209n6350p2802n7317l0435j2502p554
45237a12304m714Q521K9253L8374K6328J1604J3984J6177j7696q2837j27121j16169p2762l3576n46L6980O2673N5223
45219b68608L1047K4177L3474K9363Q053j389J3532L0206L0001K2158J7807J1714M441J3265M1409O0401M5468J0990
45201A57509j1166j4935j9510l4613m8480m8510l6369k0649n576J1014L3426N9537P3964N8343J5546k4842l5789
45184A08900k2229j1174j7142k8894k8777j4048L018R111K175o069j169J5626K2926J998l5794n4121k9484K1796
45166f3351O0070O2272L9600J8617J3643J9829K5744K6361K6286L4002M9701N6233L0189k9083q7881j09194r3482
45149G9556p3867p0098o5260l5064J6354O2561Q5285Q5306P0669M7148J7689j6417n0210o8906n8381k6769j163M913
45131C346L958N351k824k4550l3150p614K5992K5145p391k9993k5125j4860j2077n51K3819L3662J3813j0853j6611
45112e0513j8021l3118m0282j0303L6132M7984J7611p309N553K7156J2322l3250n7883k8227L3225P7213P9271N4315
45094A11876K8894J3032J968o717j0032r417j0670j2931q658L305J4689J9916K0421J4490m016l1363n1163n4154
45076B9470m9935n0403n1830m3644k6112p905P609K2439L4398L8019L3804K9068K9057L0249K2034k911l4397m4803
45058c5793j5863L4490O6645O3482M4422L1611K2881R971K681J3117K7108J4927k9794p8434r7027p7656l9194m135
45040d6561K2181M8812P5080P8531M1632j4567m6678m1490k6608k1932j2522J2647K8137R340k2622l0472j8478k0384
45022A4046l9912m6466k8512q276K577J9925M6867N6606L7234J8960K8118M1265J8880l2713o8382o5301m3030k1986
45004g0100N147M7268Q3600Q0457L3138k4664n4336m6352k0012R58N753m364k1992l6140l8374l2231l0124l5545
44986a57913l5974k0811J565J4586J5101J3139J5618K1994L0892L8612L6171K1260O806K170n781l0868n4038m2388
44968a29859l878J1135k2430o4793o2271j5554L0294M9098N5101O4835O8166M7581P854k6477l6053k1589J492J6739
44950c0609J5916K93k1393l4594k5646L808L1593L5663K0189Q553R573P172j0589l0137l2120j8513o195m929j4873
44931i6838l3465m8547l7455N290M7105M7670P824l2625m3732l0087q651J1412K2947K2005K3622M9270Q5725Q5812
44913G7282L2761k3094k4949J2105K4727m007k1362J2035O0010O1673J5647k4591k7593j7467k6931m9359n4333l2782
44895a0228p616m239k2036l4983j7302K8050O6033O2426K2248j4206j7495P6O676q189k7442l2228j8696O700L2710
44876A0259M4159L1931N627j4396k0303k2290k9427l6722l4973k2458k621J8474K8100J5215q487j1888J5678M1748
44858G626L0059n818j7036J0007K8988l035o1494q2051m3113R468K3265j565k6644k8080j3694K980K2957N2356Q6310
44839h514J07979R8109M7634k8721r1683j04529o8143k1124j37q335k6220l9719m5624l9295j4896K2033N5545P6228
44821h9412Q8043R4983Q9598O1902J6647k4504m0210k8428p959q79j3703l5744n2796n8760n5974m9872m3083l0491
44803a80642l476L3231N4057L6848n449l4230l0034r611P559K5818N0319N9918L0598k4600o5492p0626n0701k1293
44785a97806J1657L8933M7184L8154K8478K4035J3875l802r804J0702M5647O8722O3932L3294n835k7746k0299n054
44767A54267j6430n4206p8976o4850l1712q930O611K9749M5091K1541l7150q8776j02183q4700n6263k1816J9098
44750c69635N5113P1670O7753N1762K6578r775n0065p4688o8273l7430o260R422J9128M1060P1085Q2433O1439K9059
44732b9624J4820J9711K0207L166j9601k9950k1844o53K2122L1612K0477J591j900J4621K8141J5189j9094m6852
44714B2139m7441k4131M950K3163K3096P799r780j3399J658J8440J0321k9566p3255q1170m3355Q684L5135K7471R726
44695a29515N495J3698J8668J5382J5148K5901L5854K5718m713l2718l8452k4459m005J7576L8611N0008M6358M0847
44677A15402M8582N9541N2091L2101K8719M4082L9238j0665p3425r8112p8462m9655l4143k2420n072P370N331j331
44659E9172J085Q181L442j7639l7232l1590J586L5264L9231J3031j7480l4653m1980m0680k0511J1675K1873n967
44641e3192l5631k2725K0266M0025J8230p650l317J9238K9703K0006N50k0518l7319m3233m2131m7538n9401n7583
44623b82220k9690J0361M2354O1782P0100O1427L5810J1564N754J1325R633j731q800l517P528J3803J0446n33j2911
44604A2485k3479l7066n5134o1014l4645J4274M9509N3709M7281M8302M0731O959l1226l7821j5216L337O391J2549
44586g4K6789K7547P553p088L306K0473J8208K783j071R804J6948J3046Q895O773r718m9030q9430r7178o2742r574
44566a63780L1968N0970N4475M9707L8539K6581K2934K4764J4706j4407m1724m1255j7563l96n022j7849k3854k5484
44548c6690k5401j3767J0394K4911J4631J160J4672M4536N0109K0739p974o396J3143K9204M8196P8425R0729M6904
44530C97525l7151r6135r1713n3148k9413l0107l3630k9073k1208p910J6713M0745M3625K8282J9206K3760K0713k132
44512A58949k3163j8866k362n133k9226m4813l5922k2274k4659k9766r338L5494P1152P3457N3654L5330K1903L302
44494B07719j4104p839K3758M3484J2385n8655j09935r0493q429P7400J09170P3707O638l8246l0444J4087M8695
44477B58898M0512N50l3499m0818l3616k9421k3530k952K2355K5311J918j7038q422P076o016m2501n8794l3248L035
44458B9800Q909j3596k7580j1293J9600L6590L0327J6935K0032M5922P3683P5476M9048J9442L861r425l5604o2149
44440B69978o1858k8700J6904N2190O5345N2504K1143p732j8890k0858k8409l5375k6868j1087j0714k4504k7828
44423A75241j5176j0622k5231l2923o360M3578Q0211P7549L3970l1630q5018r6595p0562l9457k0853J19L4145N9060
44405F9446M7433L616m5462p8036p9469m1135J7746M9698L0967l504q398O666j624l6796n6091l6544k678K0392L9944
44386a03829O4336P4508N2451J4622q171r663o108o736n859J456J1210J5280N975j8283m4224m8419k0720K0794M5302
44367C3922L7498Q524j5432j4120R234K9583K6792R416l12k670k0335n5453p0626l2750L7554Q3398P5112L6919R473
44348A85727M073K022j3071l5176m6311l8377k0623p779n196p756j0244j3237j8536k4351k8325l1591l5226l3663
44330a77640j7077J5480M6700N1452K2069k0300m6644m9650m2348l0552n277L1616N4884M5997K1933J3018J9743
44313f6596J4006j8300n6519o9851m7025j74M6113O9448O8567O6123P5631P0657J4691p5135j26701r3236j1355M2975
44295i6681L9124Q706r108r345p795j0950j1814n540J686L7j0591j7943j0940P524K7557M6750O5152O9467M2102r899
44275A07499n4226o9655o4516n0745k3597J5526L9664K7606Q7n540J1593K0052R803N633J9683K5979K009l1176l7356
44256e1677j6996q73J516J5440N5982R6145R8314O3213K6505J2187J0891N875k782j1107k6965n1323n8866k7591
44238A37888J7123K2911j7632n0107l2500N752J0637j4581j8461J5553M3296K8259o412j9904j6398k9922o2933p9564
44220f6995o0428k9396j4405j0140M04R398j394j9644j0138L0713N8316L5808j4982m2672l3092j8546k3949l3198
44202b44340j7574K3875O4655P8150N5886J0968k8316l8591k1675L411K7576N3821P2742O2735K5038q156j7217k0844
44184H2144l6158m0619p701L9403N1786K4252j754m443o563k2697k4439J5082P0701R1301O3591K2767L449J454j1626
44165C09930m7663q3158q2464l9516J1133L2980K8374K4571K6929J2474k6969o2833o3960l2598O565L4816M3267
44148I1878K7546k446k1031j3804K947M712r889k5017l2697l4418k8176j3381j140o63j354J3046L7691N2355M9130
44129I5289L6278J9747J088j0582p240q81j0051k7053k4414J237J9033Q373j2326j8603j8735l4563n8146n7757k6345
44110a25651K873k69k2063k4978j836J1088j6125n9688o6653k4895J8584K2617R319K7575P4867R5924O1675J0403
44092g233o201J3396L4526L9879L9838M2522M2222L4177J9490k109k6793l8622k5681j107J0155L266n428o106m565
44073A55626m596k063J185l040j2410j5326j1643j2127j4257k865J7347J6692j6073m8554m4714j2370J3005J7719
44055B1536J5952J5341P006q670j3387L144K7573M2592M7947N2536N6164M7964J7438l6086r7098j35553j26973p7810
44037a40384k3087O451Q214k347j2095j2270O667M5083Q1652Q5882M8664o593m6854n8693n1699l8724k1127N075
44019a26185L5561N7718O3499N5630L9686J7370q426k9646m1615m9819n8819n8832l5232Q674M9344O5682N5533K8652
44001F8775n822l8989n7330m7687r093M0597P0528N6455L470n1946p0997m5494L14L4482L7524Q858k9750m1727o543
43982h4375N4367R7510J03050Q4315N5596J7379k1597l7816k4874q714j2747k7963l6892m5629o5938q2822p1801
43965a08951m0586k2755l0916m2575l4702r914J4843K6836K2962J3223J7842M3565O5711N3955J3455k2298l7400
43948g7705m5633n5558n3991l3370p656J2451L5355O4091P8796O2414K6220p269k9733l9264k7879J28J4646o813
43930i0770m1121m3025l894L7802M5454K1899m580j2205J444K2251K9316J4140n988n336J6935L3904K5641L360r279
43911C5948q261j1274l1767o0256p2658n4417j6302J3967J7713K366r418m415J2316K9292L9224L6960J8505r413
43893g1890k4926q345L2871O4168N6972K0339q239n253J4829K3694J5995P071M37j9510n6413q4499p7683m3976j4204
43874a78562l365O01J2689L1244M3648L9603J7169j4124l4189k6415M106L1999L5374J6340k338J506L0100O3773
43856F9159P8136O4607L3170j714k9707m1255l1780j5669j9646m8159o8441m8238Q29L7448M1091K5103L461k5856
43838B2539n7127o4389l1843J8415M7638M2240K0667M486l728j5087l6629o0114o6005m2476k343K6341L0414K3476
43820a43525K2151K2372J0972q348j7951j2959p526j0549j1072J687J5467Q204j8710l7125k7135j978J2119R839M426
43801a89641j826k0639m6174m5045K804O7428R6464P4837L6326J7504K2801L8964N9312P7981P6657L9278k1747o9090
43783B16194p4289m2587l926J5274J0449n731j9888k6120k1026j836K3349L3056J4611j4187k1456j054J9687J7324
43765A17844J548m067J664l117l0940o6030q1138o6045l5131r285N351J7682L3093M3310M0208L1487L1297L9685
43747F7416M4150L8991K8492J2275j4793m5168n9107m9443l0070j2552Q336L4931N0210L8347J1285k561P997K6212
43729A54948K6372l730n1448q3402p1839k5952J4426K5157K2568K9952L9113K7268k966k8226m0720n0463n3601k9565
43711a02108K3039P3213R1915Q1331O0046L6587J0552j3162k5892k5905j9260j4694k1311m2901o8458p5805n2373
43694h5186j0074K3849K9142P216k1066l2970k4170r723j709N487J8985K8387K0787P178J0572K8880L4534J6321k580
43675D3860J118J9789L2425L4846L4757L0458J4763o389j7484j4896j1887k0642l6497m1484k2951Q328K1739j271
43657F8582m1006o0446n2494m5958n9486p3597o0990k1857K7365P7152J15116J17024P8674L9036L5266M5824J8423
43640B06628m9849j03826j05949p6517m5757j1264L1113N4643L8982J2654J5284L3977K2949j9469m0966j1460L1804
43623a7023L5954M9l3328l4856j2113J2993K7550L0771K9412K9823K6169K580m2522q1930q4320m9954q065J8093
43605a50717K7948K7427J6510L71l815J4553M0916M7880K5534p413k3164j2174R430J8776J1146J713J683L038m040
43586D5602r907k11J4072O694k0536l1468n378L1153M1724K8989K0190J8789L646k6675m2215k4418L863P034j8311
43567D2637m1908l6693n530K7053M1313L6810K2990L100k3221m4784m4635k7748k3314m4264o2331m5204l589K5805
43549b03513L2610L5481L9113K7304K770m419J8243M4397M8624L8990L2218K4262P601o595q303j0650k6669m0913
43531E0551l0813l940J1278L051j7098l5195m1503k7124M103K9583L4236L1643L8023M0402J8566j4069k5016j2206
43513E4472m739j4725k1157o457J9812L9745M4322K7968p191l6437k9932N845L0280K2176M909N554J5455J0120j2373
43494A47647l3260l8955k7896m349J8607K1388p98k7166l5069k6976k2408l0126l9216l3061n526L1284N2447M2677
43476a0756J5621n59K177O894K602j379J461Q93p621q312Q801K4565J4772j4456l6404m1078m2425n0970n6277l9825
43456b32276J352M4551N6913L0306k296k643K2121L0158R215m229J5874M3933M6595L3107K6018J2612k7219o6084
43438C8008n7459j1980J0132j2207l2728j3288K0774K5972L036j5767j4025K227K4083M0426L6596J4932J4K801j358
43419F0189l4402p3061p3956k9833K7756P2692J00651J06504P9568K7230k4078n9927q7406j06846r9738n9709j4272
43402a88638N274L513J0540L8998P0647Q3843P6470N8758L8610K1095J1626J0144P730k463j3733j3590k717K129
43384B18236j1776l5205m5198l0648m314J2644J3512P818K531p957k6851l9580k9225o372m175l4027o3184n4238
43366a38009j4486J7711K8709M0822O4277P2021M1571m012k4300j5035n457j1494k1379k5816l3190m8484o0472n8771
43348a95794m5750k4288P916M2698N8120M4830K3983K5066N1632P7548P2110K5681l9750q2098p4466l5557j1775
43331g9894k1944l5406j6135K7892N6970N0311K4708P086N814R462K236j9625m0254l7809j1706J3103J7428J0570
43313c7193R363J0799O586J0729M2270Q5254R8237O7943K4674k710j7830l1127l4061k0905j1984k7301n2631n9867
43295F0246n0104m6570n0510l7521k754K1184P041k7415m1292k0336J2373K8983K4280J2141Q283J9579M1003N7130
43277A5741N1444K1808j1720k0383M633L7152L7918l589n5617p7900o1281k5468J2001M6248O8627O3487L0115q265
43259A24951k8499k9588k3098j4853p352p877j9322l1311l4528l6450m8677o6241p5006p2310o2298l8186P585N8025
43241d05035Q2227P5457O4781O7643O9319N4116L5294L3546M1943L5221O244k6696m4924m4760l0673r264Q685J2347
43223B5471L91j8350l1412k6893r7L6138N7115N2434L6579K2176k682n0163r7459j04518o6290j9805N771J9353L7288
43204a24953M8482L2012m709k7677j2607L3884Q3886J06360Q2417K0148m4147p2148n6024k1030J927m03k3036n2080
43186b9698p1744p2141n6090l3969j0660J5742M1419N4554N2360N0083O0537P0740N4820J0565l2538m6341l1518o457
43168A9664J4688K1315J633l9534o8068n1345p11L9041M2794K4903O169r357j7343n539J8596K1185j1781m3549l0683
43149f7922J8027N5768N7362L3635k672m8382q7710r2712n4841M749N7940Q3590O6890J5597k5874j4270L5159O1907
43131I6241L6670r883m1507n7424o2183l9301J2492N1381M0838L944q782J0183K4701J3419r670k8789m3477m9470
43113f0617l5140n196J7104J9693J4495J5345K1219K4784J9725k366m1788p3253o1438n060N2629P0773N5169M2219
43095F8297M8941N5381L5469p260m1285m2672k3434j7666l9394o5159o4906l7890n043K2547M6663N9261M3267K162
43077C7279l3050l8522k4878j7987k3883k6065j0983J6354M0215M8381L7970J2884k0972n5843p7147o6282j9718
43060b22247L5821O0844M1934N492j1572K339K9792M5680L5370K118l1710l7197p408K6651K2627k4638p0995o8487
43042a65586j7715L5181N0879L3193J0828j343r880k0988k9382k9069k0772o490R846J4856l558l1746l5703m226
43024b21675K9648K8418p05j7007N73L3226N2050M6289K1221j0217k8266j8555O555J4448q690l7506l8229r974J8478
43005a39918K6557K0686J5747J3802R411O543J6917M1062O1890O3812N1755M2205L9312L1376J0633j5977l8193n1797
42987B05823n2867l7575j5349o910j7407k5911j6484n329j6026l7810l4501O113N4989P6917O2976K4445k3400o0371
42969H1323o2995k6159K1986M1562J9987j5952k8652q039K0314K5063K608k5159m1776m9749n1173l5314N1L0823
42951a01251L0963P182j0235o855M325P932M000K4Q44P617J4779J0035j0260k9801k9730j2441N606J6950K2869K0074
42931d7373Q521K990J2153J4493j4811n7496o5712k3965L3131O8083P4284N9098K8382k151j3334j3036k9274o0941
42913b6958o9961l9278l138L661o398m223P963J2234J3538K6256L9872L3336J0715j0006l0754o0653p9609n5208K804
42894b35807M1539K8406j1595l2801k0762N536K6364L9076M7679M7480K8197o181l0041k2936J04O590l637M287M2039
42875d6463P0209N3057J2681n000L138M129j1190j8451p806o90j1746k8012l6062m0419m3300l2046j039L3854N5213
42856d9943O1415N4714L1174l999k7913k4509q825j0426l4722n2838l3307K1109P3043Q8689P1773N0782L6095R231
42838B51543l8142p7360p5150l7869m37J7723K0456Q357k2752n6235n9063k3227J9019L2417J5428q805k3343k8558
42820h5998l1207l1279j9525R180L8157L7752M178k3999q487L9117P2662O8938M4934K3640J0959N951O107p65k5483
42801A34832n5768o7466n5979l3441j951L7996N9493L3340j6676k9401J0598N1872N4940M2152M0849K8289k0988
42784B12691p2466p1928k5616J3650K6218L7117N3717M9084J8075J38K2729N7125N6630J5879l1732o0082p1114p6982
42766A53133q0605p5377n5554k5578m04O544l118j4462j3002P164M3538Q3525J04651Q9095M2640p425l6845m3721
42748A74199m3255m8007n5275n3157l8808k6894l2141m4321l4169R038N7842P5776N8159L1859K0535K2679K1211L518
42730I8789k6951n0932m7686j6357K0332L9617L9850L2002K0719O140l983o75J0583J4731O507o904j9697l0582l4741
42711E0762k7700j7424j7960k9060l5202k7117j1529L226J7831L3747M6955N6086O5410P2318O2587K8624j4118m0206
42693B17230m2008l6029m1098n6469o4398n1529k4103j153M630m034j6427k3099j7188L548L0629M8934N3281N2586
42675C3303N0844L7036P314j5884r051J4669J9051l667k2522j6487m519j0265k2321j6478o09m687l0941m6338l0917
42656g2469o285k463j6790k4060j5041m807o333j3233j2654m799l262j8406m3389n8139m9307k4933l825Q092K0580
42637c51523L7070M4724L4706J7866P496M40o803K348M1510Q5024Q7643M4432J55j0074O61N954P658J8057K6275
42618I3619J4532o413r048J0544K9376K8713P063k8684o1420o3975k9773M139m049m2907o0516l4080O641K7557K6851
42599i1830J6426J511q452L14K0112K3412M718o888O937K4573K0410L748k212K577N093Q604K4740M7053N6117M4515
42579B01478K0242o677k7657l6005l5219l5504l4928k1305K36N616j0865k3831j6333l618K32P594K5658L2881J7846
42560E9841R190K9397M8902L0538n995j4568K609O294o088Q23K8140K9972j2732n6780n6304j8518J9735L8409L9148
42541A72013L1068K6466K8785J8976k0330o5724p1602l2488R001K2605J9034Q841k1508p0668j00379q2115l6290O69
42523a63646K1287L5190M0390L3464K5365K1840R397j6778l4280k6787j2874j6034k7363k3553j344L0740P1768
42506c3218J11020J14079O0730j7993p1196q3356p2799n4715l7203l4740m8461m6659k761N7761Q5593P3232N4129
42489E3443M5108L2882J4806P235P454j0601n1167q3094q3117o0607k9357J0623M9768O1498L7913O305p007m241O705
42470D549L1930O6028P5434L7467k1576n5540n2965l7445k5711j4150k277j661j6240l1691l1193j3505O026P968
42452g4552j3582m0840m6998k6422l91J3214K1022L3780M2068L2590J7144J9589L6581L6041N34m6790o8979n5776
42434a21767k8106r236l40J5036M4071O5893M9531m104n0917m9501j0892J6888J1302j318R073L1326L1493L014k3023
42415b1577j7373J3525L8517L7985K1549J1051J2754J3411L595p119q481j2999l9805p5181p5323k3208L7261M7565
42397d3853N990l2071k4229J2404L2369K0225K540R293L7267N4959M0474R976R57K4961M9711M0163M830j9901k2947
42378B03118k6090l7989l6725j2950K500j8696n5192o2897l4799k161J4379K1170K1845O830j9678l1020r929K9015
42360d9269N7793O1024M0315J0404o205j47P831n990k3773j791O0130J02357Q1690L0795Q264J4829J875m7251q8666
42341B54215p7365k3244K4538K9434m951m4327n4084l1018o804j0775l3567m2043k4633j175J0525J3522J2311n10
42323i951k5133m1429l2975j2773p171j9046k3823l989K4986L1282N040k8784l9329k3911k585J5621L9797O5532
42305h8641O3660K2501j9650j7321J7358L0428N913j1484J4322N7011O7216L6966k598k6299k8799r889K2611M3580
42287A76885L2277k58k7250m1720n2581n5815m0652j8830j2886j5227L688L9980M9548J3832k5418k4029K961J1183
42269A5688n361j5360n316P046J1006J6519K5103K0714J57j4854q951M950O787o210k6165m6254n4250l3828J2472
42250i6107N6353P3702O8211N4575L5758J1532q464j9145l1653m9478m8126n808N4458Q2017N7071Q640k5244l2797
42232A85495k3014q375L13j511o516n519k734q097j7508j7722q967m352p342q441m549l485r092j8919l3675n0005
42212e4015n0240k4227N062Q908J126K0518O4180Q3568N8686K9583L1931M5552L8125K0184J6339J3358j6931o2214
42194B29493q1640o2744k8826N14J9312J4856k2649p0423q7328o0699j4083K7430N2941N4326L1546O989M221J4766
42176B8002J4696P838J7397L8608L9612J2290j6711l1342m2754n1801l7062K434L1121K6303J1359J5761L1615L5969
42158A33335K9715K4409J1652k2068o2271p7116n5602j4710K4138M7788N0524M0050L6584M7507N0220J9509l2741
42141B50923o4553n0783q884K2698K0235j1574n0401p4598p3777m8096o621K9806L7349J6285j2J5343M0348K9313
42123G3001j9782n5725m0855L982L5873M1189L0046O593k7611n8226p1479p0830o1517l4633J2892N8977P9930P8711
42105a9464O8358M5597Q096j9716j3366P877K19m1690p3007n5624q25N1741P6599P5790O5717N8588M9318K1105k8872
42086B76441p6360r3421p5904l5963J7415P0885R5560P3131K6572l840j1674k2513m3142m6545j6183K4094L9449
42069A98002K4191m51j4374j4267j2045k4109n2941p7556p2930l9162J9K5112L3727K9392J5309o4n628K833K3448
42050C8506M9996O3016L7268k0863o2480n2919k3036k6269n8881p0534m7416k7988k9166j6620K8570O8012O5297
42033h5507M2874L9548M7154L3932M984o724N432J7659J7228J2219N909o712j9983k1452j1382K086J8650L6163L7882
42014A69960J3935j5808k5544j8979j5911j7085j1989q945k3141m2615m1042k0452p530j0699j4763j5684k3753l1422
41996a61467j6527J6466L5509K9771K3231K8388K3263q047m3888n3885l4046J100L4394M2234Q860l7850m0592J2793
41978a40293O3740O1664L2830L0749M9644M0979k01k3943k481L2838M5356M1298M3672N0806M5615K4179p454m9015
41960C39983r6866j29689j24241q3126l3899l214k75j8344l9014l8721p109L6980N8887M4150J3848k463j447k007
41942h6567j1418j4157k23J4238J0305k886j771J5407L0275L7749M8368N5920L7209m138k8138j3794O607l990l2480
41923E6516m2815l3268k4762j1887K2569N2548K7529m3815q4671m9811J2455L2038J2782J2828N2651Q9685P9615
41906A60187K5588l5709o8196n4123m610L9514L8227n732m7971n1761k4205K405J1569J2689J7114J9055N622k0714
41888A8949l9056l2483p689J4111K1980K2052K1500J7695O213j0295k5580l4638l3454k2710j2433j1828j4499q697
41870a30862k930j9881n6261p1002l1478M2351R8042J05594P6791L9028Q032j5991l8188n5453n0942j2568L9515
41853g6203O2242L7762n240l0875l5620l0983j2392K3683M9985L4868o961k6042j906L5897N3127M6963L0959J2952
41835A62216j288n468m494j0841k2911k5280j4574n169n260q660j3957k7609m1822l5543q100J2196O465q784p806
41816f6689J0719K9142L3775K1758J405o446J3639M4661M9385J8080j8991l5227l6411l4348k3758n425k437k7114
41798c4282n5143n7762l8107j2511J8240N0936O0515L4576N068O377K0571O889k9621m6298l1342j4783j2231p008
41780a35916N795O058p526n768J9971L6664K3089O123J4517K9935J9650p248j5160J572J5516J2392M878J66j3388
41761A1320l9301n9430o0020n1301m6395l6432n779L6157O0110N5604M4572M6475M7517K4577j0607j9536P855L4767
41743D0153K7531j120j9394k3633k8205k4843Q971O3812R8292R2575O9797N3456L4808L80l4952m7024l7553k6623
41725B46428k0696j0212O054J3483r87l4994p2831r4272q6859n7999l0467j9467j9807j9612j5308m836J9803N7355
41707a45224Q3866P4256L5719J657r937j5049l3064n2938m5800o012L7789N7004N4229M9237M5065K7772j993k0554
41689A36023j3868O93J85j2064j8791j8535j9444j4118R962L8258L8705R086j2729K916M0816O4493N8233L3607R513
41670C32941k383l723r393l1132n7262o1777l5767M780M1275O2454N5197J5781k5310k4605J5005L9258J4791k6772
41652C03358m0304k8782k1275j9022m095J7994K6033K1169J7737O575k9735o9513o5097j0028M5251N5526K6859q297
41634B24354k9229k7362k58L4854M4699J7257k0413l6102k7874j2111N327K6857M4362M2557J7553j9796n4348p2193
41616A58134o4024l5421j0226j2761m3722p5993p5504l1154K9791O0901M1247j924k5759k0829j1050j0134l782J9304
41598a12906M3804M9511L9261K9323K4570J9172J3500J4186J9449J5852q043m6645p4470o3051j2306L6887L8181q308
41580A7967n5612o5939m7880k9909j9552p060P413J3395R597M992M605Q820K1195M2451O1526O6491N9459M7875K8180
41561A68014n317l9740m9591k4077K2503O3995P5394M3850j2636m4629j6873M2853O6391K4840l7959o3607m7303
41544A66108k7212k3141j5364J6080N5943O9901M5774O600j6937j9010j7793k5650l2608k6643j8520k8683n3114
41527E5731o3579m6279j9560l835N247J8220K6336J8514R349K0044L6805K1664k9650p1404o3702k0594J4775K1499
41509g0419O242k2574n4724o2557k2830L9580O1299J1612o5713j00628p3235k1763J5697L9889O6394Q7762Q0143
41492h5825M0803k83j1801P135L4067N2704O2245O1697M4636J6798J655J1749K4457O908l7550o8983o0917l1335
41474F8160j4967k1091l1049k5126J283L7813O1862N0735P301l2651l5242p548J3154N715j6497l1340l1288j7279
41456a8055R669L9178M9911L2339M028j1648j4773k1756l3275k8205M486M2005M9068J9844j2825j3661J6151M2272
41438A54753L6173L109k8708l7753k2975M163L1211M9740N7228N6026M7074K6368p288m3647o7622p4239p0005o0038
41420E3570m2836k0385m816q527l0203n3369n7596l2992J0099M5118M9808K5995m472k3595l1266l5678l8855l6349
41402b36349k4968n119K0743M6998O3746O0645L3809p411l8213l1164J5904O5849P0935K1362m4915q3885q3739n6597
41384b12369j2660L8706P5008P4019M2677J3188O017J2786J9882K9293M3540M6768K2101j7790l9138k9639j4915
41367I7474k2735m4266m7484k4635p129k4787o2525p3760l7141J4452L1271N894j9074m472L8070O3367M9238J9134
41349d9108O934J5976K3326J3217q025k5210k8161j4635P027J8457Q325j0420j5245p201j0588l3718n1797m2468
41331b03314j7963j457J1202L8113O9604P3054M1062M976p851l961M20O951J9342K1900O83k6314k8345o999N508m545
41311g934j2830J834K1311J5646p825j1718J5460L8842K5757n945j1012K0571M9296L7548n975m2938n0049l3888
41293C6151j3365l814j2210l2295m5298l6480r895K0606M8468P1488P9363O0948K2662j4412l4214l0907k073M2679
41275A47402P0457N0117m739m2055l2252k217N092j5558l7510m5211m6131m6705m1370k7968j5480j0013n274N632
41257i3783J6511J4461j158j2646k162K4595M0929L1102J1612R189K4079L2400K2610Q383J546n218j8308k6269j7928
41238E9945j334J1079K1638L4406L6383J2872k6335n5722o3991n8226m3705j7934J7293N2594P7264P8449M4478j4178
41220A64976n8557n9448l5808l0001m8926n8998m0678j5109n416j525J6528M2300N4052M9462M6118N1833N3247L4162
41202A58212o689n4942q7698q4133m1807J4778N0163M7570K0824l492j2224j2204j3907j5384p939N965J2354P261
41184b3292N577J7146K5384Q048k5998m2330k5275L744J7898J5295P057o101k7441m5457m1445j4330J5729K8995
41166a06796K2833Q730J599J0900L3310N3034N5747M3228K9419K2028J4318j702j8651j8313L750K4362J5031k0622
41148A72205m5853l6160j1527o393j9461j9858M11J2230l883k6642k7057q834N267P627K901j1388l3916m2970k1582
41129a14883R491J6225L245N537K8734L7745J4592j1945j3493l137l189l554J2940K7599J0110k5924l4204k233L1949
41110a4395L6405K4211K2558L2211L6639L1110K3741K0590K3396L0597L1114J1772j9439l5255k6313j6792k6742
41093A85408l9659l0556p738K272k319l782m098k1123m5706m2691o175K1108K529m4811p7113p5951n2615k1054Q379
41074b55695K2001J4996L143K038K563j2697l6023m0151j4139K7213O8211J05194J32176J33496J00131M4134p969
41057B88622l2281k3076l10M749j6777l9021l5975j7839j3082k3989k7314j5389n793p402q694q064k2368m8932n1469
41038a04404r745M2384N9495M5859L9553M8909M5255J7238q563j2188j0952k6795m9903n8253n3462n0347m3951j8119
41020a47989J6066K2062j2179n0562n1940k0466O701J1636J1992K5585M1732L8882J7352J450J3797N4635J00835
41003G9589J18892Q7383J8355m6533p1235n6279k9253j1188l631l251j1010k3705l1788l3256l7929m9217n1729k9039
40985a84824J1172M1225M1912J8828q144k2040j4052J7207O1185R2651Q5587L8383j7558m3121k8010K412J7374J0509
40967A20696l089r666p830k823L54M06L004J5595L1212K5950j3072o2181q0977n7373j5958J8680M5346O6531O8689
40948A43494M0564k140l0195l3648k5757j8686j1482j869N889R936J6775L0796M3030L6850N859l5115n8176m6009
40930G0116j0661J5209J1374p962j1751R747L3539L3921J5144M520J5794L1723K8314O250j3563k0618k4969l4762
40912A51365m0833l3853k3214k3940l2819l3546k1151n736N960J7739L2958M9288O3480O9557N7396K8887Q919J7725
40894B88182L6435K8867j034q250K4929N5055L6482j4352m6015m4314m0856n7242p6631p5328n5952m0120m3542o2281
40876i5967p2571m7682J0296O0645O4827L3242R736J2560J7930N732q775m047J1031J1732m757j7952j5152n703l833
40857c8708j0133j3574n939P723J2094k325k5337l4490j8438J2882M2558O1939O7494N3143J6987k7405n5852n2540
40839i921k3627N849R882j5561m3943l9741N202O0485Q5207O2716P665m9859q2220p9411n7745m3973l9205j1185
40821b59385N7992J26628J26821M8532l8850o5451l8125j4527j8567j8524J1328M5811M5341J2852j3080j2082k046
40804e332m208j1624l536K2404M5586M5569K0953j2370l4826l6148k1084l767O030J1053J9241K9991L2381J8760l551
40785A15522j8458j8266r757j933N349J4472J8037N916j6169k8577k3000j3772j6686k8115l5245l6213l6266l2578
40767a55739j9622n255m358j6923k6938k3270q904R396K6947L8183M2112M8876O5414P7484O4889L2839O074q546
40749A42659k7537n3968o3400l9537l81K5774L0026J5705j4757m8212n8543l7561j0069K169J1558L6821O5245P2270
40731D8262O1443N1508L7039k28m6985o4704m3267j3990l390n417o966r512j3107o821J0168K1852K3611L2311N1332
40712A23139N0871R162m4527n8707k5029J3257J9742O658P931K8534L9416J9199j5681l1184j8693n375j9231n3531
40694D5951p2912n0784L037M7407M2310j2278o6233o2977j713N9530P3200N3432M0293L8157K3548j740r331M497Q496
40675A61890j1943k9006j4823J9814M6504N2615L5917o892o1981r0630o7699j5194K5232L9951M1161L3303J2823o550
40657A64492k188K0250K6471n11l5955m6314k9954j2797j5453l6870o1945p2895n8353k4013O269J0097j0430l1611
40639b11710l4212j8535O397L4165N3508M5663R074k1881r730L3264N3805K8600l259J783L0430M0183K6235J9210
40621H2990K5242J3363l0171p2904p7741m7413j2069P209R252L985M201J3793J9599R293l556N676L1959M1851K1069
40602D5628p281j9925j9018r390J7414N8194Q6115Q4132O4790L8875m275o1090r1887o9827k6063p743j1444j1K9593
40583I6787M2230K4794O102R727K2986K4236J3388L218K74L458O576j602k5623n0946n7808m6559l4941l3660m0261
40564c7624n1437o1981n5797j9383L5658Q0446R6505Q1477L8162j9054n6582n1169k5010k1211m3312n0779k0266
40547a81357K1373L8543L3009K9699L7486M4882M2351L1075J5611K43j0601j5068j4312r082m58Q115J5643K5051
40529A12203L2129K3743O0j4948n732M824j4747n3258o8088m4604r788J4603L4570N1826M8401K0764m015p345o107
40510A14491j8852l2152k6341j1987j2567k7459l8827m1536m0567l0780o276J8242K1849R597P251K5428M9415O4040
40492B2969O8979O6500N0757J6202l0587p0342q0958n4574j0555J6985J3024l997q090N009K2994L6954M1535K7526
40474A30331o278m0593n4125n1233n3429o4625o3299l3604R659L4384K3457q878k8859j1835L5949Q3255J01633Q4243
40456H6153M0749j2820n4916o5281m4365j7297o104m613P375L1363M5308L0119q785m6150n8307m2853k0311j1705
40438a52440j4723j1363K717J3563J5456J9399K6652J8535j1306l7831l8962k7671k4589j9444P286L9463M1186J2879
40420a41193o725K210J5794O711k0512m4226m9841l0417J0642M6750M4173N792k3699j1737K3954M6907M9096M5188
40402c1133L9065K3513K828j0304j6045k2791k4426n852K6325M0789J8211k4174n4015n8029m4315k0174J6579O2765
40384h1183R7691R5302N0454q764l8907j7859L1583N7765K8561l3183p0024n1685q705N967j8574m3224l3936j685
40366d0406K0892K0861O709j2985l0238k9472m226K3448K4853L862r561m362j059j5606l6483m6695m5299l6176j7713
40347b29656K710N133j4209k7838j0289K6850N2399N6280N1805M6153L2024P121j7952l3797m0576m1128l6524k7847
40329a99341j3300J2936M8811P6491P8837N9579L5012J2562o557j0926J1066M4645N6668L7739J5384J4529K3540
40312B97675J3938k0473n9525q0496p1354l1894J9526M8071L2798n810k6990j8251l644k757o195k149k938k3440
40294E6092m8533m8525k0911Q904K7252M4884O4363O4536L5303M469M545K6542L3692J3788r665j6431j1356l501Q183
40275B33631J7410M031l7626q1533r7617q2277m7826q60M7749O8827M0597j7295o0758o8731n1061j6950L1691P4066
40257d4532P4187K6594k7946n0131m4286l5294k5486q3L7585O3061O0010L4487L930j4023r811M843J711k7058m8043
40238b0285k7751J4351K6395l491l0944j9027J6691M1890M9060M6037K8715k801k2125p102K0020J9847l402q046
40220A18032J6958L2085R624k0898j4956K4664N5856N2080K2699j2048m0485n5889n4971m3185k9308j5644k878K530
40202D4266q19j08J1211J2057k1083o9145q1076l8405J7853L9691K7495J3231J0522R776R128J7272K9101K9654K4695
40183H5316L5940N7992N3632J1208k4233q989L0805K9386k6134p6389p1683l3457j1073r186N983M3715P1472O2317
40165B26622K8692p20j5119k1025k5746l4822n2697p2340p4265m9138j3872P074J0039R656J4642K0835K5189L1267
40147A4272L9275M2664L7039K3310K062k4506m5102m7516l7647l6347n0276n9096m2890j1431R354J4462K5001N3481
40129i3891P9723P2846L0982j2019k0750O643L9398M6203K3394o283j7654l995K1218L7107L0019K360k8260m2154
40111A64887l6002k7858l8182o4982q3728p4746m4168j2377J0979K9130M0103L4988J9794J9911M5559O4595L3812
40094H1715m2849j09925j21281q6163m4642j6778M899K6207M0472M5793N1594O1512O3572M4531O581l2820n1501
40077g9083l5177Q918N1089O4306N1278L4160J9534n605l8648m8217j3889L9657P0744P0538O0482M8810J9878l1096
40059B87679q0475j03670r9711p8718m5636j0831J826k1312o0783q2492p2931m2197k273L8048O3707O2562M4869
40042b02338L4021L6551M0044M0415M7474N9214N7474M0022L0672M0720M5903K5478Q99L191J8027L380m1699o7046
40024B12402m0420P303K4436K036k5699k9459j3144q05r608l3181m5230k4761J9235N5711O4579N0321K3654j1525
40006B25845m7318o6970o1736l9032p179L0789O1105N9723K3454j8768m1315m8676n1040l8963r464N838k3212p2302
39988a19221q5266m8807q163k617j8668j9570N554L8252N7762N6508M0385K4145J8619J8336J0426n643k0374l2920
39970i1262m8158n5491l4122J3744N5201O2029L9199J2316K299J6594M6428O5847N2440J7239m104K726J4656J0358
39952A77939N36K279N554j0539m1776o2518n8327l5953o780K2303M5058N6676N6078M0373O374l3588n1273l3118l66
39933G8932J7164J6571J3128P136j5723n3460q1086p9848n6617k9108n545J4799L0705L5909K4411j493k6503l1268
39915a41896j3003P867J0327k084q404P87J2684J1284j898j0323l490P208p54k8694m3093j1726M7744P8935N4620
39896c3909R366j0733o169o883j7469j4477Q936L0732L5428L2234L0434K2463L323j4242j8431j7400k5167l8035
39878b9999l7959j4906K2171N2810N8892L6868K073k2258k4009r232P712J5119O716j6411m2390n3782m2936k1259
39860a12780r525j7231l2474l5594k4116j7230k8142m0166k6750P724K8838J8159m096j1529l507R409K7643M8532
39842b22835N1144K2953j1854j7873P555L9581O1641O8718N0167N435l1697k4152J4120L2193J1475j7230k8531l1036
39824b0226l1077j3459J9564K9861n830n5766p3462n4991k8623r448N105J2070P511L556J1884J8384K341k4563k6718
39805b33887P081M7399O0343M2628J7060O917J8280L7944M6621L8575K5016J5271N702n004m076J5830L5608K7995
39787B05303o489l9287m9250m2941l7223l4831k4494k69K5033K9070M797k8079m4436m2582l8380l3888j3441K4348
39769a47039N4270N6734M2701L1802K4042J0750l263q895j1373k0254l1554l6581l5745k7248J33M1026N9231K9452
39751B8189k0530m2438l1880k3326k6691j2462L2466P4892Q0172N6796L4156J8604l391l1190m3891k8256J356J5221
39733G7797j602l1259l8897j1121K7619M5258L8853K7234J8095N183p718p065M743R314K152j881J531l104k0979
39714A34153l3702l0088k5654l2560l1490J617N2857P8638N4209j245m5694n0975k3992N97m983k9481l5581q896
39696c2270K3115L0542J9355J2898J2599K395j6477k2622p892R146J0787N306J3287L6449N1103L4877m528l4599
39678A43471l6246k8315m0107o4587o2601j9931K5237K9685K74k2152k0389j3866j9164k7150k4775j6199j1907j2612
39660b21334j3451j2893r918j561J1037K2052K9683L6572L9856L2959K0872J9677L3325M4156L7373K3298K0799K7137
39642A39639K2147j26k1637k4708j1290O295J9032J8965n47k9129l7447j0022K7415L4556P632j8876k2059j4675
39624H5165j1480k525J8419K5152q194n9966q2177o4052l9599l1283k3363j432J7496J5557P123J5563L5228M2530
39606f1838L2953K2438J8607J3321J979q070r529l424M080N208m707j8827k2433j1894L82P508J9066L7947M3953
39587F6720K0727j4783l2876l0119k3030j2936J2354M5291N8971M5264K5126J4313L747j7774m4343o5226p5140o4816
39569h8530k5316K7409N6334M6473K2278P397p894l7151n9631m3847L257M2555N3183M7261L6459J6051j0454k0409
39551F5425k909J8903J5922p359j9574l594K5529M3313M1610K7265P570j2197k2177j2634J0349K3077Q165k1829
39533A84855l4415j3370K2580M1454L1382N719j8642l5528m2094l2272q978N055j3762n6414q2483o6148k9174j1452
39515a53687j8226k1913j3667j8742m7398o4916l9488N423K4611J9983K9680N4448M9146Q46l6192j4146L9253O3381
39497a41604M7105K5183J2484p950l5359l8219k887M0306N6110M4602K8021J8517J4008J0136K660j0302j9330r951
39479C3530J4493L1184K7741J6984J0392m338m0296q0116r1483o8209l4186q540J1516L0553L9518L1702J9249J9385
39461d0921L1029L7589L0002J5361K349j0494k6630m0250m2691l6565l2161k9005j4217J2742K5602j903n7522r6002
39443b73687q7355m5525k546L0562O2614R2289J00516P6085L4233J813q519k942P915J8655K6062K5803J7039O720
39425G9732M227J1121J8771J7250N929m761k118J5338L0382J7566k9610q1481r3280n0089J6595O3194P5406O6426
39407A60598M7491K0497n556j6166j4946k4193n1232p2298o4241l7804k2420k8219m0808m6425m3840l4855k1038r713
39389c05168p207n559Q873L2296M4755L7649K4203J7266J2946N698N138K3268N2384O9626O2154L9189K0185J5955
39371A53651J8808P944k9825q0194j08887r6295n9184l0081k0316j3575O647L5046N2657M9173L2371J8071J3902
39354e0087J3677Q119j085k473J0632L3357N6808P2448O7669L3102j5452l7950j1953L4080M9757K1746j7112l6648
39336B28635m1673m7890n1532m2115k8452k8577m0621m4369k9754o190J5647L2899L8438J9221k1959n5775n2141
39319a56208j2749L2525N8652O3881N5988L4551k938m3352o0569m2000o136J4358N387j9277l9368m7829m6015l1958
39301b43057n635J9785K6738J5402O137J5147L5684M8258M2497K2492l012k6090l7524k9881o474J8538L2561L3301
39283c5133K3382M169j7436k2814K057M1280N6135K9221j0035k0518j803J1095K401m756P135J6385k967l5600m7143
39264d945l8982m3082o4454o8778l7158L646K4424L4173N0735N8697L4045m220q420L1401P0570O8283L5390J0948
39246A52273J2534K5841K9549J4900j2223l6868m6315m2100l6392l3851k5741o535J3335J9026R193m074q004K790
39228B7338K3837L9754L1755m773n0667p5894o3463k2325J9542L6154K4115L232o566m371K194J6462M3508O5635
39210A05467N2198R86n2075p5949p7858p9871q2107p0372m6322k5797j3225J226K1917M3050O0852P4195P6373O2518
39192b4794M1535K4451O337k0584m1290l0941N214L0758K4095K665q580j0619j7402k7512k7906j5941o72J2815K6440
39173e1931L9170M5062M1158L0667J8235N112j1448l2673m9268m3579j0385K9170M8205M5583L9706L3559J0960k6803
39155A60500m8171l2158q96R875j925r716n46J1543J1300J62j3337k4991l3714m0135m7893n7673o0992m8800k5140
39136b52707m153N239M868M85l280l630j453l18N3M831J6299L1694M9087O4161O1601K9035j5012l0415n466K4828
39116b4253K7222J3172J0655J7120J2164j507o184n389j3669j9163J903L7433N0419L8507L5014M2954K1064m2038
39098A95424q9175o6920j605L6550K1475j4297l5097l3916j8345P94R439M774N716K6855M9735M4578J4038j0532
39080A39491j2587m561r2J792J632q156k8451m6649n0402l7709j3686J1400K4089K0363J1452M483j2115m4354o5181
39061a09241m0833J7512N8965N4588K5920N032m061j0210r668J290P225p793l2139l9087k2403j152Q482R508J1459
39042g6606J5385J6308J3051J0912J5821K5763K8850J5217p444j7675m733J6790K3184P891j4995k9726l3451l2306
39024b7764l0089k4448j2871L24O113J701k992O214L3174O7543R3059R6818P5660L9927P212j4744l4261n6287o4656
39005A59633m0359M793L2596K1416j2234m1449n9481p0031o4645l2061J5655M7090M4805K1266j513j6336k9083m2278
38987f2216n0312m7969l4265o534L9211R3208J23092R6646K0348n5943q4018o2085k7179j2049k1879m4748o5604
38970b02296p1328n9775m4685l6003j8148K9664R0615J16688Q9623M8901L9428N2968M7268Q824l2598m7266l6058
38953b4178j4964P969K9910M0812K6157j7126o8788r2554o6085q909L1294K9401P555k155k679j7253m1791m3414q209
38934b35007L6973N8885N2388L1259N621j6675k2615o897J4817K0529P014q989j0365P483L6854O0868O1870L8473
38916A32486J1416J179K478n105k1379j9530J3917M9279M4233j033m1406m3102k0790p688r906j1387q109p703k502
38897E5348K1874M7709L2487k8606q0440p3674k6876O290Q915L080k535k1043m5263m2795n658L0458L3048J1668n402
38878h1415q274k533Q461K0016K2768J8358K0664K7705J5015k4182n5221m3956l648K8129M2795N7036O7031M7133
38860A55882k337m2089m2110j8093n975j8947m2673n8358n7600m3752k7831j6714k667K5024N6440O4013L5503q755
38842e1039l8522m2243k7250m957J4545K3602K2757J9013J3618J650j1761r871J1133L0001K6627R379J358Q561J8321
38823A4922K2605K4600K4642J6910J454j3874k4411l0474k9826k1135j3101j5357k1187j6017m071o734k8602m5167
38805a64823l5846j1848M603J4759L6718P1376R5742R1088O2006K5638l925j6752p203J6675L1381J7213k0132n3081
38787A53589n8995m0387j7127k298Q250K1417L0259K1261m146k7113l4458l4694m3879o1676o9535n0828q719L3587
38769a85492M9721L3950R277K861J3102J6391R465K0705O2955R8160P8625J1980m6669o2659m9335k8620k390K5301
38751E7328L3534J4881n869q197r337l3490o5009o5384k9541O720J5515M951o103j5086k6019l1356j8589J2412M6475
38732a22164O2353M3999o221o1312q6995p2272l6720l687K5048O0687J00560J22273J08878P3726N0728N5515O3335
38715C77731L6824k5673q3367r7902p0677k9695K994J8010J0512j3346l1561k9058j9563k5820m5149n5916n0631
38698a32287l6923j1729L2267P2716O7207J1591m1816m5390j2523R530M221l395R943L7065N4222M5743J3503k6433
38680D7512n5173o4457n8238m2047k0216l084o98m607N731K9751L8909J6283j6082k6782j4362K993J9484L7407M3556
38661f4120K0403k2623n4919o1191n0235l0767m193J8015J6953n307k0064l252M1232R1355J23144J16878O9440O731
38643A87480l5751n0835n9443o9450o1661k8726J60k727j9520q627L6847P7936P7867M2390P586q39Q898P573j9160
38624H9998m8575m3581r58L7208L1830n713l1553k6546j3604j8049l3141l5167j7731L570J4772J8415K3284K8524
38606b7017K4662Q705q325j3376p960o490j7405l2026l4912k0851L88J2072L114k0075l3564j8252J4242L0787J9567
38587a26716R059K9071O4768P2687M0103M005L383L1853N0553L5262l399l8346m9858l4358l439K3303L2639K7609
38569A68179J9721J3726O377k296o614o038r519k4187m5085o0164o1125m6910k3137k423K922l376l57K3857M9948
38550f501M7760J8379l252N299K3313J6966j4559m2719n0456m5481l4376r963K6285N1525M8708L3227L3339M9912
38532A47406N3628K3005k8142o4586o3262l2269l316n007l6393o6532o5642l4974m89J7549J8249Q850l174n849J0919
38513a30029L6884M5189K6091M003O705K8743M3210M1870M0615M5066L5489k194m6892o1015l4035M710J6807p925
38495I3292m4307n8339m1471j8677j9547m3798o3799n9995l9909j7594Q984M5787P9101Q4238N7940K7116K0546L9741
38477D9309N9943N4266J7289k9182n4407m7528k5287p571N543K2643L7426L4782J7289O299J3452K5871K2656o366
38459A96427n7294j10114j29615r1450j6652L8641M0512J0560p479J189J6681J4990j0050m4372o1205m2320k704
38442b54255J8790M869j9042k1280k698J8812M1570P0070Q6544O7197K4250K37J5160M3634N0764K9998j595k7756
38424A45269m3521n2020n6320m9805k0656K3534M7050K3292k4652m4138j2710M3557Q8792J08372J00685O7412K1872
38407C66013j5767m1285o5669q6832q5969o0355l5081k9328l2763k8680j9091j1168Q30K0687L2675J9023j3276l7692
38389a23728l4320l699L5321N6327M7065K4604J3930J1565o631m0234n8138m5941k4437o204K7377Q0161J10325Q3104
38371A46447K6773m309j233N871O380J3939K2873Q839k5758m8936m6357l5058k7002j5941n163r808k1422o891M2221
38352B5465R0503J03639Q3864M7064l225n8552r1246q4399n7480l8821k9059j4069J850K486q955j0424P612K9697
38334d050L5920K2981M488j645J1937L3300M0625K5129m26j9980l2616m5816n7830n6783l6082n392J4314Q685j2975
38315g6216k3192q410Q561o899n4163r1465q1690k9567L2021P7336J00085J02957Q7815N4323N787m0167n3779k1827
38297a8490K8041N1457L7937J6900J0321N874j1848l0360l0010j5824n586k16J0321K1124J6344m496k4947l6071
38279B0471m5660o1500p7920q0719n8555j2983L5861O0921N5452M1214L8999M1044K8368O509J545K0692L8463L0162
38261H2364M476q266O964L3977M4310K6157o044k7763k7794j5600r079j8417l8574n1203l6713O052N2027P0994N7211
38242A45079K9951O859j0538k5918l8745m8042n0648l4928M935M6253N2954K1198j3337k3914k3188l0803l7912k7265
38224e8009o510N716J0990K1965L5340L9466L6318L0478J0186l1677p0379p6233n9653n4097n9771m3271M964N1350
38206b12827O6340N7602M5013L3466K4426K6799L9181M2562K5349j887k6090m5711n6733m9177k9410k1015k8940
38189a11052k8120n547J3034L165j4739k800L7798O9113O7614M4167J6831p756k4211k4560j1551O80L061m433k3048
38170b354n0569o6715m7091PL1992K1137j1523k8605k7915l6231n6912n5308j0303M2515M5821o416n5816m6103J5528
38151c44861P4028Q8231O1724K2803o031j9078k3475k8238l0633j6691J6524M7327N3418M3247M3345N6487N6173
38134I4300K7451r474k6567k0507o969P87m218k3965m6080m6694j7741J9088L8181L7218K5410J633l3810n8121m5145
38115i5223l844K7360K8170J6512J5001J8702R937r318j7747m619J4119J3976q707l0753k7553k534J4412n4l7091
38096g9254o7544p3043n7954l5865j4969M153K5720N4235Q4446R6063O9808J3774l5872m9984l8372l6684o0777q4426
38078b86545o9922j5120M1393O2481M8106K3931P364k041o551k554J0418K6852M3248N7390N9949M1638J0590j3098
38060C7529k3360l1534l9634l1914l693K3245L0789L0464L7562L6473J379n6243r1874q1741m6173j3955J1629L9539
38042a71512O4893P4387O7004N2432L3436M451l1999n9361o2826m5089k0832J176K2833M3351N1773M1972K8249L1347
38024A25685M8402N0804J6928m3376r9692j23816r9622l0167N2839J02745R7957O0374K4006j145k1111l2321k7544
38007A00946j6569j4550j3456R443N2704Q2517P0187K4000k0241l0662l056L5524M9742L2339J0045L221l472k9867
37989C38795n8790n9030l7569k8184l2331j8266J4683K1651j6402n2704l9639K005J8351O64j4766q164O838K0837
37971E7979L9681N4986M2983M329k6221k4681q079m691j5159k1953k1884k6900l8136l9136j8382J3289L3512L0903
37953C2440J1751j2629l7589o0583p1067n5949j7533K2970M5214M6714L6269K0454N256J342J3184K7025K4508Q118
37935C9895p22R314K6211L5142L7646L9598L1373k075n2112q4227p3616l3912k87J0468J0674J5374K2373K4640K6663
37916H2420L4574M0358L2566J6940Q434N261r739l9425o2274n7878k8457R037L7420M2835K2824k309n005J3275K0670
37897A61527R04k0755j4298J2537L0480L0506K3586J1674j0934l2211k8270J215K5659J7614k0354o3652q6311p5827
37879c6910m3599j8926j7546k0666k630K8014L9102K1825j641j7467l4517n1637m4078j312M6692O2923M6199K1878
37861b4296N546m163q735o737j787J148J460m551k3927m6422l8860J8132R5616J39546J25205P1787R656m4301p9564
37842A84753q4989o0201k2199P145J5502L616j5609k3383j3024j392r227l0258l5777j2697K0480M2394N4751O6249
37824H6134O7764M6414J7089J3448M1302O2641M1504o929l3017j5889R488m688o2846j23294j42100j07904m1828
37807a52711J9202M1051J4946k9627m7449k2360J8798M2729M7265N1339N9452N4887K6544j3439m2563m8923l6890
37790a7749k0149j2002j6023k2273j6035O934L4115M4857K6204j5403n6895p7770p7146o4942l8887J1792P3700
37773b37672J03623P7061K7299P951K3656K9703J289l2438l6578k0097j2393j3920k286K3261L5772J9322j2164l8711
37755e7322n4202n5930l6553L40L2586M2901M0048M2315M7837L7922P718k1889k6897n727K0387K6103J454l8516
37737B575o2025m7718q072K0526J4319j6979m6795n8606n1023k8210K185K7036L7036L7753M1959N1047N2514L6015
37719C537N176k5405l8769k6251J68J1111j0062m2586n0236k7619n159m902j4035j2016j652L753O149J5167K7449
37700a86182L3884L7027M1133L5667J2868o874M025L6502N1650L4679J2658R601J2548j189k6337m0632l8346l1567
37682h885k6483j7247l8K0921L9676N1230N0760L7733J8044k089j9134k8008k5569k1595l1991n4137o4206m8931
37664a29949k4356j0327k649J2163K9188L3605K6051J7293O415j1835k5178j6746K361K185k1314l7784k5745J318
37646a75304K1765L3461M0672L6921K0312P652J1235J4185q158m8677p1311n2477m212M3028O7431O6762N4477M6091
37628A03853M2616L0407L287k3727l3549l0910l2440m0770m6982n2327o3160o5319l3118K5782O1747M0043j2441
37611a27008m1257l2163j6665j5496r860K1085O0730P3350M8474P330k8015n2660o6822o4651m3304j3047J0265J9228
37593b70486J7570J3369J2716J5270J2926j295j8657j6146J7782O1566P6272M7809O859j332L2602O8159N7452J115
37575A33551m6871l7518J5411M9013K3510l4228o7797n7752l4252l0330m4339n3622m7520l3473j8463R03K7930N4405
37557b01442O6431O1016N1114M8706M5334K0067k8341o8126o6299k9103M204Q332k380j54J9229L7219M0609L3595
37539D0011K3395Q804j0592k3722j9017n042o350l0204m8047k7635J8803M0545J1110l5192m5856j3542K4408L8320
37521e9803L2128K2053J6884K1391L4124L7017J0815l2505n5925m4265k1666j2756j1746m803K114r99m385O452K5920
37502c9955L8762M1746L6110J4732j9871l9358j8771K6272N6391N5762M0060K5879J7376J6245J8228M739l4777p5384
37484A64186p9463m6210j1843j582r081k2523l9387n1148m4695k7373k2503l1604k9130l879K3572L6266M3282N0506
37466a02609L8774m633n3470o6555l3844J7289N1332M9987K1755m863r819m866j1240j9828n218K3095K8116J1770
37448g4827K0956O5307Q5359M2229j2900j3482K0543K1739j3758k9481j0885o101l6365n6734l0112J6506L9243L6011
37430F3248K7937J8751L460r721j3145j4471j7705j1606M885R048j3946m5924n9969n0691k6210O692L2880K9033n482
37411g2936l8284m3403k9758j2891J3615N2212P3681N1808R814m439J8168M2057L9397J7225o379k3010k6699j1439
37393D8739J5819L6107L7141K0496o054k8758k7106N936M3913M7788J0245l6454n8271n0465l0718j7175j6493k1602
37375b6912j8867n022O639N597J200P017J7830K0234J7797K3934L5630L7745K9964K4912K1986R785o053o989L556N46
37355B00529k1141l8252m2004n2818p4385p1156k2414L2353M1688J5324O467L2241N6817N3282L7536K9327K0250K694
37337B06338k109K3178N0703L4287k6192p7343p5280l4381l541j0119m0383o4655o5757m5380j7001L098O140k618
37319a41015j0893j3767j5943j9460j7906p321M515O151m925k2160l5661l3158o141L3566N2732K9410j5977l9214
37301b57167k2745Q150K1489J3593K099J016J3346L5151N4230N4316L3355J0700M452Q302L758j0167j5378k519J4289
37282b9730J5087l722k9853m9401n3748l8008k343M3270Q0899R5547Q4496N5352J7656k0208m8795o1152o1600o2473
37264f8726o5548n4721j7744L0066N6821M8071J9128n068j0975M59J7234K2193J0160N03J6574M9767O2356L2770
37246A43320j9024n8952p3542o7600m6803j8229O093K0717K9513K7660J627l7656m7155n117M7482N3241J4608j3208
37228d3025p35K3872K5778Q194p639j5234j6479o712J3193K7064K4163J6179J7672K2638J6584J60j6136l1252m9708
37209H577o4057n8813l1907J75K0416K7218L1735M2763N3994M8640K3368K797J3578M3075M6211M213m4659n1592
37191A15732j7598J6273K7463L1435M3647N0822L1759j0535n0471o5686n4060l2244k3007l7347o2939p3947n5949
37174a66652j8457J7443L7865M1649L6098L3184M3400O3780P3405N0594j539n3816q1759r1112j00761j04042o8414
37157b89134J5545J02719J32739R3765K6905k6975n8987p2019o1926l2829n250J0104K6920N2938O5480M2496K654
37140B5145j4828k552J0971O171n590n619J0316L5565N6612N3754K1463j1114p080K5810L7893L087m5660o1176l6542
37121I6626M253M5042P9428R1813O9431K8191j858j7322m3002q8728j27349j26175q5072l2272P905L2599N1136O7239
37103E1885P1049M7883k001n3431p4349n7955l0410k0002k3310j1715K7701O8562P1900L3036r986j8375P131L6047
37085A13660M8589N0752N1166M2179J3707k5397n2757n6224m3284k8344j8655j3950j3621j8718k6218k4799l105
37068e019L3516N9404N0665J1901k5176l1222m145L2627N0085L4859K14k3783j8829L893K1192K6673K9356L0466
37050B76677K2103P451r97o114k3156m4419l5934J3366O4363P2525M0274J020k9229n4515o8537n8163l4019k5215
37032A17481m0772o1331o9416o2788l9142K300M0056M2158Q859k2715k7170j8061j4266p078J8769N2654O9311N9026
37014D7875K9492p586l4846l1075L590L6672L8849J9569O419J906j1454l0499k8754J162K9751K6324o628m4923p1862
36995b6018q2979p4162m1957N230M6609O3691N4890L5338K1634J6840J2912N853o99q033k4414m6593n4113l6211
36977a32182j1487j695K977K7285O5099Q0148N7072K4043J2797J8932J7776K327j2194j0915P980L4371M8874L4568
36959B65776k192l2447l7096k7330k1361j6507l176P491l172k5957k9665n189K1509K7888K2984K4049K4292L095
36941A92992m0523q1267r2090o6333k0839J4129J5256j1215l1643k2331o63k698k9861l8898L719P3094J10686R1670
36923F3185M7616K1068J8411J7880O509r675k2845k9497k2038L960L1229L1519L908j7749r299J0075P178j8211l9695
36904I3529m6487n0217n2588l7231j830K6565K1648j2145m8465o3164m4182L100N0362O4959M6647K8761L0591K9569
36886C9422k67m2110n6052l3688n127M309j071n251m97J2891K8282L2547K0351P015R398J6731K576l3627n9918n0647
36866a14733j1443L6926P5619Q4421N0026q766m7498m3688j9696o019m444l925q175k2202l0110j5736O284R483j014
36847g4690N928L8341O5149N6074J6849k3210m2909m0826k7778j6267j1534r192m342J87N82J296Q522J9702K8952
36828i166L6018L8879K6803l177l0230k9295l439K1500L1242L2272K8635J2287j8963n2127p2178p0492m2509K566
36810a01374L0993J1112m1660p2082m9709m205J7585P392r931j7519j7471j2047Q88J5503J9669J0785m25j100J4927
36791a98669M3188O5495N9257K2065j7058k2301J2746N7436O9552K8863m3651r6617r1759m4381q438j4056l4935
36774b13263k8435R157M4870N3557L9373J9619P223P796J7892K4889J8119j432k7466n5031p3048o4072k6463J4395
36756b32320L3090L1818K4972J1224j4415l2549j5652K8186N6869M4765Q373k1902l1839k0610O596L2924L8245K4580
36738b7645J5641K2169K6914J4299n447j6013k0030k6642k9145j5422P981K0503J1892j1175l6493n1404m3972j5042
36720a79031J4007K0283O231l362R525L9542O8316Q0261O8074L4780m177k8115k7815j4652r657k2235m1076m7929
36702c7030l8829k6076j9068j3535n975n814j8295k5547o976K5183L6305J8049J50N722K2706L3892M6052O4719O5353
36683A20986K4750l2274n5049l3819j0680j9834m8053o4787o3512n5699m3585j9977J3601M4741O3108O6975O1088
36666e2020N3394M8339M0331K1967M39p202p9J163j4486k7504j5207J1679K1608O221j2008j8011k5396m7857o8716
36647h3345n8539j4619L5481O7456Q0349Q1099O6028K8982j9952n5833o0423l8638j4165r458k5944m1678l3264k625
36629i9088K4250K8372J7553P558m053k7593n1137m4701l21N1503P5651O7186M1633Q424k6581m5550l3150n721j96
36610a5961k5848m7236k8283K1047N7220N2824J8282j9234l9394l1377N998N4789Q0147N7371l475o6721j01459r7327
36592a28637n9613n528L6167M1907J9022J129P872K1979J8874N341Q651L4875O0577O4705M7893J9873r581k4123
36574A61383j0693J4675J5508j6200m2729l1574k422K574k0173l5027k0841M764J6265J0207p12m481L105J2488K089
36555E8206l5913p3472p2957l6247k473O695J0627K9506N1750O0009O1531O6551N8943K0763k7718m7322l5091k7364
36537F6024m5052o6084o1941l6221j2088M97Q452J7699K6516L1615L0647K2353J0043k78r122k2739l8099l8907j5922
36518a32607J6450L4189K9669J5653Q995J8776M3158O6251O4314L0404r792k2439n395J3084J5819J4916K0783J7365
36500B39593j1171m5828n2847l3206k3599m3167o4987n4250j5430J8351L2285M3728O8765R3296Q7170M0342k2465
36483B56580o2925o3064l8452j7607j0021k34K4559M9557M4954J670n4580q7116q0928n0721k2753j2235j4628j4513
36465a52457k207J7190L0005K7084J0424r271j8445p935J8744M3454M5173J8265k0365m3601l6047o506K0950K9544
36447c6001K2219J0674p84j1687j2810M500K5321J9673j4784l9158k1389J8416L5008J8576j329o683j1107k4394
36429b5739l1500k1982j0678p671P099N0361R3502Q7681K7678l7336n9736l8602n768J2308J0576j049r387j0433
36411B9324j4609l2789n6608o3371m3331j1808R248J2444N550K172J4736M3446O5743N1352N53m3016l4398K0832
36393d4530P1290P6795M6870J8497R432O216p437k6807l6723l4931l1802k9355j5885J2194L6012L4526J2044q853
36375H7553j7022j7924j1144J3113M6213N3375J5328l5579m6398q574L0974K8001r510l9095l5099q428J5151K0242
36357H1177P130j4172l0004l0106j5102K853R432P13j1489q698J5154M3281N0589L1412O448l274k851j3884m1158
36338G7451o2674n8303l6690k1516j7122m883K2854M2876L0077l538j9902n230J2600O642r579m752K1662L9764L4343
36319D4080K1696J6233P211j7119m4234n5537n3364m7762k9985J2953O2808P9598N2386J5891N844J7489K1817O827
36301A16832j4571k8409l3577l3573k7997j6032k040N924L209n250p552K866J9635L2808M1076M6013M0155J5894
36283A55411j6057l5183l9127m3098m8612l8135j0914L277j3874l6621l0333j304J7837J8206J6233J3404o833l9179
36265a34902n0161k3879J4984L7864M6952N7365O7358O5345N0166K6545n963m2961o6674o3574m0556j0944K1699
36248e1336N0993N6344K7604r419j7159Q138L6543M5188L5676J4226j7958n0365o5097o2165o0514o3417m6855n49
36230a70122M0461L2980j3949m3375j7591M0860Q1897Q2749N8026K9433M546j6749l0922l1879j6415J3923M9494
36213I3367P0104N7703J9321j2767j6354p921j9511n0240o3087l6808N02O883j8713l9446l2593j4538r831j6326
36195i0255j3424P404L4468N3214N9629N6699M6494K8969M772k2724m6929n9664n5235l3917k099K9773N0227N2302
36177I9704L9360K3182J2326L938p988j7458r223J7920L9616L0278m248l3443m2353m5987n5392n1810j6691K7784
36159I515L9029J1526j6775j8810p195R90J3360L4423L9816J1566k1829j8715J2938K4720l037l9005n1442m3881
36141b2806l0057r239J4012J5687j5408n0153m9218r607L7943O6337O8830N1010K7267J6763K3079K4866N022j9151
36123A45177j6172J4602M0172L4625L710k9017m1592k2262J9903N3832N6830M4373M5606N2256K5756l7678q6809
36106C03312q1868n0918m9244q2308j03342p9610k9860M548J597l0697o4999p1948m2473L051L7455N5064O5125O6219
36088a50896M9862K6530K1300L8290N3483N0898M2274L9459L1896J0094r814r704l286j8557n3031p4100o4773m4190
36070f4265l6196l8997l7324k8219j9031q095J6152N5142Q9199R3633O5977L2914K3962L6942L7498l54n9135r3221
36052F6582p6840k7336J7451L3884K4443Q168N491K4259N3289P1732O6930M0561K06m5250p9813q1436l9480K9131
36034I1972Q5371R2674M2793l4395q9221r2317o1073l8989m6220n9684m6298n259L2159L8577J5862j3062k7706k2771
36016a37587m223K0167M3967N9085N7392L9804J8182J288j6270m1304o2842o0658l4229q161k402q996n947J5217
35998a27517M3177N9665N1499J8441k2280m5426l9526j5434R416K6781L4108K8383J3321K596M501J0230P166m034
35980E5067j5486k5785l4385l0436m039L3795N7278N2447K7198l098k8426m3772m8159m5837m0718l0307j1856R333
35962a27186K6355M0408N3238N5410L7139R065l566R572L2158M1849L2604J4505J347R60R435J2750L96k3210m6692
35943A76537o5896p9520p6668m6090J396L6052L9793K1703L47j6019k7515l4646l9409m3673m0340j7378K1342M9317
35925a40667M2737Q599k1196k3228n197N577m908j9105r586K0255L1812k59m7674n7515j6564L5599N6791M1465O716
35906i6348l3098o3820o5788l2037J7103N2725O4643O0965M9973L3447J1003j8176n1893p8022q0914o1359l9465
35889c31061l0047k5658j1590J3406L9009N4136M9029K1281j1266k0150r59J7753J3525l58j486N121J857n943K57
35870b23144J5584J6806K501j805J7824M6342O5419P1037N9601K4310k1947m5199l0735o929r044l2758m4572k9889
35852a26598q510l173j2111j8307j2674L30J2546J7933J0242j5131n0355p1474n7763j7763J5624K3532K2225L2929
35834b58498M4257K9014p112k4235k188L3408N3048O2596P6162P4956L1442l4994o7392m1464P496L8121M9829N8103
35816A22549N5503K9161k873q756J1853L1880M0703M8955N0827K2925k7923n6188m0231j8906l4443o7242o6744k7951
35798F3099O971J4633J2724J5410J0438q050k1911k0706k0048l1474m2004m0199l4624k8601o678L0511M7806K3495
35780b9208q225R33M4723P2055N5600J5825j7584l3339k9344j0405R64j7024m8552m9261k200N8059Q7000P5919M7382
35761B13318K4073J2959O478q866l4922n2030m1060j3465J056l317m132P505J0407q071k4590j3288J2588J7627p150
35742I5120l5007l8985j9444K896R038l001j7586j7587l835P517Q870J1281K5731M6274N9669O0813N0177K7113m204
35723B64850l1994n0262o5467p9396p6111m0808J3878N4275N7413K8401r404l2819l1732j4227O55M46r992j5015j980
35704c9289K8237N5546M9776K033n2948o6059l0838R907K2030J8861K6600L8287L0144N193j2705j9478l2433n2533
35686a9669n6349l2107J406K1314K6694K8730L0898K9460K3183J4200M979k700j0913k4973m1473m3332k0275J1813
35668e9114K9301L3187M1266N1770M3395J5626j956N472J1432j2001m8933o0785m0649j9584k1984l7662m1274k3235
35650a35728L457J7720R524r690j7091k684K2244M4342O3006P6088O6026K0366m1503q3007q8675o9613l7390J960
35632a60648L0215K5639j106r187J7222M1549K4832j8201m0194k2595J3932M9026P7567Q8001O2759R393l8388o1726
35614H8090p1791p3550m7330J1094O0927N9992K1175p390p101K88l82R07P064J033k0043k9399j0266J3883J3330k226
35594H305m76K1416L1584J0935j9804k8920j1804J1080K3061K5344K6012K6266K1354J0541J026J260J2912K9780
35576A99872M0944L4746P759k5320m0370l2604k7297m6334p2565p0402l8296j1151n195O297M3883P8489O7867J8763
35558A29086k0968k5568j5379j7794l2451m1670l4559j4183L614l072l8877p3287o6997k1190K0110K4547Q205O742
35540b13691K8018M8408M3639R276l9719p7023q0205m8781k139M4152Q7392J18649J16269P5904L0568J7259L1998
35523A89974M0368K6303N484p643j8483l1833l7726l0451k3062k8273l8425l8254k5689n895K3355O2174R2791R4252
35505B48967P0779M5870K7936K662l5281o4398o3317m0157j9573j1331p848n005p379j5815k6000l8100n2786n9516
35487e0292m6927k5541j9276k8145k0713K3521Q1965J15199J11175Q5189M8971M102l9411o3893o6626o1154n1504
35470c360k5833J4641L9818K1694k7806o6954p0155n0445l4974l0133j9148J0092M5149O2207N4110L5094J6916n851
35452c4938l6886n6528l8841J1096N5599O5348M7432K6636J3890L796q423k0735k8097k2267L846L9559N3434K5009
35434I8930k3523m6814k9993m262j646j2514l677L3105P0630Q1154O2712K8033j3566n2196o9632n3404j5042J9844
35416F8139L8562M5633M1908J7928k4630o0757o5779m3868k0275r675m677N387J6353J3950p891l5477m3346j9754
35398h8269J4625K4431J677k3127k1600l095P599J1208K3844L5870J9143k0360l6023m996L2889K7718j1913l4535
35380d4914j6362J6823L3929L3102K8077K6182K8965L5150L3858J1468k5264m8102m0907k2231k1649m2863o4098
35363g8836o8045n4826k7346J6817P0115J04472R1999L6534k5647o0042o2428n0612l7681k3888r349Q41P715K1126
35345a49081M2926N6541M3772P050l3387n9313o3004m3804j0746J4356J3348m884j0957Q867L4221L6608J5361k112
35327a04238P974M1652P2433P4527M2655n093m2962n7715n3242l8376j7932K558J2920O664j1335l0621m2786l8897
35309a81814j0268L6132P0461O4779K4298j9006m1630m1659k0161K4731P6385R7309O8667J7624j4769k1087k1828
35292A08164k4798j9723q887r537j9748j3927J2889K4815p767o1291q5782o6366l1918r821M42Q454J3317J1698Q961
35273a70825J2535K2290L1883L3703K2640K246j4305j6509o253J1261L6839O5213P4673M9208N445k4535l4623m5009
35255E5877o1311o1409l1435Q819K8500J6255j8824n5967o4663k3339M8180R5645Q6559M2240J564k3257l6842l4141
35237b7549j3671J665j0243l5711m5025l6629l0980l0958k4179j8593l5254o3393o3276k3615K2049N0522Q0579
35220c04261J24541J44918R9731J2225m5919l7518O596L7915M2834L5928K7388J6691O084J361R02l832j5315k5263
35202A25006k5325j6876p175p79O02n772j9947l3661l7382l2820k8179k0650J425L3319M8101L0055J153l571K0562
35183B8086M6459N1615L8026J9375O530M608Q100O37k4923n0351n3521l9751k9884k4502r587O170k652k9640l4612
35164h9817n906J5218k084k7334j7099J4861K0688n162k0857o247Q301p177l8192n0031l1645K207L5746O1307P2323
35145g0900O1996L0186j1711m3044m6269k3646L527K0404L5427N9389P7133O0522Q661m3536o0168l5151J0248M5086
35127G8154M5456J2137k5369l7506k7923k2035k4909j4379J9790N4917O4467M7091J5090k4279n9445o6505l4209
35110E43J3230L9373L6361K5718K4231K6947K1933N290j9766m5914o1570n7314l5378q169J1576J6464P128m033O03
35091b747K3687M5141M5404L0834K3329K9240L3735K5143R035n577k0247l9612n8231o2868m5627j2699J6839K2341
35073E7120o81l2110m2763k1259J8302N4043P3459P2078M7143K780m2644o4664n2073j6003K0362L9207L6838K0940
35055A70075L009q996j5968k6077m2735n3495m0142n717J8689P413k5771m4258l6072k2426j6265o21L5883O7578
35037c5896O3804L7424K8754M5814N3722K8535r233k8645l0810l7065n1157n6007m1535j6205Q227K7451L7666L1030
35019E5874O285k0996k6989k239L5364N4489M0144O751k0792l3003l6570l6789l1600k0322o205P702J3610l716m5777
35000f4779q0514p0082k2249J4045J3390L035J0958K0077N984r459J1833N5400O6392L0466o236q414M085L783K705
34981a9580J7934K6031k488m3080m0593J1173N7167N4200J8524j0494j8950j2567O184K7685K3285k4109q6283j14471
34963a30432r5605o0620l7783k2556J245L3198O0963P7298Q0275O8289M6412K8522K2112J8486P642n621j1397j1603
34945F8825j3355j2140K203K5618M1776M2806L2909J2605k1235n5923o4638m0535j4323k0837n4418p3134m7592M784
34927a86604L7602K3534j7839m1035k3488J2562L2368L2857L7919N5028O2485M6824K7265K5727L2427K3933K034
34910A83599j0483n935J092P90q83p22p459k6582n0867p0325p9462p4023n4826l5084k7297k1772K508M0952N8013
34891a78766K9692k4149o1829o2461l7130r999P49o468j3690J187L7957P1024P8259O1052L0382q664m5269n4559
34873a92682k3985K1206M2061L2687K2652L3333N2208N5069L7088J3862K170N825J3195N673k3658n7081o5659l8792
34855f4828N125L8387M7819L8890K4938J5505R604j190j8501k8264j5432J2541K8905J8999k365j2314r088p631j1120
34836F9980k894K7380N9809N8955J3381m7568q1761p5180m8984k9188j9942j0143M043J4164J4169R667R516J3882
34818b0714J4881P310m471j1452j0546p603q618j1413r873l010N612J3292J4671j501l6749o5498n4166n321L6346
34799a58823L5677Q534n223M033J1348r49k2442l6706m2205m4967m6349m5840m6043m9300n4453n6415m4255q035
34781f02413M0791O6580M7672J1315N508L7186O6168O4179M7993M1140L4668J1479j3204p976K6776N4716M6662Q394
34763a2366l2882n2652m1606j1472J0473N736j6433l3854l8794l6252k3058Q216M4878N7959L8711J2762Q559K7045
34745h5030N0904O6548O4699L6819r426m2547l7347q595N872o044k0851k1036k0336l2797l8021m021O0944J05152
34727F4887Q8284K3224m3719p9358q0671n9692k9786m036Q849J1975J5965K4823L1854L0795K4924K2430K6467L1422
34709A08637K7368R250j6128l5183m2559m6325n3649n8397n0954l3441j4201N586K5301L1741J3203j4283j6395J9762
34691a40667P3555J18664J38425J12100K3955r4114j63480j37370n9421j0470j3547k8812k8124k4759k7675j7703
34675b79443J1704L1547K2223R297K3838N1901N7543L8759K4574K5932K5916J7452J6081K8433L7768L2538K5100
34658B01163K7819L0625J8566l772k1996l3291m0808l7432j6216Q177J0517j0343k7115k0732m676j685r095m112
34640F5594K0368M1644L4000rl2557m0718k6775r569k703m684n921L20J2991K3558K0179k973l7241o3698o8355n0045
34620a26594j3261L6821Q5605J06442Q3258L3918m820j7399j9112k3634k2300p705K585j1456l7755m5476k8396r023
34602a8302N98J2987L1606L2761J656l5092m0212j7648n752k1693l9420k7643J2078N3440P3548O3698K8939q910
34584I6639k0418K296L1078L1423M086j6662o030K3543M0636K9233l74k5395k7917o103K2576L3287J8552n99K429
34565B32280K6267M2564L3293J2786K257m006k5718n4767n4953j5145K2330J1653l1590m6952r278M0343N4271L8077
34547B73712K7754L0886K4123l92k1630k5813k4829k8355k5187r210p90j8666m4905m3181o222L6486N5313M5650
34529B44744J9645n772j1877Q470L3589K7674j7205o7193q3216n9683j9409J6204M0495N4753O0199N3401K6071k1649
34511B99241o5493p1010l3650Q971J8222l168k3181k2994j0028K811J0938J3697J2561J2785J4434N943j9611m7047
34493A03421n4428m2184k9409k3807j5202J56R197K250j1386j4127L594L8159P1820P9407N2299J4607k305K72m847
34474A77487k5623m0490l8487l8697n4461o5462m8060j4287L964j010n483J4161N6336R4934R7317N2997q568m4119
34456A12449m6815m8303o2164n7784j2910M0010N5643L9692K9521K9183J2479j7485k5147m021R210l481j2235O112
34438D3954K7119K2025M412l126j7653o5568j22113j30357p8184j4299J7436K2738K7111L6443M5062N5706O9317
34421e9977P3368O1448M9975N3464N4710K5450k6986n9915m7695j2926M848l996j6727j2937K601R702l246k5157
34403F6004l0106m452L2545M5196K2900p467j9142j9988l3309n7161o6160m8413j6966J3652L7777M4983K4683p675
34385b3099j6169J0197M0977M7615L8776L3378K3513p138m5118n9582m4985k2831n796J2002L0404L5907K2733O88
34367G1472j9383l0165k2152K832J5832j1498n9455p1871k6740L1918M8386J7773k3025m4063l8424p648L8038O9217
34349e8956N5391K135m5173m4217L533N8971Q6452Q2177O2903L6910j38l9724n1544j9350K4883K9548j2399n3312
34331A18090n3061k6745j4506k5048l3735k6012j5293j5795j9351j0264P908J3296o894l7813n0627l2220M475L8311
34313a85284N7623N7147L2810o505l2857k3888J0889M4744O7190Q1264P5796L3644k8882o5458n7358l8808m5823
34296b3756o5678o1901k9073N804K4439L2531M0567N2425O8044P6619N3900r318p8143r8288n5794N649L2253J0471
34278a9249l3941p0499q6486q3507o4652l0439J3031M8376N9975N3272M8046M8785L8705J2137p603r75J4537R583
34260e0904j0025j1225J4955M0546M2992L1733K2596J1231j1430l5577m3184l1988j3444N443K3172L1878K0839n559
34242C2049k5006j9563K905J5991M730j6625k2889j1341m535j4921k0923O104N8050R2757Q2310M2760J0433K463Q575
34223B23324J0718nj9925l6356l6658k0657l048J381n694p828P990L6500N7434N3714K7951O05j0113n854l213j2274
34203B57992k4604k4483q828Q256J1565K071o488p954j3175l3436o0501p3225o1952l5885p539J7066L1697K9147
34185b76J3894J921p69p271k7429m8411n0588l3878j4511k017O778J4786J8634J5368O890j339k474N299J1494J741
34165i2158k2021m1080m3736l4227j3330K6269P2142Q6716N4995J6678J9556N5971P9338P2195N8506N2210L5824j477
34147C82371m0881o2640o8715o3859m2444j0230N848j0506m0929n6191m7892k3365J1092M3767N1441K3229j6756
34130C3340k9614k839M0114O8440P3392P0975P8812Q8454O7225J046p0538q6909l8642J7306K5371q832m1645n1909
34112B33547n5033o8721q7410q8667n3714J2646P5355R3911O3507K0082l248q896j4615k1901k2956k1939k6430k8731
34094c213j7525o75L546p149j8106j7407k842K0955L6915K0003l1679q0308q5972n3751k0277j108K0228N2574P6774
34075a09017P3181M8035K3321J5005K5205M1072L9735J1395k0261j9380J5233M2699K7589j9902n9272o2255l1513
34058D0870J1617M7060O7530P6153P3530N3361J7918j1698j7314j1143k1965n3832p8251p0609l5901N370L7099M7814
34040A77609L2840P492k13J6225K9225J1860k7386n7185n8978l7492p415J5177J6467m691l2838n1025n4439m3840
34022f8607j8624J1819K2569k833m7775p6996p3288m8787k4117q145M342K4443N5315Q0972P8833N1530L0682L3587
34004B4920L3194l034n6400p2901l5103J5319L4152K2868P623j19j823N310J9347K4358J3624O686J8280K5741k2
33985H2020m0217m3831q28L8554L2437K593k604K3933M7275M4015K4474L400k1510n1708o9241n3080p248L9975O4425
33966A12834O5567N5419L5662k543n2783q1975o4040k1744r278m2812p2808m7307J6289N4439M3528K3899L1518M4487
33948H8352K2486k6650n4755m0031j3077r740k3033j8963J2323M1719L9259J1746q523n537N226M967j819n40O018
33929B9428K345j1603j6929l945J2776J4041k447k6657m9622o4122o2936m6532k6447j4402j2610j5716j3489P476
33911c01391M9250Q7235Q8001N0222J0091l209K047N454O564J1494Q876j2100l2463k3283R654K9003J4376j5594
33893a5773l0648j7976J5299M6799M6600M114m9591o8676m5066j1818P350K2035L9107L5784n899n7952o9346k5835
33875a81492L3271N7544L2049j6176m7006m2558k0113r789j9702l0141k1997J660K6491M5204N6017N4322L7370J0967
33857c4079j6095l7852m6644l3331P0L6748O0744O7320N4102J7905l0084o3029o8127o4243p2185p9531n7746q426
33839c74483L1447L2033K35l4502m6185k1775L4549R5061J20002R1247L3159q672j0862R457K0910J7872K4486N3752
33821F7731P6225N2440n004l3136J515N2434N1147m159n5720p1552p7802r8771j09744p6222j1607L5347L7189Q071
33803a61618k1869l0360r594K8161N3393M5106J3159j6045k8997k6791q956K1924M5794M2114K2497K0375M1721N1212
33785H1226J9965l4483p1934p5414n5156k2542J6599N0884O8557P2009O9588N7193K8072k383o960J3865K6978J0525
33767B46589j9905m1799n8376p8652q4706n1384P648M6249M2964K4176K0592K7035K3088J2603J6761L7380N2444
33750B22707M6867K6481L95k8656n0228m4809j2008J5245M673l3668n7979m4775j0944J4697K2772J9176O697j4085
33732H2558l2923l3010o736L6143P2494P6406L7702k1073n7474n3039l5843m2684o7024o8275l1388J0174K0034L793
33714a10165o551M929K8634M8911N4400L8330O612k0265k9311l2578m7122o5789o7706n1301l2531j2610K3529O9268
33696b01316Q5646M8259j3121m4683l0309k047R034J0304K6056N2725N5344J2972m5901o8742l8836N664J9437K238
33678a17276j0652J91J6966J4578n496j7534R6M1155P2425O4933L1485J9975N3146Q9563P1691M079n0804n4042k9456
33659A95023j3624p995j640m656k7133n0561n3290m5718m8611n3064l5970k965J8851K2896K3638K2143P704r228n198
33640f9398J1476L196l8498p2104o0260j5929K2296L5975L1261K0259J5237K2834L0861K0024k320o452J0441J3000
33622b8101j4201l4088j4793J3874N981k3638k1912J4645L2603O492k3693j7591R233J9689Q353r621l2157n8395
33604a67320o4856l0659K3491N3982M7648K9172J9445J5331J1626J4263K3003K4194J2682K942N652Q646l541k2104
33586C597k3336j074K6045L9550L9247L2808K0298p87k1622k6238j1738M981P129r86j243J2082K3460J6631l975
33567A34829j8615j5092n02Q624M111o198q460j621j915k0629m0423k9234J6845N9708O0517K4693p671q233J7174
33548A67908M4735N2992L0799j4885n7180p2062o5695o3654p1818o7627l6335L625K3336J7167K289l823M806K1589
33530h3833K7791O125l3906n5438l2856J7548N7631O8784O0308M6784L4310K3729J1430r901l7897n2279l4453P038
33512B0915M2797N1330L2113j689k9285k9599j664K6518K8001J2143J0093K7756L6643J5054k3050m7802m5251k2685
33494A02338L027J5134O663j3885l3510m8506n5848m0036P374N7678O4407K0624k8834m2572k5587n664O065J2096
33476I64R369l373j5079k0362l3348o2470q5727p5228l6605j019J4007J4346R163N460J5572M3050O3726M8557P611
33457a01386j5335J592L2930M5887M1985M1958M6868L6965L525l6948o1941o4105n0144k8603o463O971L708j1554
33439a14090k1276j4026Q10O086M91k756K555J0908K0201L2034L5555J5490j6493k5622l454J4430J473j7046n553
33420h0283K0406J4754k8930o9698p8179o2599l4829O070M5195M7976P564l4449l9233j9858j5575l5068m9851l3265
33402d39852J4345P1571J10382J11510P9692L9180O564k2633n4226p7600p9022n8347k0691L1631Q2541R6164N4037
33385e4754r286l4436k581M6711O4735M3629J3257L039J4497K4822J2636j8806m6425n6009n6170n7058m8826j7515
33367a78540K6084N3926N5837M8065M4647L8816J9762p741l0288m1214l9270k1582J0395M3650O3482O7831O2682
33350B16542M6962J5134k4104m6405l8127j5043k913m605p11J8167L6327L5396J6475r238l6412n7578n3627j5373
33332H0867L1881M9583L1532O128o852j5707k7897l0346j2979J1772L0076M6027O0425N1339K577o1707r7900r0727
33314E8092n7825j7689J9042L5173J8463j0750j5612O632J9487K321j9654j7647m327j0646l5143m5624k5728N399
33296i6036K1875K0197J3351R116L803o460j5585j2818J104Q842l441k2350j7161K0815O1124O6691L5114l497k3146
33277F1538k3058j5855j0174q957j4238k6105l9701m6977m1005j9219J4459M9546P2074O9258L6311j3837m8894l9071
33259d3905R351M9647L7040k4426q5805j03493p7109l7969j1484K040J5403L2615M2516L3562J1678k269N229K6575
33241a20804M5822N7074O1455N4323L2062R107Q291K8423L9623K2193n430j3494m047o612l5206p0512q6567p6629
33223f0928m7596o687L5535O2105O2902M4961K1862Q39j2942j2297j549k277k6664n3141n1559k8463j8707k8482
33205a23088k0893K2943N9966L7584k6967o1956l4827J1505K8158K5071L7843O1190N7911K1918j1474k1001k6026
33188C7857m4807o0459n0644k4787m330J4967M9377Q6751R3467O1403J8213j3543l9747o8693q7825q1472n2516j1976
33170a78764L5241P8010R0181N7022K294l1642k8129o124R364J1617R593J4238K6434L1072R676l2425o2404n6094
33152b0840k6455j049J4659L0458M1809L6114K0981J5217J5307L603j2064n684J5662J1679k4891m6420k2173Q922
33134E4835l115l9426m0532K323L5809K3578r579k2780j1223K791M127o724k1641k8114j6860N805K3586L0123L0713
33115A3696K6363J4056R71l272p532k6118m4530l1933M098J3494k5155o5179n4622q822J9162J8946K6025N2645O6465
33096a1242M7428K1982J9788K9153K2012R50p525M125J4139K713k4084m3527l9406j5803O633J0882L228O013K7215
33077G4674M7941M7250K8112Q715r08j516M924J2477Q609q463j9029q670K856j4188n0056o1509l2800L08J212k0744
33057A9195l4849l7147m6010o2941o7137m6997j4232J4867L5045M7297N2308N0612M0929K1267p49p817L774J1302
33039b1283n241k9696k9093k738J4540J334k3061k8035o925K6490N7168P2716O4362L6960P717j2571k5852l1904
33021F4888k5683j5915k4305n2852p1495n4696j3761K4481N4218Q4010J06745J02363O6954J8562k4450n4242o5659
33004A19163n5288k9787l296J3906J7675P736p478j2691m354J852n417j3925q488J572k859j7948k3202j5001q776
32985d6606j0001q103j03L572N5n20O693J7367L2357N3263O4036M4450N479j7664j4554j1053k1900k6175r166L878
32965F5305j5726n3950p5392p2742o3367n0481k2687J3147L2276K7785J8897J9829K4105K4279K4206K4519J6852K330
32947f0815j743J4818L8915N2601N5929N9475O3124N6143L5380J2095j105m729j1658l1913n7775o7602m9633j8849
32929H2658j244k759n698K240R773J194j7945k7075j7084J108J1771P805q838k9227m0301l6502k9602l5697n0176
32910a85599m8981k1059J3955L1599L4472M2015N5940N6190L1563m380l2121m3771l6672q755K8448M9439M3190K8292
32892C3765K3035J5125j5214n2013n3665p839M9969P8907P1247M1694K963l3671n3827n4722n1528n3395m6179j7090
32874a22438J5468J9710o189l0061k5669J601L0900M9195N1957L6924R479j4428k2073j7110j1142o105N457K3265
32856a1259L3625K6589J0898J490m136k2245n2427o8524n3409k8228k4160l2958j6048L3071O7712M7317o337l6989
32838a36018k2463J0854L2469L8380L8557L9263M3335N0324N1934M0969K4929J5868R085q676l0747l4108j5606M33
32820A48782J11O73J8032L5323K4225j7126o5338r6865r5176n1323J7550O4394N7052K0203L846J5655J8224o870
32802I1372l1146k6895p117K817L838P575N755j3913l6258l4537r892J3388K5745L5737L8879J6852k5979n5723n1028
32783e0530k7936j0330M05R956Q711j0727k7951j3721K8931O3774O2898L4814R707P282J9652J9167j4480o9019
32765D0603j06179r9803o1128k0170P406K4586L5507L9667L8001L0806J4607o261j2150J1971N3357Q2693Q3371N7057
32747B13941J1870l3821m6467p531N0639O8989L0231k1316l7654k1297r031k2470n0743o7818n3350q837L6204M7323
32729G8862K4457M066J2050L1423K9980L063k8772n0538o0660n7534l9369j4377M942J5705K0954J7307k33k4666
32711c3340m1038m2913l5692k6269j7463r659j853N721Q382M779P834L2177O6853Q0761O4400M3860L9408L5052J1402
32692A92402j4459j2748J1158K5346J7835K287j4361l4845m6522l1358l474n0k7292n0337m6903l5170l2911k5208
32674a26610K585L0274L2131J9153J9743L3080L5295K4385K4580M3172N2957K9918j1494l6245l2235k0992k5414
32657I4283l8776l5354r545J0311j695k9054k9377J0105N5359O8725M7019P415l9560q3446j01288p9461l8311r971
32639b02621J955J5886L1947K8957M789j0626L979K9864L4479J4674k042R466M9449R5402J16538R5072M4557O39
32621C62364j4887j2042p583R53J7548J9354k1414q6407j14015o9061J1466O0692N5004K4877M051n610j7230k9798
32603A78262k8456m875L1014N6726N3634K3662r346k1544j3282n229j1257k4378l0696k7261k2070k3522l2511l8841
32585E0030k6042J0398M9808O3656M7614K2773L554j6665m1675n6246m8669l1183j8981m792K2079M3414K8312k0541
32567G6844o4245p4952o1604m2463j7291J8784N3278O8417O6229O3704O6127O0530L6821L183k4629m1105n0942n6139
32549H0547n3489m5787m3977n0362m9583l0221q352r644k9347l4343j1487J1927R856n300q897m940j1017j8274k408
32530c15098L0972M8091L7766K8310M4056P1519Q1803O6465L8622J3841m7o656k0939n2204q3825q5787n1898q280
32512a63289J9693L1575L8088M1763L9313K8237N734k3471l6753j2229L7006O9701O4760M0671K0437M187j2379k1940
32494A71104k5735m1802o9766p2744k4032M5861P9518N9934K0979j325k478M41j0135l8632o6483o1584j3984M5338
32476e525P7505P8046O8926O1115M8332K9015Q865j4213m4053o8324p0033n5341m7330n2453n5411m7766l8133k9472
32458a56250q562L1768P4412R1715P1050K5027j7203l1793k1249q466l198J1077M2286O0317L1146k8792o5737n7084
32440D0464l5091l4705m7299m2476j4488J3086J9282O696o952r586n891p835j5875j8345j2300r369j1201J520L6973
32421a53392O7587O3409L4616J1335l886k6271m3160k4302K2305N1148M4264L2049L7214M1947K9220J3775O690j1165
32403A93383m9104p4772n8900k4966j6260l2969l8862j6912J6089M0745N0736M4667K8427J8669K2937K7391K2922
32386A53221K4382L9195L9670R40n2003p5044o8526o5703o7194l9189J8932N7306M4235J0375P27J6106K8940L0159
32368I6529L0265L0336K1333N616m099o152j3537l3825n6091o2252m8458l1050k6874k9471j6933J2474L1154K2203
32350g8832P901J4266K6941J7443j174Q878M0689M2453j032l6793j8601K9769N7394N4098L7858P806m2715q6446
32332G9903q4645m2863l540J2892K1546L1001K8264J0413n363j2137k2045l5831l4647j3934M025O264J0708L3395
32314a6594N7800N7813L3690N474j3971k1164j3630o26p759m5000p9212o7181j5410K0308K565m2596o1739l9319p893
32295b54444J423k295J0036M1498O2659N3022K9639J9800J8870q58m2675p3942o9324m1829j7825k681J0273J4877
32277b43776J118j9906k3698k381L0517O0363P8165P3281M2764P800j553J7885L9895M4006L4428K2471J2639J1499
32259A85517K6307M4499L7744J384l1259l2243j7025j5210j9622L201N5230R1557P2766J2089m1463n4170l1839m117
32241B83346K791j7429m9461o8148n8444k8830m269k035j3339j2969R420L3346L0879K114k5083l0306k0955j4085
32223A6543j4065j6914k1987k6953k2843p739M307J535p418p207K348J2907K4149L4438K6673j0564n3589o2755l0860
32204a59994J2538M3995O4544P3777N9834K7009K439j052j523j0633j0010J1158K4406J793l4136l8972j2026O771q25
32185E9093j3681j6526j9889k4435p085L4850N9255K9337l2394o9610n8381k1504J2444L4520M3002L5122J8752J1522
32167G4392J8280K4042J8136J2370K2976M2646M4590J5033k7708n0805m0114j1854P944R909L075n471k1102m7328
32149H9011p0211o8311l7555P52J8211M192k4353l5949j4345K0210K8033l692m1855m7366k3422l699J29J0200L8517
32130a61503O2252N8688L9037K4793J0658j9261n0720m8978r228L2519M5073L3068J4888l372j7072j0871J8475M1653
32112F0099K5563k0991n2572m0626n396J0507j0592m5506n5498k5467J8822L5586J4153r353N564N1120P8060N6793
32094I0266J3490m923J1473K8955J6406j8718m5347m7511l6574k8227k0590k607K2710L5583K1846j0938m3555o3402
32076h1663o6978n3086k4993L868J8197J7070J4334K0952L3062L9323L4649K4560J9691K6833M1569M9251L6925N475
32058A59039l0791n3842n0496k0265J7482L2240J2647j4722j2354K1291M8683M2251J9018J3938L2534M7735L7306
32041C01694N816l0006n9231p3685o2748k6436J1233J7645j3367m8980m8031m190M6291O0646K9913j7049m4069l8385
32023G061j5546k70l015j2893j3785n614l030j1613j6777m951J4394K2162J8249J8401K4789K1250K476j3701j4240
32004A3347j2274k4388m1813m4728l5260l2861m0246l7698j5030J1433K1785J6133O130k342o304K076K5406N0380
31986a46254O1209N9046N5200N0368L6757J8019P257J864j8763n9245q8876p3437j7071M3252P7902Q2855O5319L3942
31968A89344M781m575L992Q413n548k7461l9241l5168j8047Q965L5267M1725K1264q889k8248l6513m3393m6491l5793
31949a5616j1874J6159M2691O0201N3336J9214j5609k2413q403k578r555q088N054M439k1238m6165m2344j3988J7069
31930B92L8423M5067L1665L568k1059l3295l9667l7289j0177L2157M2989m227o8494q5390m4852Q073L8130M8643
31912e5443N1084M5485L6559L6215M0183K8644j175k7435l6887m0596m6203l9968j2757J6947K4476R150j2199k7373
31894a1293k9234r665K6160M9774L6288j764k6127j8209L166R839m865k6642l8352l2015j2235O015R080j256r888
31875h1223p473j275k584r550j0630k480M680K002m913l789O515J2969N067j0109j4047J920K4679L1415J3781j2906
31855e7951k7034k4636j9903k2258k2698r371J1214K0310J2842N726J6384L8692M4380Q883o0247j18821j19845o1875
31837c86208M362L0119K0761J6707L2642M4154L3804J6733R030J190j7337l1801k4584n772L100J679L091O588L792
31818b37950K197J4218K8174J8326j5439m1649l3838M059M7587P1188O4044M4757N0452Q8322J10607P0339p639n2551
31800B25204m3140l0134n3016q3800p9373m7057k0548j939K8534O2530O7668L7446N32k1356l4059m4879m3983k2398
31782a03768J0325L6482M5882L7306J8234O927J9104M5559N6811L8993J3014O773J7934J9141l615l3317m5544l7018
31764A49223k2558j2018k416Q487J2747J429k3070m8037n9694n0574k5218o58P962N696J0341K2936K2396l27k2237
31745b5590k1055j0758j8307l7150l5625p435J9147K4140J6210N470j0978k6537k1805n6N225k0378m3234k7576J3147
31726b23145L8919L7318K4264O788j9313m0970l2067Q790M9442O0329M3783K3663J7069J7341l26m8995j00348j02923
31708b40381m5060K0284L6872J3146j711O884R959l116k020L0902O3897N7462J6784k1847l7761l4677j6876J5298
31690a31961M8388N7673L4636K135o534J6574M3353L9890P755j5338m100J7247M934m3718q3731p9158m2514q432
31672a42901J0370K4876M2825N8528O3211N1748K3704j1803l7126m2019l4645k8339k1961l107L0839O2547O6403
31655A13150K9008l6477r2798j02814o0359L445M7708N3484K9746j134j7791j0147J2413K6230J6756m136j1620K622
31637b714K2734L0507K5925K1784K4761K9378K8718K2456J1325q088l3743m7766l0386J2009M6601N0889L7802L1834
31619B74026L2316J9490j0397l9758n8435p2961q1795o7000k4031K1205M2972M6786N0134M7109J9599k2463m2298
31602A34499k4233L844R469o74N317L5720O1446N4254K2686p49l71Q275M338j1919k6757l6910n1206o9908p7608
31583C9513o2562l2375k048K5689N7307Q9063J02541Q3713M0919r07k3480l0476l8086n0988n2545k4506K5673O5941
31565B12386P1275M7625K0068L737n612j5854k4571k5351k1821k7029m6875o9396p6542o5438n0387m1125k7934L106
31547a39738M5016P1396O3666K9540n755j9836o865J8870L1680J6493j4792l5805l4771k1900q988L738J6099J9081
31529B7129P717q278j7736k2254k6004k1805l671J3166M333k9741n7697n0518j0261L8325P2858Q2958O5946K7203
31511I1670j6266m3690m6920l5859k5497k0223j2458O069L4793O4399Q2976Q2272O1851K8941o854l8276n8658o0083
31493H8187m1341j6992p328j4875k0056o286J9707L9287M3105L1504N844k6085m5920m3809l4233l3855l1494n102
31475i9742L5090N0647K7565l113p865J1087L2871M8491N6680N1036L2738J9935K3365K6038P218k6040n1795o4906
31457A69300p2787p0426m6201q162J9634K5953J7934J814k0375l7204l3510j1917Q750J6009Q981j2790m3424n8269
31439a46690l5200R296L2131J7572n681q077O886K3645M2423O5863P6760N2640l386o0585q5378o3611r987L7526
31421e3853M5502J6331j7365l1794l0168k0563r33K2222K4681n752m6843o8104o5211n0975k8134P118M6465P5802
31403a81574R1222R1814P0636L3419R671J7493L0950J4075k3452m1394l3121l1712m8430n0427j6133K6573M1761
31386A371L2712K0099J014l5843p2877p8886n4465k9588j8040m766J8539L3798K3046n906l1734m3229m0691k5838
31368c11284j255K6702N1898P0188P4200N5685J9892j0790j7739p381k770j4565k8537k5184o199O251j723j4640m671
31349a41922L0888O1344N8634L0922P313l198j8147m6455o8094o0576l1922j1919j6879l6498n1650n0693k8631J3767
31331c63716O2016Q9419P8377L9191O40j8068k0357j7880j2555q1J4208J6328M353l285R328L0943L5444J7136k068
31312d0627n153l293j4778l2791l2451o588K3574L7873M2605N5561P2887O5040J1771o4027j07231q2419j2864M0283
31294e2628L8682j703m0346n7320n7927m7615k4993K682J8816J7924J1940J1486J4835K0205L2461M8301M9729K6331
31276A0860n249j7852m576J7436K8544K1970L020j6322k4639k0755j2863m228J0711K9099L2625J2391j0454q646
31258D1072J3200K5313J4299m262j5629k4914l9326n0987m8342l1179p120J3955J7599m650l4132l4819J043L5174
31240a33705L0582J757o359J9615M7254M4078J1449l1150o9774r1959q1020l5854J3347L0054J2393n420N187L6428
31222b03097N9813O0854M8065L4424K3500J4330P393K96j2895l0400l8531k7820o557J1940K8376M9259O5616N9805
31204A44371L4444J3976J1754J4321O690n680j1668j2893j3114o946L157l259l3912n7364l6792J7067N6452N6812
31186A77416L5527J0723k1450n6676o5065k9597K0090L9424K2410L9n570p54L349R535K2025L0841K0170j1490m5885
31167A55062o0771n1283l4243k8028k9974k1570L504K7193K7848N036k1620l1251j6613J0161K3082O046k3032k5683
31149h6136J0203N0715N5889K7135j8j27K1594M4270M9443L0055j644j9984j5174r822k7906n4738n2385j3382K6422
31130C4410L3374J1477j4735l1369l7835l5663k8588k3532k1527j5588l491O458O671j948j4692k3036j0368L3450
31112a36532Q8484J14544R3038M3619n635m3907o6274o2770l6009r339Q25K877M041r316m0391n3927j5553N2333
31094g9892R0461P5138L7742J2592K38j0357j5263p197O666J2289K440k1590m7840n3638k7537P756J6687k848j9212
31075b3365j5970j1584k1782l3483l0853j8296r19K7129N3791M2780j1439n1633k3015M8246Q5983O2124J7675q716
31057H6673k1346k9047j8204J1018K1905j1683o0090p2044l9112J964K0901K1556K2748L4292N2424O3866N5450L0921
31039A72192J2905J6507K8472K6761J2668N256R571J1207J312j4036l1265n4563p7134p7665m7834q109J7132K7976
31021C1353L8264M7331M1081J7550o542j7779k1304k8429l7772l5593j1704K8251O4262P5619N7575K6188L144m939
31003B66556q355j6046k3640k4261k3455l2460m7752m9711k8010K69R403j271o474Q654K5849J9595m535j6457n326
30984D2573M295j0751l5907l6340l877L0202K9998p895n2772o7375l8670R243L3825J5747j8057k3522Q766M4380
30966g6137M9784K9593J0381L099j754j0257j6372j8058k5196m2585n4208l6415J1685N7912O4990L1256l138N09
30948b4911L2891M6492J4779l3073m7337j6099K6664M4982L4766J3696m382j5627j7890r569L536P874p078l7623
30930A2091o6104p3118n0214l048N1353Q6964P9601L2311j3011j1729K9213N4854L1771j0422k7741k6311m1773o9634
30912a4947o4491j3675L3648L2101P00j0098J1689L3909L1843J4900L592L211M779j429j6248k8967k6671j0654M080
30893a2728J0948K0831L9377M9925L5845R045l616L305J0075K286j2156j6852m305J9437L6071K5009j4137n3054
30875A45306o3428n0513m2615n1791o3715o3890n2830l4170r034J3423J9776J3249J3618K9467M6726N0902M4173
30858e5346L3502J8669Q80j1721j5245j3313n228J0836J9777J072l1385l1282J7206O5926O1715J7532j0059J46J7286
30839I0968J5330N288M021P260P925J2711K3705K6378J3215N42M288J4723J3170J012o257m295j910m429j0167j7170
30819A96308j9754o285K3655M6588L7827L297k8533m3115m8862n1221m1020j5219J0157J8367R821n956k1983k9877
30801C4195k0927l255j839k4478m0630j5525M0995Q1236P4226L5028p74j3166m418J2108K1015J4197j418j3342k2092
30782A51136l7665n5644n5029k9129j890P51j6563k9634k7579j7514n004R444J7489Q071j1274j6541K378K7555L7038
30763d9604L1033K5273K7974L3719L4173K5059O309j5948k9785k7994j7407j0275p137K597K0601L0533J7712q389
30745H8444k3996k2797k3369l9322n6647n3874l3916j7219q913N736L3513O3664Q9205J12644J22891R5786L4557
30728C66387j8504l5875m4177p6496j08542q8907k3471K1413O049l8112o4454o7901o3556m8091j4745K0617M0911
30711b37454N4933P3750P9982N3939J5069J473J6484K9703K6605K2799K8438L1447K2660J0634M455M579J4257L5170
30693B88923M7854K5019k6553o5387o8880n9929o3775o6750m3619l962J9560J6462J956j6596m4242o9176o1285j2533
30675b02913M3114O5554N1588K9771K2806K8318L0752J9085n653l0042l4894j1581K5527N0000N0451M0536L7101
30658B09520L5729J8537j6672m8924n9799n4333m8494m6697m3395l7753l0639j3117K1532N4131N0928P747l6207
30641c7906m2740j8284L301Q855J4277K9338L9303K9410R732K429J2987K6291K7609J6534M83j5099k5423k3664r318
30622D8115L635j799k3555m0662m0583l3922l1847k3311N396L8550M7031L5886M3396Q2004J12360R7851N7422L3873
30604D09840L0878J9998j550n224J3455J6818k0367p1257r4174q4361o4171m2191j2553J5031J5605j6852n5772o8961
30586a5808m8709j3637J0108R510m727q363R019K9893K9945R334p933m175J3196K3828J6430l107j9108k0388j1402
30567f094p831j7243k8656k7682j6732j0600j5914k6167l5327m3922n0242m6831k9898m705K0973M2175N4173N2223
30549a98300L7670K0047J1327J9333M2502O5587O6787M0237Q515L84J6847L2474L0656K1366J8674J7114L708j5794
30531B39134j9106K702K7952K4322j4865o0076p5999n8889l4254j9826q864L710K202k2363m4201l2408O35J3976j158
30512g7376j1520K057J6817J1314J029O726J6782J1006J95Q373K8555K9512K406k7797l8338l3035k7323k6303k2449
30493a29369o700J7640K9135P278l6207o2192n2433l3130l2676l8308k1534J2905L7596M8360O1425P1607N4449J2500
30475e9654j8763j9902j0163j2138k4242l8080n2670n8657l7298Q679M7488N6307M4512K7599N447j7192j7132J5331
30457a60528N2162O1007M7390L9799M5622M6866L1831Q975p964j3219j0842j3290l0446n1762n1709k3240Q058J5294
30439e996J440j2921j6331o937J4696L4502K5786j4813m8155l7107J644J9787L600j4058o771J2610J9352J0519j385
30420b0538r222j1268j684K5097O2198Q9172Q5551M8137m045m6233o9815q1289q3095p1736n5093m7214l8064K316
30402b26825P0954J13014Q6389K2952j1075M45J9614K4122L1491M9330M9500J2791l4872n5596m6595l2404k6845
30385D6390k3256j2732M003J7922J6691m246l0817m0919l0435j6843j1873l951K3206O3827R0828Q0290L4269j6007
30367A86347l3554j2185J3822P706k7049n4777n1033k0834J8148M7147M6050R109l7187n6334m3699k3258o503J3081
30349b5003K5298N296l7259n3054k0984J4655M824l5952n6312l9847j2446O625K1825L5279L9585L8183M3690N2492
30331F895M6237K3597P694J3756K7745K7256J1056k333J007J5743K5943K3984J7064J3476R814J447k237P474J2454
30312B88072j4757o1188p4637l3610J4397J3405k6659n1223l8793j6342m470R630L8286O7438P6818O2122K9461j0248
30294B67702l6619l3804j5698j3444l1135l9529k2820l362l950j1882k993J9275L4695M1516N2521O2292M6230m209
30276C04786o4410j00116r6208o1802k0715J055o587k4663k0229J6453N6029N9414J9171l5907p3534q4008p3571
30259b04842m7602j2154J7038K5369J9628K0638L1064K8213q2k9133k5098J1893N2418P6840Q5054P1711K4379m3081
30241A02253q3236o2560k089M7518O0572M8906L0958J1796p029j8917k0383j5343n952J0990L3935N1971N5704M5799
30223B84893K5940m567m3977q0075r8387r5988p9147n0251q501L5093N6662M2542O361k6309m4836n3888n1283k3398
30205b09116L0210Q0588R1526N6995R540r168J4594N4466O7151L4289j5886l6426j4413J5676J8323J350l208Q926
30187A95417Q339j9896m8365m2810r341J3204K577k2909l1806j7352k35n63j6807l2709l7082l1638k3577j7584j4136
30168a47273q812N623K7287L6618J5136k2427l3213K554N1247O6528M8012L3603M1132N0519M6654M4696N6885O3627
30150C78396M2435N874j5937j7358j4984j3249k561J0276J038l4517o7028o9452m7923k4935r018M041J3965J7691
30132A56754J9404K2367J7768r79j8813j5311M26m935m0972p3439o8738m0810k9103l8465l1659J2123N9809O5711
30114h862L2341K828q98j596k1543m3243l7441j2194l752k1718l3069r879L1003N2939M8312M1353M9532O3511O6447
30095A94071N5667L9609K5330J5366Q505j624k1815m8663o8318p0245n6675l7464k2179j7327k1609k1757m251K4044
30077b9335L7908K3728k001j2303Q0J9910K9156K1587N247k402R045K4168J2389l0963o8299o2371k4623Q72m629
30058e2836j7288j1483P002J6745J0649j542r188r144m547j083r04L14N798J1169J3666K1838M3064O5811O9755N2260
30038B10056L0447J8077J4018J0799J36k5389n9942q0283p3234n8764o1501o9297n2540j7078L596Q184L0836P3928
30020i7951Q9672N4058J1868J2033L7520M1825K3102J3734J8300J2508o783j7328j3727j2584j6577j1802j853p364
30002A28651k7007l3380j5658L728L674j0722k5515l5200l4460j6207J1637K6378J7425j058r212k62K0316L9285
29984D2413L9978J7952q977k0995k0789k1293j9900q855q59j3279l2617k8493j252J9367K2887K6046K7828J085n4538
29965c4291r1793p3106j7807L2441O6662R4697J08097Q5658K9621k9857o4451o7490n0267l0391j8375r348N097J8308
29947d6595J7889J1498J8239L1090J8418k5065n7972m1611J2954O4596Q7943Q2714N8257K7495R24k5632n9802q4653
29929I0687p2091l3896k0517m8249o7603l5173K0367M3212K9030J4019J2226J3063J9980L7607L5073j8353q4971
29912f5589q7419j5390N2287N1332Q485j1999L746J9730J0950j1871k6331k1810m637O198k890j8451j0729K5799
29894i8589O0676O7832N8782N8478O3672M7410p47n7110q6643p3954l4113k35L888j3263j8451Q887M9431O1634K7243
29875A24828k5960n0677k9250Q049J8707k419k1639j4228O139J5951J8527K9469L9824K4574j4107m1334l4049p931
29857D4474R408J2285J1657J1186L553j5171l6918m6436l5035j3973q777k9456n2044m4936q716K8748N1993O7957
29839e0201P6898O4036L0176K271l965q534l3333o3265o6352m0385j3141j813K584J0063J4082O154q520j9314k3561
29820a26120k2887j4012O064K7711L2480J5076m288K41K6759M3064K5022j1683l0568j8868L582J8243K9752M6263
29802D5831N6077M0758M503k5114k7102r452P28j4140m4507o3596n3521j9993J7363M1843M4419K3956o086k0736r545
29783a8314O015p77k1932k3462N912L9940N4927N8739O6512P1028N7472L0770O320j4262l5748m7086l1979L12J8546
29764B22933P953j3604k3508k1545k0359k2265j8180l645J4748K7879L2369L0574K6857K4299K1822J4040k477k0579
29746B77312k4248n809J9127K3810K711j7842j1765J2013K2352R242o158p787q882k7413n4991o8820o4161n4629
29728A4062m4781k3509J2480M6277N9521N1084K9652j44l2193m8660l3577J969K4150J4010j0755k2287j9855k2709
29710e265l1489k2149J4567N0825N5088L1310O604o047j0335l812J8256L9320L1959k452k9641k6178n382Q296P743
29691A21218m552k8801n6181o4737m5757j9063n218K008J6859L1173K6438O039q523q518l725r66K512N556K436l064
29671c4866R25J6749L3320M0035L4796K1541R979J1462K2835K2789j84k5602k6490r025l259j9180l7406m1799l4578
29652a7958j8825N072K1899J1711j4006j8149O021J7169j3606n3430m9236O03M7588N4347K5651j3225m0177m1903
29634i0454k2697p545j4404k5784j1042K5937M9037M1894K8135L0525L7246K5232l439k6978l1755j8012J0972M7785
29616D4653P4811P4783M7373Q370k3827l6601k6542k456K0362L3515L6974K7336r45l8572o3689o9816p2467p5916
29598d2654n6310P2O0894P9407N1193J0585j9940m3087n4377l7371r22J5357p219l6185l1811p66J8254Q910q039r575
29578a03584K112J0275Q002M977J3151K9603L8144L0384J6840Q784J87j5934k4800r262J5568J9401O243Q024K4805
29559H2920J7489k3258m9120k6002R662P951j8147k3763j0789j6081l6911l1858L310K0663m860l5755k8261J0857
29541a51953M5272N4756M0052R751j8176k3487p825O513R026Q408L148k1928n7328o2225j7831M0688O8095O0325
29523a4719M0739K1564N262J004R135N757k6731o4623o6828k7777J7196L4611K0863o754k6971k5523n756J2981J7196
29504g9374J3172J1541J0497N176k79l140j0145k1278k1473m601J0992R507L154R340J9300J4927K714L054J6218
29485a0698K7436L7042N5189P1428O0929K2020j9637m6165o1080o5804n0142j5028J6924K4831J0758p355j3023k000
29467C5625J1789N140k3983m1461j3890M3721Q1822P6874N1465L1584J3868j3132m0802n1487m2214k3062l531Q927
29449A07253Q670N2m594l055p555k2357k9346q970L0840N8182M8676Q414l2569m7136l3289j0533M728J2744J6520
29430I6675Q374j6377m3338n4878n4632n6266n4981l5678o698M426o009q554J3428L5331K8275M455K071L4718P5967
29411c3691R0779O8090K4649j2384k7232k6560k7884l5640l4830j0947L0631O7800P8075N2426K663m3902o7000p0679
29393B4364o8055n4047j3529M2370P3885N9127K3490O034J0713R665j3506m2849n1799l2700k536J4350Q638o794
29375a3179j3926j1765j3629k3609k8401j6232P683K9448L9748L5163J8468K451L25O602J271k0222l6430k8731n647
29356g0612J3255K3052K8187K4547N636k0032l4711l1898j8617j701J6163L0377L6177L3964K4543M680k3094m3816
29338c900m6142l8941l7122l5655j5817K1576M7801M0271J3568L909K5113N0535M4128M665l1409l5247k2137k8428
29320d3232n8341p6401n7219j9550L278P551J2782K4099K6555J3695j674q539j0814j4172j5082r523O1J2611L0718
29301a83197M7514M4804J7550r108m954K4731M1459K1708j3125k6975j6142o074p588m012J1781J7198k012j6708R675
29282e3475O1859Q7511P0419M7848M3699K7436l1359j00799j21152q5477m2813k4434r458K6739O8578Q7917Q8705
29265A41744R3149R5661O3345j3260r4568j30893j14020p5931m5131k2992k800R910Q770L742Q927K0446K4716K3811
29247e374L0939M1508L4617J0334j106J6635L5719K0885k0287n0742n7007n8488o6230o4199m0555j1335L509R960
29229a71217K6929N3404O7904N8955L9902K9398K8524K4724J2126k053j1735k3412m6127p3513q5593p1603m3439
29212a86826j9885k363K2985N8102P9443O2705J7583j7109j9778j3911l2499o2886n5562M150O2546O0209J0015j9522
29194e2603P913N8165P8528N5959J3225k4589m2289l5189j7510j5245l2888m0455j1490L7790O6944O0653L9575K6171
29176A72665J9239M312k4657n8032p7547o9932l9059m281J5971J7882J1884J5265M0758P8252R0463M8474k4084o6164
29158A51409m9524j1343k418k6450n0784n4704l9605q663L0763N3126L5774n905l0669k0291N633K3281K9258K8447
29140E7335J9693K334j7613l4430m6437n1043m5188l0144q137K1039N1609O8702O5232N1912L7619J3202k7630o5860
29122F2195p8734p1601o2779m8968j6688K1337L7511L4226L9814N7305N5699K2101j3646k1976j1087m146m806l387
29104g630L753J6789L6058N0806M3360J4645j4632l5566n8345p9552p4484l9124q450r526k3697k0737l874Q693K2185
29085a79328M9703P6848P8950O0862M3877K5401q460l8300k5762K3737N6613M3036J4781J1532K3305J4667j7519
29068B53943m3404m6637m1905m6974o0827p3756q0348p3635m0748K0441Q3585J07738P6783J9082k0739k7323k2712
29051a7436l0383m6061n1339m1998k7606j0804J4188M2501N5624M4238K2123Q931P116M851l018o998L128K3234L8012
29032B8303L7598K7675K1845K6256L4552L6630K7956J0157j2110l2486m5462n0319m8707l7043q481L2146O1549N5332
29014A65391J2380m2471p9012q2079n6123j7820J5080L3488L9015L6510K6729R367r195j7348r946L911P845n631
28996C0091k5614l1028j0781K4325N1313N5479L8809J1363j7968m0836m7548l3205n482J7361J8985j243k4893k9093
28978a9965j0588O914k757l6142o0690n0241j3366J7367J9598R95j1522O89K9421M7404L5469M62l4665n2369m7943
28959a81929k5000M906K4645K8156L0851M7192O1561M4066j865l3197k0989J1339K1521L394j4444j4369p735p363
28941b9260o162O578K2448K2266M376p031J0837M6163N7175J8854m1187o8254m2213K421K2058J1386n050r981l167
28922A2257J3824L8664N6062M5604O965l6523o3669p3410p3449o3375l8277l437K3106K4285k53l0852m2270k6049
28904b30797J213J5287R340k492n218R04P810J6081L3597N6851O5325M5129J2383l001K573J617k0846m0326k8569
28885f3139J134J2094k177j4542j1616r127j4218q768J4154K9377J7047n155j0672j863N685J4371L1088M1661L1071
28866E6405J3968J0489M817l1614q1091q8203l4981L0651N5773M1157K3258K3542L4483L8161K3089m635j8647K489
28848I9111M0507M9381J3253l0370m1277k7905k5392m0327m6464k8304j590J0863L332j5258l0809k7809L72L8270
28830f0416N6645M1399P973j6513j8867n242R947J4066J752k0750l7967l8714k8032k0929k3890k8534k6163k1408
28812b15643k3578k8539k0739M656L1763M1465L1023J0411j2367l2926m4298m1854l2862k9423l0204j8834J5590
28795c96359O1754R2376Q4504L6062l0221p8642q4138n0289m121K7538L7567L8716M6922O2019O5223M1871N707j2037
28777e5548k134R257k056k2069j7987J4849M6668N1774L3949J2093j755n867m811p408j8350k9218k7296j3260L42
28758c8827O255N803j363j4074j8461q38K5945L0841O212j8895j6756N775K2768K1300O065j2347k0368o816J9987
28739B206L2653J7058o698j0611M714J6714J4988R560R478J1833J2865J5662K3807L5229M1966L1513m483n4147q6181
28720A18126p9657m8104k2145j4251j4482j4425j5705j4981n57K8227N1240M6394J3031k7282m8510l8446o407K4916
28702f3018L8741L4628J8957n003k8993l3960j0926J7803K0267j890j4184J791K3991K6149J6036J8414L6359N2536
28684A47698N8807N9921N2417K5532j4187m1762m3877l1946j9893r714p023k5340n6452n9968j2047M9030O0039J2091
28666A43326m0852n4517l8666j8736O420M1594O2528M4751P471r566k435K244J443J9009N0902N4992J4065l2450
28648B51523m6494m4825n9473p4950n0962O764M5993L8918J3603P036K1153L7625M6648M5070K9819J0541Q700K5472
28630C12161K7808j1515p0891r9579p6859l3242j2894k9698o1829p7158n9826j9522K0322M3652N0417M6957L7436
28613a4260K7697K5300K7407J9786j324j7748j3680K01N366P086K1809L9602L1789j85j7810j934J4818m612m6835
28594A02473p0352o5751n9195o2481n3962j4053M5720R5569J11063Q3266K7077j8697k3743l681j735k8599m9032
28577A3887l7727j5595j0395j1500O783L9126N8907N8337M5772J6448l5607q2426q0924l2599J2265K0654J3268K0499
28559h27L5474L4752J9942J0529J1175J2567J3857J9631K1825P842j7686l9656n6012p2621p9122n6913j4103J4577
28541a34769J3341O842J9900L6228K1766k1599n3028m4790j4962j15j1939l2153l8817k4464N622L9673O4473P3117
28523i5674O7745N0133J6053l1165o8837p4224n4727l9619l7506k3632J8281O1467O5357K9008p911j5056n87J2141
28505a28753J6670K2074L2756M2415M4055L7533K7357J6898N192j1101l2950n7408p8781q6137o2755k486O8566
28488a46855J03186Q0267L0388o08l030J47k134M442K7583M9509N0459L3022J2463l483j5305k3517k9187l4308l4515
28469I8524j9949R495L6508M0976J8806j6184m4856n6896n7601n9128o0785m5359n034L8824N9345O0976O9530Q6426
28451A53618P9038K5057n3661j11470j18355p4804p708M0030L7438j709k8315j3154K0688L2483J6287K132J3742
28434A1337M1524N6325M0629N247k3423l3569l8439m9271n1241k7010O373J4309m344j6682p947L283Q797K6130N2796
28415A4824N0301M557l6693k5827J6144L5366K3553J2516Q865j0761m2722m8238j4176K0032J5518j5046k9248r713
28397c0748J9477K3250o251l9929m2643j5769L906n141k0938j7208o153j3003k8095k2172K077J4121O529J870Q346
28378a68474Q204m519j3027j2707j9489l1408j9572K3783O1014N5874J8993j4575k9528k9668j5163J2543L6359L8429
28360a02931K2343L383j4372l4378m9778m7851k8786m892J7795M4019P2937Q6203O0698k972o7167q4008m3488J4531
28342a58714M6980N3449N8747O5025N1839J8547q304j5801k1001l5246m1369k3634K947J2054k036k6887m9243n5516
28324a28163l3207R983M2384M1537K0769Q289J1794J9774K6760L7557N0001M9832K5304j9007o1866p8602o2689l5458
28306g5008k3893k7489k0576R893M4941N7994M4270J9439K117K620J5016J7022n878l3325k7584J5729N6231N7794
28288A29313K8172j868j8009k5575l0809l6280m3929n0231m7731l8303l2939l4663l6780l8515m1033k8395J7224
28271c30351P5737R8850P1765L1307Q239r349l3639m1266j6070Q647l883l0506j9482K8956O1364M7083J3159m53
28253c9892J3939L8393N4502N3657L9217K3081J1829J233r488j3337j4470k8329m8350m1749j716K8154J4541j1215
28235G0000j752K9800L3247L705j5305m454J0060Q896K634l091j8277l5712l1544r232k415k3044m4585m6112l5052
28216a12233j8203Q975L4320L3246J4244J7008M9526P0727N4563K6544J3794M757j2076j4669R357K5286L46m1047
28198A64465n5513m8013n4013p4081p5891n1999k8598j7623k067K5647M5962M3152K8436K2252L1106M7874O1242
28181F2338O1654M8547L1340J5645m776l2268n1618m7053k5479p497o75M466J6430L2150M0149K7371q610m8710o6955
28162D6449o2223n7831o1876n2074j4908K5791M1787L9675M1424M5861L8666K3245R961j0346m7726p9675p3365l4710
28144a81875N85J9881L9439N9880N8826L5911K5325M7026P6083P7028M3939o812n8060r0999q7169n0155q505J6777
28126A7125K9999L5246J7637k8266o9907o4521j1996L9612M2835m210n9241p4843l8908J8401N7448O4177M7222J3303
28108C1113l2510o7964o6523l6704j9977l5283n1665l4960J970K0263Q298j2549k2547j7068M773L5945N0519K6384
28090b18485j8583l8837j5554K2969M1585L6835K5242J4059R27j0256j1854o678n303r939j1769n850m23p230k5696
28071b44840m0759l7070j3757J7071M4267O3864P1496O1102L9868L2754N4300Q0906P2823K6374j7523k5504j0674
28054A74698m266r120o471M136L533r489j0424J1962L4832L5162K4351K8811M8255N4549K8419j8795n9272p3520
28036B57351o2910m5536l6423k8075j810L4585L9744j0519p9004j00945n7428R800N3151O0666M3110J2627j5147
28019G3237k5112k2762k9334m7483n5886m7556m3534n1923m5377n539L7948M5958K6227J5556K1953K3255J3420R406
28001a07546J4308J2720O302J6816M4842N8499L6589l632l3431m2957l4414j1283J1205R127j7780l4822j2278L5243
27983e2492O4368M9343L548l5600l7218l994K7325K5347L574J565K8065N1099M9317L9074L6332K6450l916l5274
27965B36913m6223n1013p1083q8849p0625k6027k626j9599m2877l4896j51K9860L4399J4884j3501l0252k2378J608
27947b02436J8406J4846j676j7407k4756j9157K796L5056O0223O2800M2911J6413L090J0609K6040K7407P051k2270
27929C9946m4952n3895m2911q678K9837L7590P935k0144j3130R207P281j5950k5378j4393q922j2798J358L6342N3463
27910c8192L3620J3680L0476O0658N3305K214n0615p2196o5575m4609j4025J9901M1587L8891J4309j8016l8531k9781
27892f2899R193N4675P3801N1372N78m7503o2305l3243J7279M5476K3842k9867o6034m7542J6751P6828Q0833J9858
27874A21093o1433j04091q6379l3383J6204L9495L3495J3104N562K3404L9781J6663l6621o4409l8654O58L131k2824
27856a35204l0970n925K6998M8458O1953O6178M8144J1829j5538j8010j1434j8851m0153n4835m4642q883L3979N8275
27838b8631N2385K7757K115j8072l0393k6398o520O394q586l8845n3415m4068k6339m126L5485Q6876J14664R2817
27820A33100L8231o352j3238J0054K9998J6192k6083n5162l9408K445K6873K2021J0186O03k1978n6694p3670n8179
27802f1061l6479l8335n8400p1691o3656k9683K8167Q4330R6636N5572O098m204J9467L7731K9925K906l1443n6005
27784i0125m3645J0925O4691O7687K6821m272L446K6097L0612J3912q035k1356j5450J2156M2326M7138K4755J261
27766A88944q912k0465m4040o0941n0777k5523j1982j1561l513J4181J3521k3686p2155q6682n4002m177L1284N3540
27748a76946P5587Q4883N6141k61l5772k3961L573L501j9315k6821o252K1076M1187N9548O9894M9474p47m1780m1910
27729I1099j4610O243Q748J100j3875l6529n2743m4454j6414P895J7166K0434K2651J2925j3004l4835k9195k734
27711g0132J2787q47k8765m6358m7663l9609k0816J3781N0907O3515M2761Q264j8738l3405l2013m205M1723O8818
27693c9995N3083J9152N706Q869m983l7127m8894k2577R134J2131j550J518K5279M3310L7511J7221N116J7100M9989
27674A49993P9717P9759M8896J1116j6821m1784o9656q4378p0126m0628k4491k7735l0853k0591n776J148L252J2653
27656d6305L1712M7125M3508K2393L946M154J4009J1699p021k5610l3390l6160l5973k2964J652J5891O865p571n093
27637a7133R367J7838J8908J9901J4027p150k9295l2982k7748l5576m4679j8484M3295R0631Q6427N2237L0130K6143
27619A95857J7826k688k3291l7681m8318n0616m1002l5861n2886p3081n4049P701N7669M8058q0k5969o262K7496
27601i7177M2422M0191L3019J7562p425k2765j4671k308j0551k6210j5062J9986L4303M515l7050m8794l3092j9063
27583a42170j3897j659K0869L8067M3027M5237M8991M6458L5749K5472J6347k003k8571m4481m0491l4368m5428o3939
27565i6790o4326m2731k1405j4100n228K6055P1357R6990Q2037M1575P571m793l749k93M654J0231O865j1639l3449
27546D8832l7547j6594J6354M2973N3853M7552K4304j3289n5067q2811p8543l8011K1484O9773Q5198O8516L6156L601
27528A96734k1632l5161l2217j3273Q523J1274j7141o1669q7159p0067k1491K5699M7919M2714J8877r486k2705q538
27510d8799K0839L9939M0806L6744L3785K0626m697k1336j4423M98j037k0434m0557m7522l3965O02L4694L2005r859
27491A7909l7656m028O2693Q9615N4240N410j3358j5343k8561m4172l8527j9590j4626k2843j4464K0964N1390L8620
27473H7673j4666o5072p1935l3391K0027N8615P2504O3591L5952M32k6130l7458m1984m1069k1121J6373L8010J9638
27455E9989j1667j1902J4004K2010J885p465J3924L1142J0946k4985l5264j8007j063M518O547L491j0861k4631k2427
27436A84j6149k9603n5888o1992l7393q130L572O342J6097K9338L4898L5106L8219L9187K3714r913m2921n2532l4579
27417a22443r236j850j5997k9958k4081m842O629L425k440j470J210k768j2790k1479k0554l374K7660N3655N1481
27398a29222K0669j1600k1469j6385j9577l1441k4059J9681P5403R9352P6187L1459j534j1799n431J0113K3802J8487
27380A02636r316l3618k3674J5363M3857L2123j0987n4998p6936o9973l9725j113L0192M8090N2139L7870N093k8310
27362A8713m1272l8318m2208n6602o0409m2629j5330J4226N2456Q8482Q9306M7402J165j8152k8724n5109p4556n2122
27344b13681q350K171k4401l0310J9637Q6973J12278Q6675M7789K5535J5655o65k7560m7854m4451k5838j7272k0233
27326f3902k373N0773R5025P4120j954o3484o5294k7311J1419L7340M7841L2380n977l6679l5041j3096M68n686k6151
27307B418n2788p0130n6404j0985L3350M5767L3084K1702J7002L225k3802m7012n1716m1931k8888j2809J7361O3949
27289a58607J01288Q9838K4806m0299m6541m137J9502p614m0296k6382J8582L9752J9015j5512l8915m9248m5677
27272a60445k4003N265K3612L0767M0426N1968N1774M0626L2026K2729n523m8635p2660n5685j5256J8411L7314M9229
27254B1940N2442L6270K879k5347k4523N666L6698L6816N763k4515l0447k5115l2332m7157m5571k5021q141p356
27236i7051j1715j0730o258K720K1578M0308L7831J4927j389L274J1286M447q994j3136p302O157L3074O5538P0668
27217A55233K8630l1183n7104l0703K3011O8588Q2806N7761P826l2246l8843k4643j4907j0722k14O335j3104m9572
27199A26949o5958m8276k3190j5258j5873q162L748Q624J0362J6800K1606J6208P708O922Q110j145j6060j8280j935
27180A2900J7835K3350J1913n600j6965j8788j7209j7522j4921k934J0060N848j7521l7415l2268n140K5432M6321
27162c2624N2742M3305K5382J5518K0129K2775M750k6549m3428l0085O54K0791J1986j6819l2466r881L2662M7222
27144A06064J6100k1779k2525M559J6446k216k9349m6707n4771m9367k1154J5889K8898Q868j9094l4920m2184l9822
27126a87064j1571L8969P6014P7332O4460O3976O6071M8896J8719o026k9458o1793q4490p0076k8677J119M563J488
27108a7548P127J4729J8704K3933K6803J5007o301j2887M774K6025K6822O709j5776k2019p870Q207j764l7491n8181
27089i97l2882J0854K3514P523Q516L5442M4722J7054o252P601K7564J3108j6418j6161Q057J1113j7127l9404l1356
27070E4471j0892k177n474j0562j2110n093J1366K1065M121l2101n5886m8615k0605J1485M1601O5015P2914O3319
27052A41842M2926J5767j4905l5455l3183j9887k2176m3925n9228m8737k3454n497k737q591j0100P595M5717P7476
27034C448P1608L5491R857J2904J8283K259j7566j3603O619J5024N281q228k1015l8818n4582n2980l5471j7197j593
27015h0279J9234M1527N1597N0266N0908N0845L0385j2028m7540n1709l2734j2653J452J1445Q880j5649m8127n6202
26997d0382k4197K6962O0417O0364M4700M1172N3855N8465L3139j3393n2414o8236o7954o0399m1616o803L5437O8498
26979A07615Q0187O6123L0190j3464m7173o2480n9046l3913J0713M8461M4613M594j9612M477L9263K6051k9854o5042
26961A31703m7617j5533j1104j8956K29M2416O4786M6668J2053q083r242n939j1849l2246o0038p5632o4432l6088
26943i8904j2781N51J6999L8445M7235L3576J0866n867j7543k5864k2181q699r667l5744n3753k5891K7404M2273l312
26924a02857n4586n0431j992K7828Q590k6346l2115o782J8502K5074K4443L5708N9739P8482P3271M0982m346m2933
26906G0231o2786o3982n2223l1501m875K0647L5482L5922K8696K4218K5616K6076J6773l365k5021l5270k9138j5371
26888c9871q001j1161j6377j6556j5406j7872j9780j6782j5390k0235j6695J2654N4812P4970O5699O1070Q5002
26871A40081J10090R4316M2633P13n667N791R854K526j2169l6106o4561p9974p1920n0196k9350j3077K48J1087K2402
26852G6721L3625K8938n576m7632n0061j018N3133O3503L2925n535l6304n8087n7811k7226P373J0465j4122l4220
26834c0909m0879n0029n7324l6505J0633M4307M0018J6239l471j9131k9533j7274J8069M4847M2750L1128K8828J8600
26816A0364j6317n1003n3301l4678k5110j8902P630M0680M3737K1517J6526L9820N6164M6244L3047L0608J5169k7456
26798A34739o7030p1086m9816l1178k1030j5389k2199l9257l7950m096K9159K7020R660J9876N0584N3694J5950k2770
26780d1119l1243k2302j5829p320Q886J8733J1753N3m310q561j9504k6748k2741j7917j7834p616J9070L7689K7519
26761a19341J1135K5416O2520P5844M5741N301q949l000n385k3154l9462m3024l8239k9894j7184n023m538j4797
26743a26033j6466M310L2454L8036J2477k2551m3418m6152l4431n610L4357N7199L9609J95j7294p07J6460O445j3615
26724h4735j1794J0437K4732J8369L700j0798l2627o2911q2513p2718l9324n200J6294L0539M4677N1212L7731J1120
26706a53809j532J4312L7328L6271J3385J22J0051K2315J9315J2439J3963R858j3705l6809k9463K354K3988J9346
26688b71L633o131o009N818K6362L5354J4342k0569l3949k0820r893j3331r367J3298K9775J8105n970j6465j2877
26669h965l185K3078P1593J10170R5497K9780l6556n8498l3721Q381L4050K4991q899l6211l6573k2231j5776j7996
26651A18929j5576q872p885p685O493L1937N0016N4070N3104M9074L4691J4283J609n410k1682m2409m1890j4514
26633B48283J0087P191j0965j9089j3581n149M477J7638K6218K2629J5752J7939K4149K0490O306p480j5649k1441
26615C27805k9302m5392p3546r8382q8808l7841J5780L0138J2651K585J1168J3301l446j9124j8535j4059j7757k0693
26597e3457j6827j9330l1943k9909M400M7554O4658N5300M0861K3558n086k7708j7160J2555J6789j0556k3758J616
26579C1557K7274J3331j8565k3677n312J329k588J6912N8204P5141M8891J9476K2684L7159K5314o244k4613k6322
26561B69951l4772n2499n4417k9008M271K2302J8837l881l8745o3262m9478L063N8435P7669N2218L064l9219n1570
26543I2959l3027r259r213l1702m7724l9154j8829o269l45J3351M0383P1617Q9361P5653K9813j7684k8989n880Q335
26524A73397j2771m1607l8170o918J6469J9469J9364K1498O961l1233o7913p3925m7024p307K1862K3454l256l2960
26506f0610l1252O700M5990M9832J6963k6135n6080o3375m4348r99N1642Q9820R6534P1223K8192j0962k9704k9464
26488A03967k9135m6113p6561r5927q0019k8468L0647O3422O1441M5315L3141J7977j0071l3111k3582R626K4059J589
26470c1803k4919j9556O647J7304L961j0400j0822l712O669K6131M9063N3333K9311j323r198P643K1845P124l3266
26451H4032o5741n5151j171N5022O9534M1450R866M723J4415Q886j7914m1785l9711j4733J1705K3066J8980R094K868
26432A17435N237J5905K8270L2073K2673O525q535k6311n4957q4976q8645n2069J188L2005K8137J2859J2877L0273
26414B9964M8951N7447N7534N4084M3875J8491k0738n4606o0807l8301q952P830J1937R925M84j5298k2430r893O083
26395A15580l259m0679p5460p7391m6420p856J0969N32k1664k2649J2135N7351P2910M8257P689k3487l8261l6343
26377f8046j8827q5j664k3727m0192l1615o921J4932K6904K8734J8152j438j9546l2761m3300l8458K625O9088J12452
26358e3693J01082N8031K3181J821k1539m1242l9623k4869k0823k3883q274K3890L5502Q470k6620l2010j1477J399
26340e0677j0105k8877k9361q112J3660J6860J0117J7741L9172L9939j060n4014p3979o0901n1470n8196n4853k5591
26322c69707J0150L4199N6096Q3554R6208P4214L2675K862o333o688l708N971J8895K7330L2353L7951L8187K6288
26304A90497J0587M841O620J195j5436l1961l9220l9276l7396l6290l8295m3125m3250l0925j0269N941J2612J8181
26286a14969L2130N2219O7165O9717O3963N7947M9794K7750j0581m6187n8097n1648n1490o5176p1639n2599j8309
26269a20010R688K7012M1954N1796M1583O554l5306n6015m1019l143K6197K6917J1664P349J6287J3750j1041l3317
26251a9100k7442n839j729k1322l4862j6365K2470M3667K4692j2654j9930K2526P4012P7002L0447q804m521J3660
26233A35908L672k4320l1414j4508n068j3407j5616K886K5401L1300J8567m844k8197l5482k0458m453j2713l3208
26215b5954k9682J615K2907J1750q818j3681j4620k9529m0550j7492L1242O4785O3597M9521M8985N8238N4395K8409
26197B55118l734j9989j5789n871n371j6918l8821p2831j10514j23504r1021l5530o096k0602m6141m4101j1909L1319
26179c82305P6214J18559J39472J17080N7508l023l1474k8066k2933m2595p5507p6648k0724N3248P4449K2928m4294
26162f8111o1522k5657J7560L5871L3565K6561K3115K6808L6720M2924L5785J8966K535j3085l4764o1375q0656p9186
26144a23946n1216n546L2401L8600J8400J943L627N788m027l753L0419Q0115J03451Q6989N0339Q886l4049o1833
26126A76588n0185q628J4244j5436p5220j11428r3590l6542J8791L9605K6593R997J3197K4013J5851q160j4716J3832
26108f1194N5317P6615O8094M1567J1067j4536l2877m9269o5128o3936k7896K5766M7808J1882m8606p4391m2002
26091a41719K0148O7283P6278N4942K7076R563L85r780j8312j3444N436K3958K9813K0234m984l8480n5269l4854J418
26072A9692N470l2160o2576m4243K4J8677r47l3309o1888q5141q6820m5480K2797O9098O8901M5099K6430J4655N359
26053a56362Q964K8541M1082K7946Q734J7517N2556P5066N7577J2516l0041n3718n7469m2689j4588R251Q243j7110
26035b3984l9048l0211M185L1508L0972J7044J6279L0746L8119K3476m620k9954m4575m5017k8334q08K1726L2753
26017B57M3873O3434P7017O5094L3131N200r811k4427m1896m3019j8108O218m623m4561o9852n2881j3307J1172P455
25998i634j0811k7754l4311k2640O270L0311K2368j4678m4641l8826q366J4220J6044J3507K5381M8767O3798N5896
25980H4901L0849Q653J484l20j4488m0136n5144m2896j0945K1159L9997L8003J1705k5319m1420j9188J8072L1778
25962C6745J5444l739p180l843m214j705Q197J1965j666k0460k5927k1803k6416m1276m5578k3799J4136M3563M7581
25943d9975K7214k374k1545j7498P305L6283N0415M3322K8138K6003M1624N2861L3897j1697n2662o7027o3746o1088
25925e50n8516m3582j6153J1414L2852M9082N2781L2116m306k4010o015K9051L7923J907n4974r4333r9298p8946
25907b33557m8297j6151R614J9569J4508J1927K8438N6766P1150N7772K9685P424m963j6120k7103k6908q693J7437
25889e7502L1605K3050J473j1096k049J8932L1829K8264J5218P43j1570j4593r91J9074J9896q139m1248n0561l8010
25870d5675k9155l8151n5732o6006n8530k8112J8551N6397O0320L4503J0335J1463L1481M8128M8355L6402K5994
25853F0568K6513L1412K4193L310q653L905J8541j578n4923r7492r5490n9558k0883L056R662J484r772p116R541
25834a63280J9425R927o433j4175j4327q759J2454M7987O9275N2645J4265j0932j4051j2164j3998j2700p032l689r68
25815e6530O006O200j6088n0134o2935l8950L055L4619M1640K5419O25q217J0297L5463M0468L3402M2597O2617N4399
25796A63953R866k4829j5235P339p271n1227o9900m0757j586M615j7502l0103j1285K3227M1202L0060J1504J6219
25778C8290M3549N9386M2570J6992J8271L9788L9082j655m7725n5678k6695l00l784k4817l5553l0584k9400m2749
25760a012n1176l0128R960K9246R184k2330k9330j3416j130J34N975J9248K0335l7k2678k6933j7836j2544j3564
25741a48032j0422J050J5201K6643L2222K8109J6180Q645J4387K3827J9786K291j0267o161N858J2077J1895J2699
25723E5988J4331Q486q255k7191l3442j7722J3846L9546L8248J1301j7108k7140k3733k1741j9797m773K1762M0103
25705D2709L7654K1057l05k4508m4280m4039k2600k068M85m815j764N625O501N198O368m325l4752n7268m2945j4584
25685a72656k0514n6861o5987k2936K7367M2248M2879O7622J01638R8758N2171r5k9202l8058l7134l1198k6978k7494
25667i6430k3154r823l913j5250k1297k01K6262K2426N85P109M8084P6151O0128K4394M157R5l410q146j1315j8159
25647E8293k7114k6720k1759l4366o2557o8250k9447K2946M5804L7071K2066J0209l353j1549m470O404L290p256o632
25628i7390J286l213j9917k8040j9176m979O655J7553K1609Q132j2037q181L1288P7040Q6513M6212j6724n9012n8694
25609c1075l4168k1312k8743l0145q886J3072J1217M03R069K9040L0449J6255J6530K9687J8915k2095m7943k7737
25591g7467R656K4445K2114K6359K8934R862j4279r432J8110K7433N980j3971p751R182J2614K162j2756l2698n5229
25572b6732o2933m5099j7523j643N552K2339N0420P0664O8452M8245K3667N371j965k851j1332l5889o2180o3285
25554c6722l1937Q330L0532L2850L1142L2327K9010J6846K240r102j7682j9341k816L0590N5384M6915J5369k963P464
25535B18436J9925K148l7405n7859l8292l406J0984M658R019L8839O6287N4973J0531k1899j4024R809P136k4805
25517B55055m8360m0426k2599k6256m9061o4740o1532m7766k6831O344M1053M7421R896m8524q5252p3871k0154M2515
25499b13088P0402M3055q515k5428J2025N7921N9362K2766n521r468j5923l8601n0625k8360Q627K4345J3590O79L542
25480g9215J7948K8836K2627k739k7255j9756K5525P3626Q5385N8932K0321j2177l3126l4345j5165k146k5202p1179
25462A0895r2369o9625l7261l0597l5855j5491L4354P7980Q5687O3916L9617K9747L0018K5718R840q118j2408K6
25444A06074J4992J6095J51k1210l0013j5713J0368J8568q280m9851o8646n3359k5135k940J4473K8846L0375J6659
25426a8546K820O4K094L402J0639K3745K8496K3459K9622N2560O0657L0237r021r276K8028N6321M8225J9600p492
25407C75634k8629m0844l8051l1029m0711o1499o1440l1643n779j2276l2810l0738j177L0434M4852M0214J6630k5236
25389F5902p0594r4262q2631m3832K858M0038N6904N0517K5987m925k5415k0126Q878L3892K4393j6776n3209n7617
25371a60018m1708l4136m1028m2280k0463J9276N5821P0159N9178L7382K2442J6706Q923n082j5201j5574j6292k5619
25353a27514l2074j9864M056J4957K168j7817k3525j3691m189n108q564k126R499N701k1002m5735l5720P754M8887
25334b63907O2308N9512O0340N7217K8734k0332n6437n6956l4694j5694n969P525K8687M0822L0467J2756J6275M1068
25316h278N0971K1516k0856l1176q507M671j3538l4747k6863O42J9701K7105L7195M7581M2091K0720N18j0556j9177
25297I9013k8470l3301l1657k4864j1518L648N146r094j1159K1844O5397P3608M3703J6592J0303l888m2919p1402
25279G0982n1631o325O505k9674p0157o4696j0802M9079O9252M0803j102j5764o491j4492n4263q2365n6307p56K4758
25260b03446J2490J3612N4374R2458P8963K7450j0295j3979p147j2986l0676n1840p0574p3579m5815M699M5549N3392
25242a37350L6719J8422Q383J861n712j2967j5496p379J2980L2241K7626n231l7341l4784n22K7189K1911J419L932
25223f4099L9408P6535P9211M6629J0067o478j1439k7066n5889p8176p8634o0271l1259L571L1980L5089J3669k782
25205g9934P524K6493K3940P011J2089M9591Q7908R7122P9022M5011l461n4233p3692m5551l154N034k7462o5669
25187H7589q0364p0334m6727k2802j4988k6308k9479N939O6953J04818R5380O5602N1250N4791N8672N4999M2929
25170C97920J7832j4126k6946n403K5710K7177o193m4885o6014p0491o2314l9337r733Q005J1297J7988L4109L9270
25152B33866J9512o286j3830r775j4231j9349J329M3127O3554L6678j1597l8294l3587j9031j2358j4998k4295l6224
25134A44211l9501k4974k17J8141K3323J7679O25k6002m7175m9396m1759m0351l6415r054K9702L7772L793k8100
25116f7698j6896J8482K9573O015j9609k3673j5590j2282j7356k8220l9998l8677j2232K6202M6326L8388K4460K4106
25098g8679K7216J4095j1180k4667j5847k827r640l3478m2042r886M4870P3398N2363J3148J028J8017K7996J1177
25080E5062j3701k3105j7654p868O173K5486L8050L0897R349p890r039J656J0001L892j3730k3207r812J2265J2066
25061G8891j8368n1948o0768m7212l2232k7083k7559k5099j3671M807J5767N891j2470q817K3579N3486N4673M2328
25043d5805M4643N6278M9442K1551M18K602J3847J4954M744p799j5168j0587O686K1480J5712m559j3075P26J8607
25024A74697K2538J6672J0772K513r078j1121L020J5369O524j2601j4885L000J8950K2538K7253L8245L2609r850
25006C37165o9771j02078q3495l2406J6724M4990N2965M5370K1791j7536o0379q1757o2476j2815K9639L5318J2022
24989G3271j0452j9143k5003l3115k8558j487L3087N5679O7017P3942O4530K2698l7707p9201q2264n8689k2749K4141
24971A5997P1853R1182O4350J1429k9613l9693k5635m450O352m311k8605m3295l7434k4888j7582l343K9946O2886
24953I5146O3934L4142O770K853R238K041k7382o9826j02051r4369l7745L3604O9527N9823M1216M2760M9491L3009
24935B12181n461m1760o1402o4956n2888k5936N084K6891L7880M2999M1077K9959J6868R035M3j8783l7930l7559
24917G5342j4429J4758L6348M9834N3748L9326N558l2320n7494o5962o1009m4107j9566O12P232N477P801J8059K9483
24898D8691L5017L1874J8179n158k7958l5041k2060k157P758L335r152k5427m4454n8736n5950l5603j3935l678K873
24879a91582J9195M0024M7961M2056L9893M6857M3772J6952j6865l2587l0346k6561k1369r72K8878L8353J0943l3900
24861B0702o4684o7961m5971m095M2858O6755N0540J2234j2458r348O161J5956J6877J0961m055k6534m4027m3226
24843g9315k3184L988K1688J9187J148j2577m387K2339M7167N2986L5264k357m6298p0059n4714j7491R81j1911k2769
24824a40314j033L4354M1023J2596j6450k0958j2111j1732k4462m2189n4638m8059j5328K1981K4935j1726l9902
24807c04013j3405N0881R4292R0315O5881M9639L5332J1520m245R175L3945L0387n590l3605k5053j022J684j9164
24789F6954l6588l4959j9502N648L8659N9615M1437p550m0065k7264L156Q678q353j2325P514K5192K1503N286j3677
24770H3359m0053o8134p1060l6756N071J5475n633k4931k1319n892kj1352l1693m3734l0562Q004M6600N4021K6114
24751a52477q803k0263m937J6556K5399K1834J8438K1209K2442J4731N684Q237J7567J2205j6204m7501n7740m8450
24733a72073l7998l1710j7122J3386N0488Q0442R7292R9167Q3138N0806J3424j5209l0307l7572m3185m5067l7467
24716B0433k4120j9527l0399m2048l5208j3510O36k251q188m256M833J1682J8403K3733J7693K589j479J0058Q722
24697f2204k6396o8159p1812l4257Q567L5629N7496Q0401Q9183P3748M3794Q824l0676o3659o6925l6853k111Q130
24679e7280p272l1464m7878m1076l352M5874O7841M7438J2616j371R347K5642L3337K8141R799j2893k4613k2721
24661C0115j9461j7673o459R395N034k1159l1314l124K6747J0532m0594p3999o7130l8731m08N1920R7026R0803K8082
24642B9602l6507n1078k2030R905K0926J1759r871k9141k4460P745L9910M4307K6564J0570J746j3803m0460o4441
24624h8757p3739p1159o5302n7996m2391j0346L4495O9546O9311L4200o339k4836j8682J779K9501N4367O0109M5288
24606f0951L1354L0689K3933o087l4839k5378J1441K5546k077l7248m9775n2033o0037n3605r421M9991P7542O1033
24588g9922K9258N469j3816l4547m8922m9035l5519r501K4323M6130L5795L714j5699p179J0688J9473K3303K6192
24570f9795J4946j5194m0349l7845k0447j6529k8658l6513l1032k0512r780J285L740r315j9937q37M4429Q1557Q8274
24551a22512P2491M6224J1508j9396k0977J0063L9780L7177J1670p703j2845j5598k0544k1765j8418j3092p33K2112
24533b2558M1572L7871J1041j8117l0346k1159J378K0537K1086Q721Q673K9062L9113Q040m4462o8155n1425l6025
24515f5153n2433p2603m9927J3491O6023O6693K5716j4483k3429n116J3539J1514o684j8752j0350J1492L0828M0282
24497c9352M1127L3522J6445m154j6228j4630r411j6589l9628o2632o5105m3285j3344O629J1918O678o402k3169
24479b37610l0861j6817J4546M2574N0494L8373J6057q273k9701m3736m6289l3635l040M0279P6774Q3170N5821J8544
24461a3330M21O886J7145J0228j0046j9324k474K5124L3107J3226q796m720K1495M0797L4632R696k0150m9396p2928
24442A1593p7451n3974j4213J6428K3937J8605K0971L7444N3466N2184L6103K3014K0537J5229o596l6507n3133m7978
24424C9659l0696j2675J733R943J1266J3448K5761M2060M2218J5512k5186n5180n7104l0198P575K7056J2785j5789
24406B2188k2535O91K3473J8775j542p598N697J5469M373k0296l9477m0026k0072R327K5864J2228k3293n0381m6605
24387a33740j9380N327J1290M184j208R92M846L629j753n832m212P084L1120O0699P4534N5658J4277k0028l1247
24368E6240k8744k2343m388K9018N3862L9054j0598n3049n6130l1237j2960j6662k5593j3629K6813P5783R9864Q0122
24350A85423L1246j1412k7484k7543k8628k5643k947L0656M0817J0269l3691m9434l0301p650q048k4559l3569k4881
24332c7379o450J0991K3431L1229L4695L1882J9207k851k5386l9012m5298m9912m4572j3011L7517O9191N5177J6143
24314F5592n226J667J0393M480J037J7132L6354L0576M040q356J0794L4595K5887j2131l8011k6495k044m269l3256
24295A12759n2101l9988j5976l655J529J4194K9623L3017K3526R471o958k0197j1256K7588O8405P4347M3857M082
24277B92267k9609n8016p1318n5074k2881p062j2171j1539M535J3330J595j4165k2833l6253n2631m0542J2097O4689
24259d5581P1801M0307Q301r194j9134j6528O645K8913J6939k4044n1301l9969r142J1649J5906J2869R193Q381J2695
24240B8706J6210P181j4937l3135l0468r832Q984J1408M212N336J7400K2036R224k146O672J7741J602k7130k2327
24221A6737J9462M5281K5471r06P962L0620K6325O339O273J4736q441n5895p6444n4218k7599k3613k6095k0102j8300
24202a12407k6378k6118j2517q541k2270k5928j536K4674K0189o498k2024j2737Q112K1604J4511j4315m4208m6196
24184b92583j9294M583M335j911J2390M1579N6195L9620K418k9903l5426j4210P953R260M416K4130O3268Q3087P0970
24165C0877N7520N7621L7524k7623r8723j16552p8660l1946m029J5600L3175L3668J3404m810l587M004m891l0739
24147a18167n1381m7253k0198R825K4104K1749J6103J7220K4721L6153N0384O1157O0164M9864M0447L1683J2384
24130B18959j8924m8005o2256n9435m1241j8157j5624m5457p2545m8065J7675N7913L9373M662P93J1056m540l9179
24112a22997n5806m8249m0491m1827m3620m6580n3697m9514k1855J0538K6493L9639O8662R1564P6669M2732L5499
24095a32840N3925N4396K5214J041r10m501k3579l7198l1060j9848j4061o270k286k1167m9419m2819M519L8694K0815
24076a87354j8678l1223j7043n625k778L645J0377R753J5696M2940P4124Q0085O1263L9423J9951o083l0164k9136
24058B9173j257K5622K7089O921j4723k5933l1010l8017m1982k8145Q74J4165r311m0427l0002K1310O0087N3715
24040b1851K7048J2179M810n753n387J2585K0531J411j0861J8815O0503N2875q664o3605o2120j1331M9110Q1259
24022A51554O3587Q123l7719l7432j0245j701k0078l6909l9575l9940l5525r402K7300L8764K0686J0906L0218N1635
24004A34247M5607K0215k265j6841k5325k4462k2827m0258p1262p7643l8826J6527M9283N3879M3624K1958n148j5297
23986D5186J301K0785K2574K4231M6513O6647M8098K401k3177j4236k110o895r960O410K8451L5532K6489O408k6321
23967B98327o2606p6425n7082k9287j9874k0252n884J8602K2374n108l6818m4496l1908k0322j5908p657R566K6743
23949e8015L6086M1032M5546M3297K5471n966l9880o6479p9047p0222l8145L282L0379K9756P871j8319l3251k8188
23931a74792p105J1134Q146j2726l0504l3019k5568j1210J6996N2903O6859L9804l267j7350Q097L9493M4631K8191
23913G13J6056K0055K8853K6367J0760l438l85J8092L0513J7139j9054n6627p5642o8104l7482M18K2274J7473J422
23894e0597l209N708J4175J7673K2350K3559P549k1621m0430l8540l0156k3977q387J6907K2298j0407m7792m1149
23876a86046M614L3367J1286l2524m7491j8700K8643O1206O0893L2415J319o155R267K2950K2029K0600K9661L3318
23858H0652J4718j0757j3956M710J6640P214r006j7458k3355l4600m5981n0477m9103m0592j9670L968O490j3151
23840a93714j8134J8799O8190P6425L8668L417P78M105j9200n1250m9564j1731K0778K0126J543j0755j7990k9886
23822a49395l4136r826L3261N4676L2163o000j2973J9512N2847N0725J9812o542j0887k731N081J1762J9400K4818
23804I1567K5787K2349P534k7841p2386r1772o4804j2516K4697L3590L6101N3928P9913Q5763M9098k3742r2383
23787A24883j08520o4370r205K696k3635l5906r184K4429L0174J9765K1273K6173K127n0958r1034q3298l6756J2918
23769b48428L9531M0888L0731K1879J2496p212k9579k5393J6972O1205N9581J5748j9189j5986m97o646k7392l3949
23751a15240k0317j695J7144M3704P2148P9991N4323P407l6139n8553n6014l5930r537J4112K4909Q547l6586p7599
23733a25325o5957O999R0225J24512R8517M0236k2248o5847o3129r907M6982N2233J3478q670J4122M4157M0113J0519
23715B21010j6252l5894n1165m3610j929M1066M0661K123k4271q334K8811M8019L0459j7530p1803r8386p7493k7836
23697f2354R156J4447P066J3199L5418N4846M9191Q517m9760q1690n4526J0908N6074N0582K1777R179J3302R451n946
23678A08837j0772N182K2560J8490m517k4053k4810j2413j826J194J610q2j3397l9967n9495m9541j6238J2276K3209
23659f3753K9453L8496L5364J0329j7367k3830j3987r380j4063j6080j3882j4149p720K1097N7318N9921J8304k3843
23641E2228k4234l98k170l6842n6798k5605L4182P3201P1371M1789k190n3394q9943q1965l1937J5028K0308k468
23623i9837j0008J2695L9759M5333L1250R162k0323n5913p9118o8018k3321L0020O3566O2759L3486J075n660J8799
23605a4294N0197O2437N4019L8225J9538l878k3831k9508k7688l3658m1523k7225J1463M0026K7352j3323l9776k9294
23587A9259K504K6679L0943K4110K0411K3238K2333O946j9022l9854m6112m2279l4895k4336j4556j8859m2775o7787
23569a74052o7005l6316K160K7748L9906M7048N0169M5815L6094K4577O144k7424o9735r6495q6284m1771J3747N7953
23551b47721Q1800Q2780N7593R348m3400p5723p6696n6056l0939j1983j562L621J1656K9267N1400O2720N3923L0792
23533f9180M100j9581l1084j6512K2079N2263L9637p456m1329l0937K014J4573l425k3201j7192J2259M3099N6475
23515a3398M6731K2220J945J094J3593J7865O215k020J2086L4638L1033q772n2927o3401l8533r436l13n719p842l290
23495a8231l184j1567j5746l235J7920K5389J0221j0444j5012n435j934j1126j4785J947K4368K5696N012j0353k224
23476a2723J5639K0094Q979m719j7958l6932n3972m7417j2648K4456L9208M0610N3146P3287O9152K8026j9305l6265
23458A30658k5388j6033j9249k0174j1720p622j4671j7141m124P283l687k7172l5283k1707n602J852J1073L0114
23440d8593M8206N2345M4328L1952J7435M767M770J8985K9116J8411k799r147N212K0708K1979J6253J4623R841j1641
23421B86751m1222n0419k7274M338J5185J0680J9204M1997M2906K489m3156m6169j4809k000k9268o0089n7295l0437
23403B1412p788O440K0464K6268J4138j055O78J1138J0567O138J9691M4136M8768K7112K711j5465m4154q2209r5241
23384A3749o4112j6594J3323L0453N5558P9877P4432L3621j7475n2534o0026l9772o942P474j5519n5992p5289o1369
23366a57137l6334k1240j2399N305L6161O7364P7470N5702K1223J2379M2279P6128P2061L4901N985O610J9292K3750
23348C29500K1909K0409J3573m826l0118n4832p3181p4410n0791j6771M4p114j8842k2393k5651l1225k4683k750
23330e2152J3265J0702P297J7984K4582O853j7108j5531N791J3645K238j9J9511L6942L1263J4126N225J995q175
23311A18434k2356k6239j3392J2287M2999O4480N8608K3833j3990k6165j3740k921r813k3100k4333j3416n159o006
23293A20011m914R716L1584M3150L8562K9542K5417J8623q24k5185l7118l3822k7722k3088q863J8705M0865L6386
23275B51025R612j3861j8201j4318k3844n1907p9592q2385n4575j4917J0868J1391n674k3599k6845p653K6717N3135
23257e4623M9754J9785q203j0384N126Q491j4439m2637m3857j4302J5773J9009K478p469k141N277P985J4545K5379
23238b4453K5227J1278N372K0112L5425L3234L3003N7474P9051M6180l7432j05201j10145p5032m4354k5969o226
23221h2456J1498J8500K7968N4514Q0872P8610N2259L0371J9393l97l4639o2594o8633n8349l9147j2053J1034R687
23203C6438j3990l0527k2217n929l893j3143j9376j9514j1418J6531N8643P3723L0635l5243n1237J268O2020P2445
23185A25216M4149K0121M67m7288j16046j48643j11686m0636J0119L1238M5036N4313M4051K3752K6091N6724P8526
23168I5504N9880J4187k4203m2733n0389n0330l5835r420J2180J4883Q78j5344k0754j4908q104o055j783Q556J0751
23149f3039p463k7575j9517R039J6522q541k4212J162L6260L2204n202k8729j7681R813M0521P5248R6498P5206K0229
23130B10743j9323j6497K318L720p768j0585l726%j430j972l05M547J4880K1351Q631j5305k0841k909K490k9410
23110A38609o9835p5865n0026k6252j3247Q488M0489N7569M8380L0696J9439R443j535k238O157K77l0172n8468n5017
23091b3108l1440k5867n0115p5050p0234l8323k837K2219L7938M5336M1006K7886J6782J2035N750o859j5426q272
23073a38579Q103J5851R418O44K092J6026L6127M7238L0167j2904m1928j5893M9196Q8023O2987N730l2708m1504
23055H8086l5562j3449L0627P1874P6053M9232K5442P171l7087j07470j49225j17547l5171L8255O9549O2269K9118
23038E2165j3836l9748l1455o972J025r749j0549J2612L7308L7023J4473j0069k7381l9614m2543k7575l28K0085
23020h5128K4582K3354K5240K1208P63k4428l0416j2479R761K0763K5233K8640J9287j3759n4715p2211n5847k7207
23002a77359j2173j3066j2302L684K8365M1124K9900Q723O017K9589N1370L8360n747m2983m4095j6452J1450J9974
22984e5621Q743j0451k2249j5478R353M0601O5361P6760P2547N3006K3149p480l1298m7929o1120p0696o9085m8768
22966i0655j5492R946J0989m851j5633j4905j7891l2520m0951k3955P264K0749J694l2150n0613l7409p96L3229M3650
22947b50300L7197L9689N8003O6319M3958J0472J501K0832L9730L6595J4685j2870l1821k6399M208L2136K8247l47
22929A11835k4808l9243n8871p8590p2920m1876j7552j3929p721J5419L2680K4562J1415K2439N2085P2474O9910
22912E7309M7935J4527j3417j4664N332R795j9790n1912m8801j9520J026N750J1995J8540N524k4962m2019k4848
22894h2200J2839L9257L1655o712m3564m4025j4479q15k4380m6769k8907L501j92k9364k2762L6253R0773Q9377M7487
22875F973J1113j423R67R497J8617K2859K7250M1741N5643M2872M175k3932j8571k074m831k1554k7301j6710l312
22856A21999M904Q039O222P069K5013N3780N7960J6941l8079n9516m4766l0467l0631j6586L2584Q9226J05961P0461
22838C80114J4244k6079m1130m3657m5295m7110m8141n1660n8244o0089m9498k8006n50L0742N5950N2376J1959l2063
22820A3863l3435Q856M7395M8510K8475J4035j303l4430p0037p6124n1771k6028j2324M714L3580N6520N7203M5396
22802E3095L8990L6715K5253N151o955j832Q811P303p567k0085j8587r149l851k530L694J3831J5402L895q483q563
22782A24538L495K0168L4622L6034J0491m0579r0558j08130q4482l5115J6169M7474M5231J5235j7368l0320k3104
22765g6199p136J3069L7002N4562N0934K3808j3919m5824n9207m8142k0063O091J7607J7821J1630n437l0894m3370
22747a17667k8154m195o14j2607r063J6631L4608K4965N610k831j3004m4630p9038p3212j8614M2997P2015P5970
22729a30833Q4552R6828Q1879L1291j7883k7210l864J7089K2507K5786K9449J7348j0253k5987j4436M481Q649N718
22711A95111J0458J3115j928k2989k7144j8592k0891l7014m5439l3338r475J1810J6984p337n3687q1002n5984l153
22693a70495K1323L891j6130j0862N197J6761L3596N5489N4477K0140j3377j6893j1650l0797o2082o7686m2263j2374
22675b43735R162L0295M8659N0227L7585K8446K6087J8221L369p834j4131j9508j3823R841K3735p012o1100p1201
22657a52717j5818M0506K8958l3518p2188n0116M431N3204Q5449R6874P3454J8251l0120l1885P703M2880L5673r615
22639I1406n5556o5694l3331J3533L6441K2811l449j3125o808o260j6208j6576J615J5173N82k8743l8840k0043P580
22620a15492K7682L9214L4751on2317p6823m7087N799L0927K1686J6083L8990P1259P9872N7280K2681j615o912o2
22601A45910N014J598l995n405r604k5949m5104m4272j6704J6559K9719J7755n911k7749m2157m6482l7558j6358O398
22582a04295J4656K733j4614j6976n196j460j6291l0377k2344p92J1050J2389K1424L8947M4042L1027K3203L6165
22564B3291M8199K5834l1566q6902r9469n7556J2707O4135O5860L2952R146J4763K6422J6220q370k0236j2534q95
22546B2001N502J3064K6628M1540N2093N3317L7582N043k5960l6531l3018l6417m7354m3914j7635J1461K3694K1498
22528G2594J1265j3064m9166o8690m6911m26L0263L1162K2568J8848J0146q173j6273J737K9022L5781J5490j6821
22510E9352n0057p8158q4703n4865l745L3065M2865M6161N6645N8032L6772J2543J1181K4210K3284M235j2217j7977
22492A06623k5259l6470l6801k3661j5953k3269l0377k5350j9978k6146l2923k6257j3508p761l578Q783J8493R331
22474b04061r110j1920L439J4918J0227Rl597P15J3616L5142N1679M5169J9847r28p450r942r050R729M1244N1643
22454D1319K4853p864r918J0352J9746J2345P734P638q451m3229o9066o2550k7716J9215O3212Q3697O3323J6577
22436A41217j5044j3344p815l0483o5683p0488l3918J1415L3597L2833K5633J8731P595j1783l7758o2987p6218p0577
22418b25077n0900k5742N835M7876Q7829R8541O7782J6104k2813l2889k1321k630J3376K2648K5386K2894J2968o293
22400C3574k4875k3591J908K9248L5613K8732L2467M4892L6638p55l1034j9512J3846J7352k0984n6767n2467k8197
22382A6088k7713n3119o3924l6965K640J9322J3180J2073L0833N6272O7641N6984L0328J801j1855j774K2411L6334
22364A70557J8025l6293j05153j46659j24946m8525K5362M5056K0259K131J1332J7948lj6932m228J7727J1783j1208
22346a53767p424K4663L4487k524m2219l3737R592L5265K4992N731j664o958k1496l5532l5288k3418j2764j1290
22328b53351j7598k1386q988J8325L4110J4213k3983l2737O599N6605P0848M9325K7009K1280J7461L773n165J1409
22310c2251N1855R3063J11336R6798N5764O452l2635n6412p2826q5665q3565n3641m285L4067L5907O622k2042k3376
22292B5166l81K2237K6577J5806J949q546j1228K077L0060M8489K9724k0416o2932p1457o1135n8242n8267l9063o810
22273a96392L997j6980l3662j2558K8404M6577L6393L2202N0637O3071L8339j1820m9825n9134n2071l9019j3965
22256a85806K6019O4747P9729O3752K8576p638l2745m3610m0155j9338J8471N5785O3375L1681j1120k9082k2505
22239D0136k2605m2538n7836m4516j4267N366Q872R466R442j230j9433k5744j1322R650J9624J5195O56j9577l4263
22220a74924k6436O272M2397N9452N7969N2018M5370L2683J8242J3329J2920n690n0602r4304r9307o0041o529L2110
22202a45071N3539O7091O7588M0908p003m4621m7106k3440m61J1557K1884L2482K9194N704k1974l6877m2320m6152
22184h5078l6638K303N5318Q0797N9935K1509N720J7291K8695J9643l745k4984l5605l5715k9293k3077k0419j2217
22166a5560J5614N7987Q2836O0691J184n1656o4656m6882k9221k2226j0087J4168K7757P062l3083m9453k1088K6829
22148d9784N5597N4965M2873L6322L6956L8223L1132O332l3757o5574o3515l1735j702P560J0916K8764N2048N2743
22130B08364K1728k1803n6295p4898p4369m7153K426M6414N5542L2183P942O658K0897K8411J9732P56k1695m2357
22112A12483n0406l7822j7545j5908l8208n7137m8828k6628j9709k8106k5362m283R543l92j3297m083J6368K0584
22094b28736J2106K2359N9379Q8879P8989M3689K3741L4353M9847L9721N357k5679l3928k6099j8185j1321M739K7675
22076A46886L7920K4501L018l839M040O908p229l0520m7378m5990k1398J7496M4705L7067L11l7174n6434n9306m9890
22057c6306k6751K063J9607K5988M0985O6197O8418K4782l2888m9029j2943L1072M0672J7070j2094k6212k0657l376
22039A16598O921m904k8629l5661j6441N048N883k417P277L5848N5521M6583J8002j0794l2197m7579n4860n0634
22021A3565m0006l4219l7680m2781l8270j9262J0342L9644N3711M2329J2776r965m812K3071M8498N4535M5142K8734
22003A45352L357l2628o6347q1063p6155o3812m9724l0761r976J298j043q490j2229r224M512L0646N3758M7552Q000
21984a46977l2387l7602p658K6839M1291L4191J5320l847q616J0859M2775N7875L9561K917k2511k2488n229J3401
21966b286K2580J8785O298l650k482M297J992j3055k4173j1834K2452N6014O7000N0520J6096k0220m0602l5847j8147
21947I3738j2892k8651m5309m3110l1240k8595k5999L364N3608P8207M9494J631j1550J3467L2157J8909j136M380
21929A20473K7300L4322J4351j1745k3793k4919k8789l9386n0674n6796n4399m0563j7102N856J8536K3018K8701
21912g5609L6576L7015K5872J3564J1434J5382J1296n779k4293k6549l263L7046O7932O1205J3210m7351q5281q9644
21894b7237p3309n0411k6344l761J6344L6571N2981M9646K1861j621J3385N4786P0652L8085l341o298K0163K7895
21876B10047l383m4330n6670l3002M088K6057K0639P16j0359p447p940k0731k8803j8752q874k1522m0231k7087K0004
21857d7580N9849O2574M2622K7419J9084K668k6422n9233q4408q9538o3681j2793L5557N5990N0107L9899M1956N4632
21839A08702O4178N5666K3371k0903n2044n1869k7676r044k3513p0332j15671j20040p6921j9509J6425K7837L4012
21822b57331M3634N0269N2369N4602N0616K7724p509k9843k8243j9444k0871k6967k1078L263L9257P0710P5174M1400
21804I7732j0159m2544m3973l4435k6281o506K8915N3538M6368K3997Q929j2017o1737j18536j28724p5877m628L2850
21786b73088K8455P097j1898k5246l0502j8387J7771O9102J09661J13410P8414K9260j0271l8420o0264o4427l6082
21769a15415J0452L5942K0665j1398k2849p066Q650l50k6012l6185r733M0850Q2690R3431P3413L4205r524l6889
21751A24877l0076K368K6193J7989r766k9552k9825j3490J5368M3036M1286j267n1518o3074l1823M714K0158K3213
21733E8811K7366K6017Q396k0470m6045n6429m4751j5936P991R679M690K2981N8453O7785L2216j0640j8849l217k423
21714A05625k0905k8464j4440m249j6040l2708l1708j8499j0235k669K1310N5052O5618L5523j0528l3248k2248J217
21696C8404J5909J7097N513j7982m1120m3003k0063L517K385k2867n3382p3909p6956n9326k8516j682J3877K7510
21678c14594M3359N0325M6584M9623O1537N2707J1626j6971J1141O4245P0356K0568k1752j8576l099j1540k8462
21661F7077l0443l2473n0057n5745j9013L9031P4581Q2407Q5694Q3372N3571J199m0563n5911n9295o2750o1159n1784
21643c2261m1489l2008j9375o966N76J1182L1216M3730K5946j5146m8422n5587l9817o181L7279O6022O1463M5085
21625B5247N2626P2122N0467k5290r5845j03828o4658l0802j4111J3038N2612O4966K7892k3678l8943j3551J2990
21608c8746J4758Q564J8249L1869J7894k2586m8145l0600O954K3607J4455O428J0473P055j8452n0120o0636m2042
21590a51021j0610R741O139j2950k6345k5322k3706l3392m1520k9163j750K1770M0676O5218Q4046P3584M1473K4187
21572A1055L1490K8301j1293o2471q2898o2701k1643J8964L9941K5144j3672l3088q899K5222K0598j8314m2815k9672
21554a86751o087l375j7628k4861j1071K2029O2908R3701J01129Q8199O5201L3445n779l2505k3532J2110L7737L3501
21536B38371J2633j0836m0789p2729p8637m2383R066L4647K6851R018j697l831N108K5268L7323J8335k0482l7577
21518A07659j2223K8520M4633K7642n12j6757j1501J2507L9964M9454L3277N508j8080l7446n4270n3953k2248K5335
21500A47509N1662L7986J731k6205k8691p907K0449L5742K8953J4137J2336K3737K8847J6687m775k6692m7484n8645
21482B19377m5462j3126Q137o46k1909k7986j7693q867p589n356J527R367J8608L0609L7483L1566K0530J6692J5120
21463B60382k04k9314n1159m7602k1957O098J6163J861k1779l1925k6332k7021m5524o0054m4335m987L0688N1378
21445d5623O2609O3314M9264L0775J7805l525m5936q0771o5210j1145J8202p145m4685m4356j4471M583J377m601j526
21426a21065O109J5828K7674L4014L0089K7734M0119N8991O3213M4418J1550k2567m6405m8877k7444M493K5956K3784
21408A47614K259j5290j884L9330O4279L6132k0950m8931l3988j4782q363J7343P4028J11531Q8462M0621K7288M2004
21390E46703L3397q114m5002o1944p9107r6724q4940l9490K374J6158J7447K0896J3840j0119k8430k2896n984N752
21372A73817J6563L0222L1327J0925j1373j3829l854k394j2091j9505j6603n111Q090Q629j5841n1596o3023l5859
21354B8494K693K3681L4871N6122P5874O4988K5709p161j6849k6578n9005r6352j01091o7164l0269k3857l9892m5182
21336b00968k8526j1879j1276r522J4463M5695M9158J8518j9541m6813o6905p3631m4573J5872O1075N8725L8330
21319b11798M8738Q5213R7611O5859K6771J6653K1507O079k9281m8295k9245Q414L2898L7395L5983L3519J9246r197
21301B08070l4991m5155m8701n6807n8405l7461o861J748j6796l2302k3066m241O81m642k129O269m37k8512n2907
21282b36645m0435J3008O9975Q1871L9667j1258j9773J3434M5637N2923N1380N4415M4832Q295l3672m9895m0152
21265D3607k5155j1870M603J5437K924l0179n7233n5522k5180J6208M6722N3097M1428L0026K6320K2306J7013K2591
21247A37143L6998L5650R457j3478r725k00j5141m0343l9177j4876n128j8926k6422j6855j8830m5596o1711l2034
21229a39194K3772N3945L5420r993m7432n8151m5919k9444k3277j9358L604M8559R1541J09617J02397Q0460N0448
21212B26995K0918N627P988J4035J0524p81j2948k3813k9718k5050j5583j6116k7557l4096l0106k7895k8721j2254
21194A449K7625O1552O3016M6545L9815L6312J0289l1434m9888k7611R107K7455K2284O440r685j9221j8259j5011
21176A80780k5488n0576o8617n8514k1695K2662N3653N6976L0929q648l9174n2219n4599m7337k0266K4093N8358
21159a9682N8348L3345J0679l369k6272o1890q2503o0623n991M3724O2357N1014K0555j9669n0509m3061J0623P6853
21141f071J10171R9931O9804L6360o003n5328q5471p5300l5995O613M0072N9300N2521J9174j1491r926J0929J1525
21123B30815j7697m6078n1470m6085m3377l1563p42K8243K7034k776l6417n7133o0348m0445J049M0935N2556L6703
21105a6796J5191r80j4619j9249l241J9599J4505k5707o1416n3882j3982J5548J2619q780k4706k2396j587K6182
21087a63697M2276L9768L3030L4283K9518j064m4299o2412m1851p992J4367K7464L6180K6829n976l2675j8939K6964
21069f8226O3651O8244N3489L6351J6825p932l2601n5175p9763r9047r2121n1124M237M8191P0770P0159M3027j095
21051a2140l1920k7317k382J0827P332J1527L6254O1699O1863L5887L825j7860k7776l3818m3572n6785o3073n0504
21033a37933j9135J7392M4698N7960N9554N2775M0338K5345J2406Q862J9732L5497L2494n77l9839m8636k5739j0398
21015A24796k8205n2083l8380J1223N1625N6075M6311N0218N5152K7982k9365p2179o5731k6833j532j2362m0342
20998E6370n4459m5696k9596k4226l1723l8837l1371p539K1329M0649M0694J8192j9948n0478m4309J782M9405N3412
20980i6349J4483k0984j9168K276N500j5735l5605l5643k1201l104J3839K3287K0218J6193L1783O5670Q8898Q0696
20962A15054N4682L6933L1472K3624Q244m243p960j1364k2909l7264m1423k9977j0559M464R406P536L409j577l064
20943A24484Q181L1305M4762K7434j0258l4530l0327j5526p190K700K3365L9075K9194j76k7148m4576n5391m8948
20925E6430j3358L1242M4249J7199j1073k921L4265O3120N7340J6804m1179r0776j08297q8424m7479o680K1508L1058
20907c6972K1196K721p984p782q094j3430j4049o605n202k0747m2540n1049l7469l182M4218Q4323R1706O5557L6359
20888I0975K7806K8763K0651J3142K5691M7496M7777K1092p978k4726l8769n4025n4248l1748p368m237j5738j6382
20870F8174K481K0723J1744k9213p7796j00960q7611n6589l0963j3525K346R721l127k6216l4382k2457j1074j1672
20852c90396q403J4342M5738O3513O0615M5001K6635J6933K6712M8915N4261K1786l1363o5081n8532k6337L259J4573
20834a37829J0926O544J5110M0325P3432R7863R5698N7461l313m9076m8677j2241J8775J9728M194p180j6540l3195
20816A32005m7710m3238k2414l385M603M722j479j3590k1962j5732j17R474R211P844P514J071q687m179K2983N3518
20796G0452N7337K7145j1864k8405j8455o907j4178l0254l2864k3198k1946k9308j6562K8341O9882O2808Q093n0232
20778C9885p5025o2665k9107O387K6126K4309J4741J4271K0885K1884J7417J8092K4202K6935K6843L1264L5522K7000
20760B08966O568j3937l2892n4367o3936l7486J8828O2666O1566K6432j0656l3568m4783m6551l5430j1009J7478
20743A7889L2507K0832p312k0967o071J0369l074l1722l4160q295L023j9623m0159k3228J3940L3048K8898K1308
20725a2797J5556M067o968m168P757J3609J3700J8294K2387J0257j6971l8307l6650j1731K5066N4480N5827K6401
20707A39809j0946l2331l5874k8415o084L0375N4980L9532p206m7379n8189m6933k6904k901J9611L3606M0902M5627
20689A01280L9143J1012k6944m8815m6717l4590k1573m499J2996J9251J7143K3763L9617M0193R557l4286n7876m4179
20671e524j111M7376P4120O7536M3205K5040J5035k164k6204l5402j8949O924K2006K1542O643k2184n2222o0879
20653A04788m3645k2290j4494j2752k546J7669M2866O5402O4216J9285m7910q0280n5745k2393l2112o6989p2354
20636a59284m1850j8714j9151q590L3260O8961N0894j4268p2225p7480k8616L7536P3719N8259J6767k042J9407M9254
20618c4163M8548J5097k5416n3813o5998o1516m4854l0619k7043j7906J8957P4485J08765R5088N0342J4659J0729
20601G5342K8791M2044K9050j1358n7372p8980o3117k4539J0179K5211J9921L30k3288l5574k6871o612M810K7r457
20582a01463j3041j2840r898N174L3860N4918M7760K4502J6725L0613L7553J5337k1872m5651m8059l9651k6547p708
20564f0288J1174J8177R107r035k6239l3462k4964p231P63j1058k7696k8441j7399j6856l2022m2835l5091k0138
20546c53534j3658j0878L042K7982M9163N8143O0313O0930N3750K8993r736m0826m2081j5170J2865J8936Q834K476
20528a00456J345j0618l4619m8898m0871k5451j8105j0662O877J9720J0298o408j596J8348J6865j3202k8742P913
20510b58262P6626J22797J16728P0936J2652l7641o5490o1652k8123K0900O3088P3484L9850j7908n6590n2162k4832
20493e599r867j5249k4289k7623k9662k9661k0548n381O299J7109L4460M5938K8946j0241l3204j5083K7983O5237
20475d35Q1535P1827L3048k0391n5981n8660m8623m5732l8676j3120J2666J2997j076O90J6161J5906l129r331J2217
20456c8107L7001M1425L3152K6216J6604K243k03J6230K4373m876n8407r4939r4947p2283m2478p325K6657M0158
20438a49506K3922n279k3869k8145l0869l6960l6463k3929j2010j4019j8831j397L7158N9834M0356L898l557K2907
20420a96759M7834N6339P4156J12009J29440Q7449J2063l4139l1705j6296j6057k0184j8146k8354o3052r3616q2375
20403h1393l4925P673K1366J7008R161l208j7708j6901O690L0881K9564R033j235J1133L1424M6055N5890N5628K6655
20384B02791l1701q3372r1478o2434l2445j9342j2632m950l306o696j155J4782K4516K1947K0389K2760J2001j1859
20366d2184j5733J7397M8653K9477k6673n7750l3878J2412L8166L6095K0303J01j5233j2726L328P192j2235k9388
20348c2676j7430J0254J9501N850l136O545J6455R491k352J456J8658L0958L1664K8172K1290J652k9411n0767m2669
20329B3505r830K3277L4540J7786j6113m3020l9200n182K6676K2148j5452m5960l4751J3411O2412P6422M3450j8624
20311A15495p2788q8402o3431j9912J9287M1482L9621J6594m960R80K9316M4419K4848j1043l5546m6536n4708n5702
20293a20986l9386j4493R47O768J6323L1200M1789M7061N1375M6580K1864j0284k2974j1825k84m966j7241k3494
20275b026k2590j7493r221n690j7913l9894m8633l0968L678L9830O7653P5728N3774J0241l1094n7635p2045o7472
20257a71770k7166L9762R0292R4848P1498N3763M5324K9822Q014l221j126k127j8562m5831o8900p1285m7088j3741
20239c7494J693p98P436L3108L8321r09m0746k1216M1060O6132K1420l3279l2093R959K9560M579k7686k8766j383
20220B8898K5294K8830Q960j6035k7184k5476k7968l7002k9388O713L8956K2731l7692q8100q8778n3913j7596J1438
20202b77312M0052N7235M2573L387k5703k5337j0736p20R896L1256M9492M0204N623k2439j9410N733K3777J5312
20184e7117j3207l4631k3254J8905N9757P1140O0328N2781M9118K4094k7061o7748o1578j7052K5892L9204J9600
20167A19171k5082p6057r8121o4558O078N9131N9877K7947Q803K1486M2408L4410j3717p2981r7760o8521j1493K8759
20149a20220L3370J8269N162k11Q61J2202L4074N3294N5979M5681L6801L2532K2183J858j5195j6125p387o199j8481
20130A68448l6509n4843p3084q1130o0547j1654L6046N6886O0465O9846P8417N7066L992m3059n4515m3645l8884
20113C3296m3289m0512k5232p496L851N969j591j2996j8251j8831k7014l9156k9687J1182N4185O8312O2996O5998
20095D1734P5327O4794K7321j8316n5570p4945o1943j6439K3804J9552j2806k2353p11R726j0151k7066j8222j1492
20077f7756l2954n8219n2815k6281p802L110K2325M1569M4002M0907N2519O6123N2894J6566j2879k6325l7890m5036
20059b7942k6511J6579N1826N4070K6919j4279n2975o5841l8354R458L9807M1907L3289J9152j3705n7956p8886o0273
20041a43715k5807j319J3849K3346J4498j5874m3269m6258l3603k0117J034L7573P0426P5115N7480M2755L8969L3452
20023G8535J7223o421k8925l6844j8180J5638L0981J4629l832L936J9188O607k6019l8205j8882K855Q239Q675R083
20004C8281o871l8856n3238k8136J0952K4815J0508n734j0617j4536k7231m3230n0943m4801l0016k0388k4969l3742
19986c48752k7631n946J2269K0627L8211P4942J03268Q8425L8423O79Q581M7374P4240O0981J6497k4897l7093k6482
19968A13716j7996j9149j4451P13N274j2392k7674j3836J3997J9658l25j7753k1602k7865l8053k7684R513L9579
19950c6330L1569k179k8954l5968k6563N97L9949O3267M8115J5017N633K4837L3489L917m2768o5087m7454o034L6127
19931A1180O4282P0239N1662J6932j4298k0849K497L2192K8312k5972r7046j27267r3809l0014J6534L2552L5130
19914d7743L4614K4434N796k458Q681J7149l999m4387o2056l6511L384J8174R318R947L0968M4109K5569p959k3610
19895C420j6124o135l983L56J0802J1813o950k6401j5562K6349N7295L2350m2939j08896j10710n5120N452L9339
19877b05644O0620Q3728Q7684N1494N70j9220l716J0223M319j303O804J0297m261j7246p820J1752J8113J2189P971
19858A06554M441n052j1057l137O377J863m584O702K1714Q492k8620m9057l5183j3819p677k052K1119M7991N6873
19839A21888N2629N0166M3708K1034p650k5018l8440o4009q6586p2289k2770J7792J9885L002j149P448R917L007m159
19820B8406j3261l0005m1517k7252P428L2227L1030J9456J5983J5324M147j1458j2303N690K4977K7964J5158K010
19802I4004M589K6243N1943N9381M2776K0137Q096j756k5788n4685o0348l7365j2295l520K251J8277K8360J4034r071
19783A65263j3791o782j4545l0505j9046K1340M2652J5241k6133l3116j0740J890m683p798k037n629j6749p384K6295
19764G3743M5312K1441j9147l1599j1536Q425Q109k154p749q676j0047j2987j9457l2281m5946m7865l2406o359J9982
19745a11197L8908M3174K8815L432j6532k0764j3177m883m779j5823l2577m1842l3653j2843P666K4593M4475O3908
19727e3099O3170L0141j6337l9261k1159J6876L5970J7747j8392l5700j7436J8554M3758N1460N7822P4206Q9970
19710B98290Q4915M9971o543o3233r3224q0440l8186l243p75j9548l0282k2004q234j397K436R528J3383M637j0442
19691H5609j4333l017M214j1412l9118m6539k0485J2747J8965q34j5276o814Q724J0177j059j1067j4825j4021o102
19672f4466R799K5305L4623M3956N4956N1106K0588j6996l1378k4584k6604m7596o2222m8561j6662J3383L8027N8266
19654A0940O1386L6216m905l8446n5744o1552n6625l9200j6227M437K6135N0264N9565L7642J302j2205P297L2290
19636D2570L9802L8739M3281M3476K3106r330l0318l2982k7770j7729L504K9196L7794K0835m081j6421j5083r286o02
19617A58701J3324K5334K2094j225l5974o4990o8559l7255J0439L4802J6074j7784k3310L026K3949J5206p114k0965
19599D5773l0993m6422m9764j8892K8998M7954K1343j6555k6329j0046J828m859j4831j0366N525J7257J7886J3299
19581b9194P862l321k1259k9941j1205K6799N2495M9538L6433L5373L7926K2089q595k9127l1623l2335l8802l7461
19563d348k1560o308m422q084q253j1993k5447l7590l7092k8845j8019L128L2283M1649J4918j5006j554M5982O5482
19544b5079K2442m3963p0138m0028R215L5946K9381O632p066K574K7617M5298M1556K4312J0870Q868J3646J6656
19526A08739J0670n930k3591k7861j8786j6267l5673o4089p3764n6730l2200j7939q708R116L2271M2559L0676O943
19508a40564j2467k0748j9121q997Q012K6883M1883M9295M3581J7405k5437o1753o6380l9588p140R272J2090J5306
19490a78468K2585K5481J7575L927j113J5296M9177P4278O2249J3540l9394o3908n4564k7652j698J1048Q207K563
19472f0871J2069L4501M4153K5324l703j4883p255k606j3168l1331m4971m5695k7279P125M0302N7197N8884M8090
19454G5883J6627l0906n7799l3616J5222L0276k529l7501l5913j0935O476J0535R314J387j1643j3200L052J5913P791
19435d1566o036l728N820l76j9797l0256k5010j4123O41K3352M2190L9961K4717K1488L2800L5259J7885n041k5285
19416G2895n3938q8706r4927m3564M3701J06776J01377L3983m6938q6201o1609k885L4501K3998q828k2712q163J2111
19398h9129J8490J3133Q091J0565K0068K8907K6977J7104K2200O0693J13180J31625R1196K0101l2997m9969m8048
19381C62187m4069l5312j6232N605J8853K1350J6138N203n335m842O986J4115L458j8480l8325n3476o2995n4592
19363A20237k3317N798K081k4847l2457l590L1300M0644L2306L0161L4081K6424L188k2997m0909m5410l5265k0280
19345G7148j5831j6310N002M9294P0717L4544k3306l8094p975M999l0766p0654o1781j5344J9003K2534J7475K3130
19327D3785L3640L6406L0533K5548L2644N3704P2568O7156L8407J3772J0424J0142j2258m8939o9671o4355n0612
19310B22894m0924k7033l021J6881J5811k075j5969j0060J5108M4873N7212L5858j1970n4060o0656l4979p745O06
19292A40751J290J3137K8036J8662j8954n0221m0797J679L8307M2736J9873j1032l3191l5937k2100j2469k3575l9640
19274A6555k8591J0147L9829L8620K9505L8061M6444K1594k5550m6623k1700J4434K1421K808q893J093J6359J4989
19256A80502o325l3227m9865n1828m5494l6359k2283k342J3143J1767k478j0745j926J5540K7150K7340J5907q930
19238A9547m2344o4141n3276j3781K4421L6770K9087K3931K8331K8821J8805J3342K4865L7457K5291q134l1966l1812
19220F5214k7879l8521m7120k4430K8685P9715R8092P5934K6396k0539l1209l31L5020L4777L994k0737k5018k5948
19202A86095l0450k2453o24Q496o108j6557j297J5555K527k4438k4418L823K0170L903k1797l1594l0270l1887l5733
19183c7057l8415m6010n6155m7462q014L7598N0715K4215r088j2310K0001N8863O7551L7359P47j535K7733L8654m506
19164A02884p2018r8072n4372K4822Q6122J03639Q2325L9701l906l1807m1314m2767m3086l7731k2768n046N789P153
19146d52M17j2371k2702j7964P75J3425N564r585p794J3363L3634L7931K7873P213k3009m9673n0111k4020o046k5652
19126a09184o3241o9973l1020J4686K5868Q868o84R136J7180R793L898J8758M4111N4265M3593K8936K1401J5769Q763
19107E0923O933Q788j525k7905m4453k4484J9015M3256K6932o652k1956r561J5818L8807M9690L8624L886l5283n2317
19088G8536m4806l7510m5482m8486j8822L3269O4716N3207K3301O654k240k5497n1370m2370K207L1225J1823j6444
19070b8089O299P1146J06282P1338M727l5528m1428m1301m4917l7406j6893l888r344j7858j1622N397J6935J6529
19052A0379R120k831k1769m1733m3132j2096L4930N9257M3027J5178J6973M5348N4493J9861k5129l3486m805K3367
19034A46952K9717K5011K0118J0204n305j4976j6958k5259m4080n7563n7829o1510q0513r4852p7596l4672M101K5851
19016c09159M1396N4397N1582L0418J2723J6848L2091L6061K6972K1726K6206K4764L594k6820m0884k5753O137L1468
18998A3767L7785L0078K0794J7929K0866K2048J1930j2517m2110o2889p1451p6788q3069p8716n1840j1511J8715
18981b96979K8459K9818L5592L9387K5678o170l6258m1134j2721L5983P8891R3405P5836M2322J3850J869O979K3110
18963A37917L7449L3795O729k8883n0849n1662m0547k5684n947J7240L1673K6683P784r243j6053j6188j3479m414
18945C6321J4031L3148L5846J5138j3240k4733j6488j5653m6265r2542j10874p9987k3448K2655M6240N2755M1991
18928a25105J3387j6394k6278j8421j0629k906K2196O1278Q0489N9030J9916j763l902q612k1732k7588j9112p099
18910c3245K374J6196L2928L4368J1847j2919r307K4718N8210N9287K5042j8795m3057m1491l4168m1365n4178m1348
18892f4903Q242O0804P0735L5051k590o546R183N832k6836o1454p2025n9128l2489P313N3998Q0656O4395J9992j3661
18873G6569k0289j8600k6909l8979m2762m0978l9720l4433k2559j4959j8579k1510j2287KM764J4550M4464P6832
18855a35383P7006M1848K730k0182l5045m5230l4774k623K0401J2801l894Q3J4206O997j7834k2481N508K9150J2250
18836i4466k9782m9435k5789J5212L6460L0397J9682K6021M5939N6842M2343R192j8883k2190k533J6558R752k3761
18818D1559n4727n1431j3053L1244N6220O4232P2654Q7589R6594Q3214M5152P50k4710k6048k7085m9683p8092p4715
18800A79664l3461O907J2179q965l1121n0801p3264q1309n2101K359M3797N5221N0915M0352J5767j7192k9534p137
18782B2276K4655L2512J3353j4400l8793n3936m7365j2283L3776O2312O3172M6355K1565o435k7041k9516k1363k3141
18764D5703m0111n3695m7187k6973j0294k269N078J6956K8042K8600J3665j1018k9561k8385j2917n041j6299l0357
18746a76063k4227l169K957j7249l4406j3318L9252P9126P5263M0421J0323P783L1925O6523Q7361P2901K2870l6436
18728B31837p4464q1038o4332l4984l375J7273K2208K5922M5189P1914P7958M8499j530m3885n7399l5480P885L8038
18710A90236K5839j8116n0579m3680j1648J5132K4238K0301Q985l388q461q899k0612m7519o6477n4006j7869J5074
18692e1449L3142M3520M9253M3233K2900o282m0070p2542q7637p1861l5528n374N248O090J2494L2364O6183J01760
18674D5444J11745P7580J7744k7479m0788l7253k9278j0307J8144L2230J6740j0945k6884l1576l3845k2719J4921
18657F3474N8246O6618L1910j0518l0244l6746n2395p0700o4400k8614O757J3313k671j4824j4688j7595l1040l7180
18639a71297j8497J3760L4386L8052L6892L0241N081k9530l8792q698K7983L3640J5307P746K1246L4992L4994K7744
18621I5250J5608j0587m4575n6239k7552J9055M4937L7302J2427j2885l3295m1144k3137J8098N1841M6121P195k1892
18603G6528r929K4882L7839J1968k6771m6880m3935l0708j6556j0666k7016o4586r4104q6874n0100j2842J4864M2870
18585c12016O6371O4139L7572J9712K9520M2672K8849n39o103K7747P6277J05348J00751O8395K2334k1847m9969
18568B99213n2258k7503J0274L2660J8920j8030m1524l4095j5732j0023j0602N56J6550J3063j2276l2444k5742Q22
18550A11829K6931M1677M4998L9385K7571J1464r699l4016n0849m9889l6241k5622k3596k1339j4726j5043l3045
18533a0210n9826p1366n1163p355L0184L2886M87l6329m6502k8872n553O973P155l654k1497k8674o010L5916N8471
18514b04939M0742P281m249J0754K6745K6056J4484L946j227J72R207K1152K6053J8238Q09j7510k5210j3640J0581
18495e0555K3447O142l1376o0294o4983n3855m0391k8512j7948p337J2949N2842R6684J03315N1709k3184o2087m5896
18477a39330p764J8568L6103N9756P9403P2574M2903J9661J8848K6330K3616J0658n211k4959m8895o4232n6325k6057
18459C5647J3719N0064O8237N1873L934m0230m2673n440L3480M4524K8705r07l4335n7741n7724m3570m2397n8728
18441e3562o1128k6930K0746M4892M7411O0732R4153J18656J07459O6848K0349j7796m4892o0580o4771n6849l4613
18424A60125l283J6493O399k0859k9087l657K6416K3300j5131n8871q3601q7829p6790m8600l815M1266O1383M4620
18406e1521O045k3760k6515j1522j32J270L498J0703R372r813l1070l0478r708M686j446r706L686L3034N1689N0292
18386c1396M6790N3952N5968L2725m248k1372p233J3058J2970m519k1242l1871m0826m3009k9007n886O837L489k282
18367a7102j734m978k3106m7483n5611l3128J2769N6541P1299N1324J8021m341j5292k8655m2465m0855k7507k9681
18349a61984n5274o9734l8170K5127P3678Q6321Q2878Q6088R2631Q5435N5654P915m0513o3529m7054j1058P096k238
18331A13269j1324L58J4414N415j5045j5748J963M691j5840k2040J2370N1890L9685k2855p3142o7200k9703j0682
18313c9524k0162k9245j7668P436L1052M1088K3404k5639p7741q9592n1284R59K8142K5784J1259k064m221J4971
18295a73045M8779O9844O3908N1524N4894O0156M0302K189k1979k2609j7481j1428J0235M1672M8542J7068k0049
18278B42522k7712j3319o077j4177k6980m0414n2456m7627j5796K1100K9034N277k2456l6009l9345l3453j0364K0055
18260f8197K5874q027n5153p6225n9195j9288K4758N8248O6640M4794Q737j5497j6041k310Q262M291j3027k9316
18242a20672k7658p279J3610K0497K0324K6986L8097M0952L5611L3918L6899L2248J7577P224P714M063j5693l5913
18224A28505l1598m983J4498P294j4413k6213k1453j5178k4388m9189p0148o3343k4265K1724M0672K5412J225r423
18206a15264j6348m1018p2496o7130k872Q1431J19734Q8293K5516j7670k8290k4165j5733K471K8014M2566L4830
18189B1869J4668n043k6073n1315o6408n4777k6725j2746k3824l4812j5658L1404P3258P6896L4904k8611o9925n5366
18171b18284O720O8101Q6092O3765L5896K2215J1185j1715l9210n3429m7793k8024k080J9665K2633R93k9338m2389
18153a34997k7847K374L1051M8802N1376L7699J5774m05o614j1893j9589j7073L035K1760J3398j6610l4414k1980
18135f6153J460J1134J0149J4792K1888J4574n002j3258L46J5581P223k3430n0765n0302j7288L0035N9608M7922K522
18116A1036m2311n7294m0477p534K6900N1144N4593L9499K6877L4256N0453M7719J8718j3688k6830k5352l1130n4694
18098F1885q3423r3497o9692j8928L1512N4028M4528K4326J5805K0321K4390K2200K1577K6407K5019O951j4303j1987
18080H7119J5968L6064K0031j5759l1901k0194j0154k0298l2832k8802j9537k0521j7427J0891M9336O0532L7364R695
18062A09575k272r765k4184l4454k9562j9601j7760j9130j3132k982J147l334j4122k7767l1291p040M0762Q0424
18044b4488Q8806P7486O6569M9791Q960m8405r0465r4554o0341Q0O1420Q5106N2997J620r055L1192O8405N3620k39
18025C18505m6861o7298p6750q4727p8322m8221j1709J300j9109m9741n6192k9189N094J7698J4577K6099N8330P6121
18007e0395M8359n560l5494k1675M243K181k8955n6038n3412k6714L515K9071N5080P7362P3794K9835l2697o8184
17989e5684n4189j6268J271j7039m6478n2512k3291K5216O5725P8415O1024K7963O6r451l910M68r559k9784m3408
17970a01425m2183l5333l1397k1372N226L3679L5208P919j4904p878J3591J8777M990l908O857K9049M8616N7789
17952C301N1577K9899M006j4427k9487m9556o1761m1233R093N1707N9509M6990M0991L9804K3701p188l1950m0661
17934H4315m1687l7634j9916O820J9762J0426J076R955J6536j2553o8833j01106p6042j8591K1021K5403J7643J9155
17916a44250K2390J1455o766p942J6277M3909M7591K6536M729p41J090p925k8143m3256m4419l8686l0367r812K6786
17897a61544N7106N1346J1255k5919k7894O27L2214M9661N3823M9274L7953K3884J0550n997k9758n0701n0842k7555
17879b517l25R086n807l8381p3667q7206n8965k507L4960K1900j6501k7225N823M9299P1436P7525Q4956Q8752P2201
17860B02837L6750N09k4588l6730l3641j7672n937j3664k7974j9288J8061N6229P0145O3756N1408L2737J535l3690
17842C20783n5270n6780m6175l4350k9569l5069m2293l5571j4220R57l493j0742J989K7559M1605M3577N4576P2950
17824B00464O5257J5459m3441o7748n5521l9387l9408m6264m5962l8504k8900j6091K135K1652L4745L7227L1657
17807a2630K5544K4292K3819J4496m072j8088j5232m40J0694J0669O159Q126K0744L6834M0982K2650j0153l7131
17789A47263m8920n3730n5924m3588j0944K0453K3302J147j6869j5299o134k667r27O230J3989J4242P430k335j4131
17770c7412k5629l0375k4847j0576J1984L9839N6332M1144l93l4051l5269j8606j5259l2034m8125m4859k1837J2029
17752b17944M6334O7624O4894M1405J3720j664M318L2575O9450Q4731N4619p769n8822o9177n0676l0859j4897R540
17734C7402L7288M1156J1036k2159k1088P778K1193j919l1611k9427p05J7374R558k679o57L745q501l1114l9406
17715b736k0681J3697M0005L9096J1470j7172j7113R310K5273M755l3139n0716l9992k4068j9185j9711j9001k1177
17697a41085k7187k7625j5929M858L1626O2666Q6474Q5778N9760K7729L035k2352n6762q4969q0698l9363J3065M4630
17679g6349M5924L3866K9323L3074K9206J3050K690J1530K2608J1645j1874j4637Q601K3602P488j7495j9344k258
17661A30650N923m172j8736k8399l7001m6359n0242m1549j4944K8216O6060O4048J8524k1623o252M9062P7946M5355
17643B16507j5266n2030n1856l5291k0815j4414j7955k7133k8040j0144K0681M8915O2278N3845K3597j4256l7390
17626A01233l9047l5855m2611n0599m3480k4695j2496j2220r865N538K5293L1328J7804k72O2K4857N1578N1340K6104
17607F3997J1479L2968P0502Q0918M8772j408l9511n7854o2953n7880m2984k3715p231M656J2810J4926P802p210
17589D8084k5066m0785m9767m9026m2920m3076n4286o1830m3993k443K9940K4670k132k563M3410R7189J05910O6918
17571a766K6453J7565K4912J7483q694l5672n1304n1527l0736N384K7983J4545j3727j4369J4106K5436o508m4537
17553h4973l7044J2350N4047N8179L8403J4401j3975m5518o0074m2690r247J1829J4474J3925J7034J3643j218j4192
17535f0646j1124K390P327n504k4992l1821j7992O085K3987L1913L9990N1806N1504K3459j8813m0099k3218J3522
17517A7774M4042O2009O8437M9694p649q4218j33027j23953p1961j9180J712j1777l4502l6039j1651J0394M196j6387
17499b92086j4623J7488M9243N6600N0565M9478M9802M2872L7392M1054L7553R669k6076l5840j3733J5004L1503
17482A05865L7410L3630J3622j7377m1184n1511n8718o4503n4795k5723O022K8282M5536N4324L3644j8819o3513
17465c7808o0874k3038M915O488M370J1182N873k6409n9137n4562j5732J7536K2532J9423L5447O3298P3685N9705
17447D6894M4633M2173L2103q202o2477q8097o5848j7248K6958N3683N9081L7934k348l3115l0166l190J5043O111
17429E3922j9018l9673m7253m4665l2962o250L7407Q1341R5119O4128J0679k7712l9522m2119m4540l2885k438K2514
17411a3927K2040J3320K3328M2630L6741j606m0391m9314k8354N614L5249M1245J0538m1380p4049o0404j1545M0199
17393e0066O8558O1977K5804j5242l3636k6334j0954P115L8964P6150Q2450M3600j120o790J6171K1398o299l9262
17375B52484n5919o2121o0267l6201P703L7309K6063j0605l8834m7056m5598m2529m0686m5756n5177m8677j2799
17358b78666L1425M8559L3251J1612K22r506k1983k0582O080M2281O6071P5867P9871P3919M9689J4647j6599m3635
17340A42523p2584r2978q6222n7443l5353l4179l6267k2506k560l52j9866l9311l5888q550K1145K8140R534q155L568
17321c47304L9879O6992O2961L8402J3015q269k5621l0575j8201J778K1661M7846P8622Q7789N6465Q727j3765n720
17303G4682L558J265N021K1923L0269J6630M6j376k487k3840n0721m9561j8498O411j383k6208l3458j2691J3694
17284d6724K0690Q879k580m576o306j2773j2069J108O783r942k1971J0245P2540J01150O5866R949j5914k1795m4471
17265I8089p5296p1524k8739O983L683j9751l1958k8958j9119K398L9877P4385P8090M6630L463k4750k8909j8108
17247F486o897m80Q964K7929M6518M6748K5276k101j9193k3240k0379j7890k1209k8393k8253j4435J703N662L033
17228a0151R751K1340J5045j3700m0376m5259l6078k6525j4955N32P469k97m536J2218L6653M3407L4474L4810N2156
17209G5978O4206M7308J463n2396q5257p4680k5381K6403M7270M3862M6925O1723O1172L2502J473n330J290n557
17191B62974k5830l6688l2350l2331m5586m8964j6408L9775P1914M3862l0663r8758j15272p8648k4271J1749K0812
17174a34683J9614K6956M4143N5750M8292K7055J1540J4117K8764M2912N1743N3661M0522O053l8522p1105q1845
17157A44967p7238o0154k2068L5807Q5715R1448M2229l5806r7467j06639n9510Q694M6994L2308r114l0387j2193
17140b2414K3301M1051K5109j4617n3410o6431m4772n603J9323J2593j3687l4954m0553l6137k5663n601J8892K6103
17122a97470R85l7558m9869k1972J4951K3145N650k297J5787L8108M1616L6077M3742N9050N2909J6421k1275k7782
17104i782o830R132l60k2041k8270r246J8930L4318L0131J4077o195k8501m8044n4007l9564r567K6019N9694Q2025
17085A1919P9663N0835J7884P739J8184J9041p125l9746m6223k1692J1321L4976M9000N2367L3567r163n0954o0527
17067A51066l5353m482M337r815k9825m3187m9172n1606n3540n5214n0087k6997J5272N8873Q1850Q0420O6794M7830
17049I7164K0508j0072k5725j8015l564m043j8626k8809k5591j8932k0809k8896k9020r666K4344M9920M3996R590
17031C754k3097k8899j3520J338Q866J8999L5778M9376M9365L2910K235l2349n0315l8575j1060N070K599k321J578
17012A1732R077J6585K9171M2946M2539K6939J8039L0389M9766N5667M8634L9558K7229N286j9530l4593l9533m1922
16994C17979m2413l8143l2332k6616j3528Q417K3524K0721J5170K5605L8570K2237k5080o6238p0912m9462l2931
16977G4568l4255l8124k0757K4766P6884J00099P8780L3772k165j8425k5514l0132k8975k1713j1873K068K0123L0564
16959B09691K4203J2442J0578J0477n051k6484k6273k202J9113K4053K4473K3314L825l4596o3752o6536n8508n2745
16941B6022l6575n819J1707j901j7597r75L0522L1537l461l6285m3170l8630l9510l8559k2037J0001M7585P7270
16923d9875Q3302O0679K8392J2436J4300J1164j3309n1971q4398r0953o4462k3666m254j5965k0945J7847P7301R7961
16905a6416O4060K2265J5576L4802M6899L7437Q647l3662p0315p2394l7747j869J0321K0503N6120R3563Q0746J1151
16887B69687o1109q6250o9331m5048k8819j4613n996k0638n9451r1288q3912m3989j0511o523j2456L179L8641O0746
16869b67681M7419J2328j4321j7277o927q390l8937q4777j03077o2944J5461P9199J00310R5554Q6906P0239L7522
16852e9393N540k469R076J6382J1802Q264J0884P888n441j4006n169R817R888p459k5142l0685k7224j8628o1K5595
16832h0541L5491J1438k8285m5865l4771k6362l5988l3494R349O8941J00799J00495R3881Q0765L7982k2673n3346
16815A77816m2082l7340p4554j19553j19076p4646k6898R483N0892R6223J16152R4563N0603J3411m881q646q544
16798I2923j3932k3906k7859k2906k1141k8373k9629j3006N746M631q775p603J3530L1573K6967K601k6299m2499
16780h7957l1733J771K8340K2988O14M9L4092P5808R3311P7367L6895q234k7674N8N8168R8631Q8274L8206j4076
16761D84898l9864l7208k7847l6251o0852p1479m8044j0820O683J985n154j3119l4644n8617n6499l0694j6394k5230
16743g9150k6430l56K6818K5435P485J856R447J1332L105n873j3459k1256k2114j1828k141l727q017l170M593K897
16723a04553o104j2680j3454m536K0240M6799L9306j3002o5965o7269k0278K6833M2637L2569R786j7238l1409j6865
16705a55183J4122L2122L0284K6723K8676K5594J9757K8896M9214M9114J5407k2673l3906k5454k3293l3398m3753
16688a7751m7646m2215j7569K7831O8523P2569L9864J919j6111j6905j4196j1838o406P63L531k61n047k022J3008
16669C0041L3318M2077K4350j5665m9168m2906N735N5960N9036J1358m0045n2267l1729j1473j856Q902J6434R97
16651D3099k8942l2957K494L4216J9886j9584l1309q845J865k7180o9773q8365p7605m8396p02O0029J00736Q9120
16633h2213L8819j218l022J7020L2129L7951M2223M2264K9556P369j0374j3995l262J7095L8132M7024L5809R526
16615B80833j7972l3384k8723o655J4440J3585n355j2534Q080L1554K4029j0087l8665n1295o5465q2983p7164l6617
16597i4378J0347L4923M4512N6711O1561M0544O075j1612q067l788o722q791j6532m7264q7849r4179m9317O847K7732
16578a39247J6854R907J8685K4112J7596J5986K7682K9745k317n3537p9004n6671j5524q89k0221l8888k8534n36
16560b74801J7474K0810K5428L6717M1953L0972N668k8973o3495p5404m6529O063M0110L8125K5615K9560M2614M3683
16542h4410L0313R366k2110n8368o5230j5917N8466R0667N5293l829l1524j8514J0106L5029N0714N3409M5527M1087
16524A80075M5686L9666L019m8243p4378o1311l5492k4389k4311j9161j1672j6072k9722l3034j6283J0199L3198
16507h2225M8298N1421L5537N056j8425j6808M370K5407L4940L2678J7211j3073m7846o8511o8193n7502m6464l1224
16489a95353m791K7759N3436O5702O7112O0940M8106L1516J6295L832r883k7489m4674n4009n2517m1851k1966Q398
16471f9437M0652N3164L1476q032k8111j1010K1341L5470K4233N488o199r059j531J8071L7381L5652J1162j2542
16453A68169j6792j0652j3310k5744l3782l2169l0803l7865m7757m8111l2847o105K3566M9920O8411P0608M7589N045
16435I7371l2929m7568m8294n6865p2067p0164m2001p057J6910L5025N2239N1499J7718k9833n3164l8548n311K3090
16417b09949L8489M2145L8201L3555L0815K2547L920j3752j5680m380P145J6025K5099K5402Q049q892M974M4006
16399H7719O1143K7140k5713l9815r38M7702N4797R891n4115r4430r2117n9726k1049J2164M0535O1484O5587M8048
16381A28307J3587k8903o4983p1725l5145K6149P1965Q0814O4441M1085J6344l478n909M181n65l0803n6759m8858
16363I9745k4665k4427m9778o0381l1222J6876M9259N4528M0898J6715j2984m2395o5354p3059n3904r450L2892M3337
16345i3369K7100J7245K7234L4527J9537m137j3809j1351j3446k3195l1179l4248l4504k7117o739J8704L5071L8106
16327g5570L0430J0688j9482m4870m9805l7448k0952j759K5154M9250M9675K4303m789j8224j6479r224m940j3499
16309a27541l9446o5646o1381j7433L9729P7535Q8877Q5996P7078O2248M3940K7523J4092M74j5609l2739m3257l4863
16291G9577o240J8695R070l4126p3561p8459n5921k9623o750J6402L2462L0402J6512N829k489j9764l9970l9256p726
16272a84936L4132N6355M7639K1534K677N253J8473J8917K787p608q81m51k7840n8980n1259o489L1207M0293M3496
16253a5681N5703N3658K0959j2863j1153J5760K8588J5161m293j7019k8446l5400k1411J3129L9957L3998K184k7058
16235A05773l3866k0408j096J3645K2860K6098J6473o521k2133p352K5094L3767Q292m685L6980J02654J18147N6515
16217D70237l4040r1816r7901o7941k4021J0098J4300o650k4705k6570l1671n5081p1717m3637K4303Q0335P9874
16200A03397K8112l3872p2264q2875p8318o5017m0199r073Q795K015j1449l100K7014M8532M1334J8655K767j873J893
16181a15526K1513O0181R5639R6777O0006J2668j8483k7880k2637j0623m20N48n242n735O709K4716L0455R907l2841
16162A79732p1901p7551m6048n966J3039R912P31j0578l0209m9268m5806j6204J6716L4039L9275L8413K4959J856
16144E141l103K9111P1049P4812L4097q747k2504k3998m0267o0999n6686k9636j3492k1439k5145K894M8627P5575
16126C5290O9547M4811J5571j5800m4074n7352n4127m7294m3383l2359p234K0040L4731L9865M5839M8480L5167Q577
16108I6295j3593k1872k1293j4333L161K4201K8260P419k0144l4803l9637m5210m3257j6932K7296N8853N6947L0638
16090F1996K828j2581j5502j4859k2590m0834n2220l5984K240L1109L1078J7532J7295L4639N2095N3830L5277n28
16072A44821m0683o3310n6495l3391j6664j3333j6640k2565k6229j1469K9800P0122O7623K1527j9634j7257J2554
16055H777K8412J6731m629j9870k8764l3721l3384k6892j1657J7155N2044O7452M6476P786j2401k532J7429K8054
16037A16466K9416K6953J8278O83k2185m6202o7633p6344o2686l5117j6366j6193k0604j2924Q198L6180O4644Q0008
16019D572O5299K6535q54P599K9570K3608j2752l8135k3765R346K1280L888j5251r942J9169N1489O4126M3475n826
16000B63431n7688p9716n9790j5890K1572L2797J6084j5089l6893k9505J302K4505J8152l561j1924m610l492j4831
15982D4854j9811j1995j5128m3839o8929m9878Q463N9470P2334O0050M6145K8639p142n3014p4646m8095P755M4150
15964b0617L2379m959k3095j1839m614k7074o0156o9769n3437l4857k5629j7478m437J1954L4349O2276P7401O1617
15946g7985K8339J0621J8369L2539M0620M7778M9389K6285j9396n2045m4614j2550J0307J2493O670N467R986J2623
15928A04896L780j3772j6628J4341N9087P2284L8015j4124n3025p6431q7443p5349m0050o280R020J7898K9685K8508
15910e588R077M084M0202R0069J05304P8861L7975n955n7459r9701j03662p3603m4041l0739j9886n087K141R24L756
15891g3328O713p520l1788l6604j8421q139j8618k1407L913L1276K6483rp161K3104O8592R3818P8851L1464j6453
15872A24766l4203k3159j1823j6366k4417k4188k4688l2026k9605n047K0575J7017j0741k7451j3956J3137K8884
15855g3291K8491K3026J9643J4398J177j6826k6989k1650j0241q617j5702j2334J1353L7825M0399J4059j9446l4255
15837d8980k3481k176J0358J1401J3939K1487J4478k3921p5118r8287p6298k9335J8073N9949R1621R5226O2174J6291
15819C7401n529P374L0648L2254J751m2679p0484o5435l8410j0448J1931L4059N1619N0157K6939l555k7287l7778
15801a7472k7891K556L0021K5421l823j6890M690L1095K7751j959l4534o0230p6516p1197l9419j847J8633K5446
15783a86165L2223L3611J7116p366j5146J550K7716M4249L9406J4851o111N202M1643N7088K5269k2853m5915m7973
15765H395n2725n0885k2095R369k363m9733p3836m6721k672K1181K7110K6014J2063r894j3155R161K6598K0697J7022
15746a46469L8634N9955M3410j260l2023l4105k9267l3774l9310l4138j8060M253K6540L9275L9250L6372L8386L6726
15728e605K0877k694k0074k7389k3757p83M0143P1549O5620L1306M277M033K0765L7864M3735K6181j6778n9054o6636
15709A43580m1968k3882l4542n0274l8701m553J9889J7190m00j2111r393K953J6155K6037L3479L4334J4228l2712
15691E9309p9944q3364l1529L3041N6838L0106j3382l8939l5215n649L8340P2288O9370K8960j6270l2637j9470m314
15673B7539r911l2972n2562n3193l9408k8730k9275k7352m469L4669O2229N9127L5635J2908m786k5979m7195n0091
15655a73816k6209Q753L2013L7062L3356K8378J8180l684l1959m7414l1833J1953N6343P0357M6942P501k0916l0757
15637a5750l5368m6688n4675l5169J7223P0805Q5206N8343K8623K4966L4305L1886K2033K2694K4462Q40m2135o3156
15619A28445m3154j5123j9774n5212q8780r8280q1906m6354q673M209j6058l8568k4224K6035P3846R0538Q1850O7642
15601f3541N7511M9920M0465K7053J5663J8919L8657N4821M5286J3238j9088l9516n2252n7885m7069j8501J2290
15584G5971K8798K8971K1355J4025R743O174J29o005o916n704j1454j9741j2195J1779K1311o806n0271o8392n5709
15565b4937l9232k9981j1656K0947M4222L5372k304m7720p5553o4208j7105K5258K4804k174o343K0428L4450J3667
15547a02065n448J1451M1195M3607K5367K2529L8929M2723J7000j9611m2588m8176m9626o0275p7261p7303m2367O718
15529b75201K7253J4226R430L2905M4858R334m0751m8875j7944N654J2442L3221O7395P2448L7197P827J6775L2898
15511D1092J2886l4176o6134o4498m1084r047K2471L8935L2996J8572J2327J0550K167o859k927R835J4669Q021J077
15492H73j955q582j9857k3814j2455N022J1783J855j3582j6721j127J9442K3748O825j3580j7086j562J9763L5371
15473e639M2777M2659L3429J3023j6246m5056o0768n7292m1139k4343j2776n402j639j958l547l861o091j0858n301
15454a70028K4520O7978R1822P5189L2373n271k0139j5438l375L655j932j6120k4632j7614J4J5917K1828J4237q129
15435F4855m0413p0391q7263q8942p8800o0624l8337j3692J6124M9169O7798N2765J3078j5184j0139J0759J9503
15418b09734J6167K0187L4049L8864K3881K52j6630k2349j9182j2084j1480k4165l6978k6256Q026L3925K6804L570
15400a73133j159J4931J9377n222l2320k5993J1773M7586O1488O1990N6734L5151o069m0792l9696r867J4581J8669
15382H029K0014L2746M1497K4732j1708m0686m5711l3500j9632j3914j7756k5321k6367j4642N369K2367K6836J5057
15364e2590q638k9761l1401j1342J3691K6411K5494J8307P841j475N596L9586Q2317R7059O9002K1428j6055m1183
15346B14287o7065q7345p6447k9190J8774K5588r437m8765o3887o1050n6239m6203k1072Q602K0866J4566J0988K2691
15328b30338M0707N5053O5972O8592M9933J3933j1698j0558j054n797j5820j0637J302n093k4895k4145Q047M0433
15310C937M4502L1090K5563K9456K8606K2813K2102K1645N675k3501m2539l9120k9491l3510m4664l9465j2041J5556
15292a3386K0517N552r059j1591o314P86R182J5042J0367j558l489J1310K4159J6426q78n112k735k2164o1619p6203
15272a00767l6604K2375L9131J20m8951o2220l7362J569L6955N9854O0825M0464K0305K1957L5950L0055n680l8074
15254C9902k7343K4068P3311Q4484N9713K2716j0289l3447m0369k9490j4896j2746j6751o312J6667K0575j2596n3742
15236H3455n7316j7669K5691L6538J5895j2985l2734l7752k9478j7170j2172j2684n477R767J3732j990j4623j601
15218f8573K0606J6659j4176l5655k7919j0388l57J7527N6660R0526Q3378M4463J6210J3390R326j3897l5937l2372
15200A29471j1202L841P433J0029J3517Q917p070k7517m3668m8193l5929j0760J3078K3548J9554N129j3337k1527
15182A5314p883J1911M351l2186n2362k3958K0774L0426J2807J9502N7081O9769K5884k9807m1006j6561k233o474
15164E5349l246O948p695n0227p6883n7029j7224k187j5217k3204p006J9429L6077L9843L6687K7992J4114K194L54
15145b0931O455R858M368o132j6416k8153m3661n4577m5409j1421L2223O3109P1121O3762N5567N4546N6167M8672
15127B39148K6276l365k7758m1687m3426k5585J2526M4044L1013k6366p9340q8335p0712o4772o5060l2924L4444
15110a81879Q9835J00095Q3686O6032L7048j4832n7116m5999P230M3993L2227k772k5234l2550l9678m8292n0907
15093c9113m8197m4105l4627j5691N672J9271K3630K1273J0702p031k1014j9726l143K0653M4580O2647O9015O3323
15075A08119M9401K5028j4499n6667p2673n1310j7178J007N782J4539K2471J1221j1711j5474P213K5547J5420n750
15057D0486o582J3389K6015J2073k0734n2358o8446o5075m7074k4980r480n975j0938j0643J0080M8046P5939P0304
15039b5953M2100K2452K0447J6753l6j6833k2302k1824j4570J4242N8121P5212L8803j9273m7353l9010k5537j8955
15021C6484m455J5544J4330j3725l7157l0270m217J6513K3909K2390J8424K3172M1432N0621J9823l8501o7759l7494
15003D9064J4356L2965J3811r509k0570k8270l5181l3743k7410k3839j2032K2569O2722P1839M4781J5501P114M301
14985A48469j2297l2177l6037l1133m0634o4603p3140m1756J7519O5382P2547M5518J4799O2n899j6956l0356l4559
14967e5251k9391k0710j967L5940P5480P7142K4259n1540r9942r7289n7259j0116J9220K2637R616n673j9276l2951
14949b17071l8624k4401J791J4772P366M150K6285N9093P2090N8617L6430J8603M939k897L98J0053J4285J3494J9335
14930G8708L0429K6314m273m0772m9471k1235J8536L7399K6911M443j1196j8822k7125l5155l1464j2372J0937K7250
14912I042L5412L4472J8547p377k1078j0307L598r851m7100p3151o5528l3556O222M7520P9497Q1771N2451K1587
14894A22171J4952J8034K21l4017m7026k3164N510K234k5317l9296k5417q711j2836k5666k1388m529p408m0056o5336
14875b17045m1757K0068O5781O1913L1696J9048L3773M7408L4826L236k1334k5302j9649k4273m4237o3458o2592
14858b01898m0442j3708K037M845K431N471K3818N6177Q1061P3815M0299J7357K6420M1591K4081k1837n2915m5181
14840B3422k0918r977r584r52J1564M064k6721n0143l7968p56K5157K2162R352J3465L4278M9711M8229L9569L2121
14821A56075J7473j2556m7506p0628p8615p3594m7347L238N2056O4197M2381K3695K2550R595l4179p3922o4053j5353
14803a26493J8676J4764J323M998J2868K052k1835l6212l3416k2509j1870n884q456j4490o918K2983N8768P4277
14785g7374N8449J5452m5187j01428j17125p6207j4036J4116q35j3607J1304N4711P5559O3945M1032K4357J6785
14768g0089J8131K3855J8817m452k4638j2062K8491N6843M4161K518l7024n7022n6669m0793j9159m551N58O349J6938
14749a09798K2382J9686K5863N1996P6042O4383J7018l0090m8430m3322l3984k7334k0883j6172j6150j6926j2189
14732i7908k187O779P089p127l2000m6695k8972J2904L7586J5793k9550m5403q940M8931Q0478O7749L0393Q96j428
14713H388J8289L6779L4009J1932j0788k0615j7324k301K5858N8030P1241N1162J0445k5359m2709m1567k3412N198
14695A47256K3918J3981j7451m5588o0789p3254q2934p0167k9168J0859J8249o52j3095k268K1408M2478N1575L9147
14677b6495K909l6579m9985l4422j6003j2378j2669k885R230R264N87l126m58j331q679j4814j4312r790l882Q041
14657b17777L3932P1497R7671Q1903K3180l3760m0634l000K8224K3556L656n256q432j6595j8363p969r732l7994
14639c5893n8161l1824J6422K5688j5278n6650o0691l9050j3356J3391L5040L6815K6860L1697M5487K9002k0264
14622g0765m5155q360M7597N9455K7500j978q863o446J947K3368M2370L3010J03k8520m4667n8349o2005l7457L447
14603a33768K4805J5101n041k1414l5095l5507r131K1038J1765l3068n6815k9144J3415K9235L0260M5420O1617M4039
14585f2288m397m2724m2294r782L0302N2405M0574N907j6062n389J6252J7919J766r280r506r234r736q442j7056
14566h1065m2778o1352m3731l993J6161Q914O946K4824L6020K2000M059L799P026k913m740K9928Q2105J01418P2022
14547A74650K7732Oj5270k9763l3147j3104J4531K0903K842j4579j3600m007l834j5073k7198l3799l3864k3092J474
14528a8192K7646L1848L303m1395p2465p1500m0620L974M1305N5282M4993K5330J3062J3657K2305K9877K3269q525
14510H3154n5491q1141n4338J1768O7006P4341M1579J648k2686k7580j7898l134M808L466M735J7132K9659K6979
14492A04007J5197J5067K9977L8674K4275n150l1345m6281m9686m1392k8293k5763l6889m0613j7018K3880N5775
14475a5578O9768P3475O4662L4130n421k3880j5155p162j9710l9046m7390m8463m4532j9218K7275N3384K6004k3391
14457C9752l5859p698J0028q940l6754m8010n5043o8241o7490m1656j8080j8973k0306P935M6437N4278L4744K7855
14439b06021M4066N0488K6991m375j7569j6573j5156j0324L253J1890q42k5486l4194j5736J0101J5514m675k8073
14421b16721k8802m626K2069K9529J6760l054j8679k2441o039L0292O7295P8566N4312P371l9281o2864m8440l544
14403a48297L7943M4025J9147j709O445L6086O3440P1604N5772K0751k0712n6240q2475r7716r0811n3586l905K2493
14385a77745J0119j8818k9714p864L4735O9895O9281K8343j9562k9724N355M7756O0435M4848K5264J5637J6007K4996
14367A69244L7998M3755L8511L4513M0553M4461L0977P590n294l352J32l812j4717l4586o3728q5847p9816n0521
14349A06061k6474j8587k934L9808Q5051Q8140M2392q811k2032Q39K4849K5625P508j3849k9657l6987l4096k4696
14331B02150j8834k1716k7213k8965l1129l9374m7634m6063l8483l7968m4950m3349k2310R228L4194M5183M7184
14314a10049N0239O1436P5984P5712M7212K883k8389l4588l1672l7757n1205o1016o3233n6429l5137q18L1528N0025
14296a15274N8220N8586L8661o269m7173m4077M443N5360O9145M7140J6883k533j0080r835l066P112J1719J917j9346
14277A11533l4242k5841J42J7126P327j7381l1478k4781n683J5696L2536L4508J3934j8722l8590k9634K454L7344
14259D6248N0121K1578m1590r6852r8110m6246Q840K5348J2977R561L1438O2802Q1383P5443M3175l931l8626l8288
14241A05271j1947O962j549k5857m4699n1187m7479l2408j0317r44j9581n0147n9301m1059k6200l6171m7885k5707
14223d20205K3788N6866N1235L1319K6185K9306K0231O248J2778L8317M8934K4562j1604k2601k192K3507K9738J5183
14205a8405m754j3891n099J4684K6503J4810j3862l2778k2773K689Q370k1773n9937o0577j1782M9804Q0217P3614
14187E060N5827M2067K1240j5799n2314o3245m6002j9186M028K5358M3778M5006J9118j9126m0385l2014j1139l291
14169d1019j4136k7703k8969j9790j0637l652Q978L0784N1254N3881L3013J159k0694k0115k286J5908J9992P796
14151C3764j1782k8227l8125m5034n0863n0230l8052k1219j3213j3078q21L4739P1303P4166M1863J1807J2840K8920
14133a242K3965q537l8647l9166j5198P740J2912M389k626J472J0870J0335o364k6390l2249k4155j8547k2349j9281
14114a83068R127N2984P5228M8402j3319o4197o9802l6670J372K0072K2079K2548K9053L7780L9661K5352p217m3420
14096c4035n7716l8390k497K2781L0372L5041M6416N2556L6038m89l2942m0455k7276j6869k4699m1349m6000l2064
14078a71577j1555M201J7476L4677N3088O2704N6035L3655O391p733J03J3404M377k9231n5553m7567j7727M35n184
14059e9581j6988j4746M992L1406M6166L2749m802l5890l2935n136J3741J0028M017J6871M2354N8932N5640L6754
14041A83572J1430j1167k1996j6731j172J0205L676k0518m2893m1107j6839L471K524n426J437J8831K5358J6112N702
14022A04469K300J15m322q853j6501k8427k8604j66M2134O1465M5054J6775p9o029o004K549R609r160n3822q4036
14002C8467o5147j4064K1694J7527j2742l9834l9209k991M7143O9381M3713l330l1491l3898l3408m1730m3567k0011
13984a43497K6860P2062Q4363N3379O712j2683N710L0745L6379L4392M3769N2332L5934j049l2844m7773n0178l9548
13966A55065j6789j063r878l0017l7521l7016m7801o0458m8415j9744j1852k8387k7223J2935N6079O1494L5998O950
13948d7643k2619n7736p7074n6002j1936J0595k710k3809k6854j6315n651P159K9898N5478O3645M1345j885l7860
13930a79974m1822j4148K2507M8581O2076O5965N6065L2932J3876J5808K9965K9384J767l7148o3341o6277m9058
13913g2842j8254J8654M9252N6764L0840j7891n7397n9267k8212K177P955j047k510N662P833k616j6495k6157l2971
13894a56522l5919k7814q063J2313K4623L2731M3523N4358N6199M4210K0006j2239m6724p6150r5300j02151r2969
13877c65888o1415r063M5726P7732P6887N6536L7383K6602J6571J561j1471j1890p45Q551M831r891k4853l1705k8845
13858b03386j8542n147M158K845n899o135J6812N5151P7685N9675J2839k4673l0501j8374j0304l204K0277N5943
13840b0780P5558O3549L7695K4354K6087K4975R596j2290k4358j8148k184K122j9451n4260p2182n9773l4032j5280
13822f8802j641J5164K3760P852j8089j5378L0770R1188J28157J29855R9684L6891m8074j15409j25100q3747l7484
13805D9597j6102q577Q99K519j4576l0793j8527J4169L1618K0294K181n325j3385l1917m1710j9607K3312N2731N3125
13786D9926L8086K3636J2326K854l571q296j1854p451O118J0720q081k7247q072M1524O2719K4108k8058k9761J4045
13767A53671M1485J9900k2559n0396o2563o8195n7922k3619J7514M3471N5836O4863O1290L1159q641k0579L254K6513
13749B04482J5842j5830k8862q683J9123K2423l440l7593n8172n8210m3726k5744j4540j3938j6503q404J5104M0710
13731a5961M9611L8020J7980j601k2804m2978m5269j9727J2756J6095j8395n8689o6385l3770J8014O4556R1136Q9286
13713G1875N6807M424m5162o9887o2359l5163j1900o013o805N604L0189M2670K9017O814J744J6059L5043N1681O4628
13694A79266O1996L3070o844k8802k8429k7888l8438m7710m8352m9590n0766l4586k432J4724L079n700J7400M7712
13676a2290M0619r95l2579l1363j3959N505L3067O5502Q1101P2059N5699M1948J8383j9465n0767n9099n5682n5569
13658H2115n1854l2477n040J4282K3144K7740K7137J7443J226j7766l6909m4673k7652J615O746k5424o0875o1813
13640a63035l4194r030L974J5811K6532K5964J7920J5599J9487K5144M1890P2620Q5252M3678l2652p8926o2442j6602
13622c010J1050J0859j061j2691j4224M571L1913L2114r885o0664p7869o0688l7569k0052K977L4661O1526P2572
13604c5470O5404L7885m098l4269k6436R955L5479K6459j835k0194j5343Q896M0208N7899M1600n527n0708o0164
13586F9741l0359J3281M0463L4865J610l3192l8766q375L0589M3514K3057q707k6325k0542J557K2370K1214r612
13568A26383n0939o8473m5769j813K8164K6234L927j4625j6738q637j391P014K8841O2805Q2745O3601J5814k2707
13550B14436l2102l0737m1331n5483n0399k8472j5134j9481k1805o630J2899J5888L804n125k636K698O00j0455k4791
13531i4256l1437j8201J4428M4042M2966Q364l1234m3319k1336J4408M0099M7905M4214L5075J9432k037j7480j1391
13513D0242J7637N1925O8363N3840J1896l5620n6567l5381L106J3572j6436m8932m4862j4510K566m396q519O577
13495D501J9822N562k7474m6845l5632p208J4312J8491J5171K1551M1214N6563M8390K1809J916J872P587m55k2148
13476A38999m2550n0948m4559k2075J2083L9961M0110R544l0307n1786m3296j6147O095P107p290j3455O212M2152
13458b0150O3278M5956k539m9610o6423n1526k5942q232q0M009L850j683n114K352J7796L2547M7287O6426P9385
13439A31587O6676K9235n898j8148j6920k2892l9797n6928o7314o9092n8675l7677j8758r185M457L7816P9460R8700
13421B6647Q2760M8743J6748j1216l8831n7522n3254k5010J2035L8948M4837L1599J2219J734N104J3250J1699n611
13403A54879k8108l4574j4587J3745J8561n364k3666n067L3391M6553K3471K464J6503M7811N3229J8640k9755n8641
13385B29485n5728l1742j0037j0513l0876m7113m2766l0695l2350m3997m3986k9486k0928k5587k2507K847L0456
13368b15523L2975J6587R878J8886K0809N897q13K5688P0948R5379Q0774M6379K2317K2295M0993O0899N7595J5752
13350D27715m7991q9324p8424l3461N49K821p665o820K682K453j2733l1119m2097m3289l0483M753O0191J12519
13332A90277J30361R9651L5428l1034p6874j00159j08595j00989o9686k3193Q394M878j4535j2391J6550L7215K4385
13315I683R0K267K9093L9284P572m1416o2563l9657L821L3997L6455K1342R117J3271L1956N1701N7427M1536R814
13296B54790j9222k8083j9450j4874k6888m0887l7141k2578k1322l6526m4720l2494j5550j0019n243J7706N4474
13279d8027Q1809Q3960O0342J8135k6106m7834l7602j7138j4621k9817m1553m1983m0414l7861k4412l230Q882J0441
13261a47029J9907M2060N3372L5047K231j5633j0372K176M193r515k7991k8185L004M3681N3258K4762j414O820K6921
13242G7293J7441j8533m0056l0143j4449j5498k1705j3954K730J0241L066j1948k8622m0173l4726p543K5455L8247
13224a02877K0946r142k3747j0864J3158K1256P563n225K214J6137Q700j8038l0178r532J8559J8829p930k9173k1353
13205a40697J0164M5987P0267P4464N9253L6449J9026O575j0780l2930m5302l8870k5189k2782l3255l9437k6053L998
13187h9112L3562M5817L5647J3675Q75J1937L8800N5723M6550K2448N494m9p846k2449k8274j2605J2935K5056J5604
13168B03788n012k4819l8061l9555k5657l297J2231J2203J419j0181j6340j5418j0061o333o773n547K302R861O776
13149D1526m294j3089k2001m2922p0422p8075n2747j6361J019k625p682m078L483J3691K8760L7138J9635k0054m9565
13130b38663m2725o425L5751P0787R3975R5356P0587L8772K6125L0441K3231p270l6501l8612k1786j0152n402Q227
13112H5716K7389K6679l468m0970o3918p5783q4507p7511m0266J2686M9541N9070N5319M8238L2952R660q772j6088
13094d033k0578k5939k2086n251R801J1680J3302L4749P3031J03346J05202P5368K1742m0817r1165j12755j06313
13077A9284q4967n9527l5756j9609j2083k145K0209M3865M5542K3638P939K4415N9489P3237M7061P063m721K3568
13059A76502O3211P9401O7146M6792L1329J3040j5762m5025o0567o4088o5959o6057n7381m3711l5931l2130k0094
13042b9284j940L285j0846k3815j5572N430J5040L760j9128m2164n7039n4518l2563n814Q455J1676J5771J7224Q96
13023b11146k7586l7654j4421J6763K5323K0025L3274O6774Q1771N2016M120j3014J1083L6987K4900j8856n2068
13006a709m5961j4235Q186P343K232J4652L7635M4017K3103m123j1359O28O835j0506m1907o1757n3038k0658J3733
12987a06889K9087K2853J3961K2885M5759N3984K5870k4295n6129m2670M727N0163O4448M1730l751m7749o8611o2387
12969c7014m6455l9554l8764k6724j269J8476K1626K3014L6009M2975J7126l1240n6544l1609K0137N4104N0218K1818
12951c670n055j1511J187R068j0364m3645m9898j5883K0047K0052J307P053L7342M8341K0158j4020j8482k055N041
12932d987k394m689R070K7741L2838J3936k4348o1416p4036n8702l3454j3664J195J1809Q724r824k6232k5645j5665
12913b49743o905J1295N2080R6789J05623O3601k208n0877n8438k6229K0918M6465L3114K923j1384j1791k6772n8634
12895g0173p2282m8108j4423n144j0514R71K8794M2546L1640J9173K2389K9506K7700K8259M3403N5192L3739j7385
12877A25283n7477n6324k8153p381l807N83J4994K1639L266k6003l4202j1795J7769K9519K4418J8827J9237J9301
12859F9694J5206J0852R015P724N613J857r082l2141n8526o8410n2354k1795P230L1073N0600N7073M1279J1974j1676
12840F5206k5510m0810n7348n7127l4974j5054j8723l0812k1096Q849K5893J1506j6733l3578l2750j7391J3129N2681
12822b24642Q1789Q6710P2520M6221M711m3868o6382l9824R453L0617J0973j2898r597P762O948j9158m8141n5748
12804a62554l6482m600J7564J9572J5981L0882O5253R0056P7225K8173l2020p6754q9577o8813l1221q96J4239K4842
12786a19130L3656K4837n998k9299j4196K4827M0863J4504k3892l8100k9096k0821k0690j4636M678K3970K7615J7124
12768a03784L835j1592l9476p6177q9988m9334L1886R4249R2149M3861O282O499K0484K0012J3668K5901N3938O8138
12750A10551M9899J0812k4609l9653k8791K678L5478M5017K3502j0585l0459k5428n606J0801J0790o016k6623l5256
12732F6502k9529k1591j9087j2944O881L0621L8024K7180J9167K9541M7896N3677M2383K5076P607j6508n0545q0809
12714A63542q5063n5303j0292J8206J6004J807M913K7353L8912J5382k8721n6734n2539l3251k1933k2819k7188l0378
12696a38102l2829k9997j2016K3316O0446P3756N0473P425k0876j6461M011J1563j3j2091j0838l641k235l279M603
12677d6785K2034L6902L8171K5201N676j1253k2304l3398n1411p0055p0889m4013j638L5837O0940P7013Q1068O3953
12659I5049K9248j594j0444k01J5938L3995N5518O8764N1236j454o0592r0525q5485o8562n6268l9434m872L7470
12641c2213O1810N5494K9190P31j9872k8818k3051k774K4570M6561N1825L5787M419k8494n0853n7788m7492j9730
12623f98J5260L5409K7488N554l955O410K1320K7340K4507J2959j1642m1873n5942m4003k3817j6919j9995j4981Q54
12604e6724J2439J1604P343Q341Q601j914j9557k8983k2760j2299j4147k8076l7228l1120j7109l005J7095M5167
12586a62332O1694M9147K4100J7012K4599J7349m111l817K3671K8672k0482p9154q5143m6376j8712j5932k074L1043
12568a60846M2965J7068k929J9582N2992M3666l763l3562j4616K6555M7252L6012J3377K612P527J4389J2402P562
12550A28245Q853P316j2223l9915m6997k9820j9373l1956l8733q437M3084P5248P6328O2160L6121j0400o2258q5084
12532E2159p1027m6085k4514Q980N6982Q3663N7814j48m1128m3825k4100j41K2822L6227K5683o142l2621l0804o311
12513A7484J7120K4952K0984J5306J2624J2231J2601J2349Q578j756j6142k3601j2455J6010M3847M9604K5675j6264
12495B19147n2622o0658l3176J1263L7772K5835q560l0199k4857j2158j5073k9186l3021k0316o050j537K62Q908
12477b4226J9100J9545J0594N90j0566k9317m9145m8378j5926K9711N7080N2956K8173k616l2763n3637m9695j7767
12459a16287J6153J8657q350k3564K005M0994L8483j6205p0035o9916k7504n88j9503n5504o2622k8616K3506O6171
12441b92725Q5791Q2872O9472O1827O3460N9318L6606N259j5632k6723m5175p1120p7970m7594n71K5139J9590Q825
12423e9351J8112M1666N3844M0507J2094r928j4018p750q414k2669l6648l1692q837J1968J8581J9430K2656J7688
12405E7239o716l6976m8597m0775l3503l0611j3584K0020M1515L3328K1226L7095O7231P0100L7120J628j2604j8465
12387A44671l3195m8976n0839m1781l3835l0678l3244m6631o6547p3420n5908k7911o640J3380M5977Q3704J03367
12370a58506R5482O9306L3668o619l7287m0093j7363N476R550L885J0569L5836O1068O0233K6726j5685l4717k6165
12352G5364j7438k6394l3509j4318J4998J4972j7642m0856k5167R703K9906L2520L4610L8269L3285K3449K3977L5476
12334A91205M2053L5645K3492R474j2984m1486n3793l1451R983K8559P04m6258n6722p873N8634P8002L3985k5522
12316B35647m7954l2541j4980j3443j4513p334m020j7056l5197l6019j4127J4164K9685K5862R049r081j9783k1754
12298B6605j7818r197J286K559j5050l8390l4161J2699P1338R3316O6566K3650m618k2165m4048o0888n0258j5930
12280a4504Q880J722k3389l7181k7563k324K7427N3143O5376N8610L8957J8654M431k139K390J8936L5545L3425P509
12261B67905k5682m4514m2609l1203k4866k6086k2319j06L5581O1044N9210M0525K8947K9579K2200j0851o0453r8491
12243A57811j02825p1685k1162K5767N1192M8597K0722k2486o0669o8676l9393L082K7663L1370L4332M2615L9023
12226I5278J5869p075j0198j56O501P900P577j796k2283l1874r537K7538M0061J9379l432m733L071L71p494m823N111
12205A25255N989m449j1056k832J4778K8806L1747K5876J8685J2210k998l4787o8297p1585l2295K1409M8896L9239
12187A44591J3805n086j2145j0723n169l188j0306j9467k0103j8060k7972m1979k9784J6149N6779N0781R387j9135
12169F8375j3239K153M68j1017j1422J066J3051J7507J6454J2504R461J1076R600j0692m6713o8771n5473k2140K812
12150g4940J2928J3374m236m1929o3252k5484N4078J05940R3237N1312K9157L0545L4806L8076M1979L1225p55k5629
12132C00432j6709N400J822k3392l2499j7401j0172k8380n0603n4938m6168l3413j3822P692J3110K135j16J5096
12114A8074J8167j4677n7942o6855l6686k929J0909J6928L1912M6326L6180l251m5037n3778k1706K0719L5896J8780
12096d8970l597r291k408M508R516J3529J0711J83m562Q565L2672M9986N0052L3504Q616r071o991O319P551q315
12076A42507j9280j3022j1639l8100p3136p2535k3920L4057N0567J0866m9195p1129k9608L2201M3716m952m4986
12059a37588k1903K7369L1647p296k2639J0926M1935K5314j6356m0554m5705m8778l9107K540N9407R2715R0120O9264
12041G1311M2356P924k7186m6957m8658m3581l4497j2911J8869M1789M1634K4531P964N374J8577L5954M0856L0945
12023A74294K3508L0678L8201K5569p16j5820j4384j3707j7715p786J8764K9734J340l8529m0253J088L8036L2481n63
12004B64220k1921k0830k0291l9861p1934r3722q8546n4769p050K8140L1721J3832N972K3276M4997M3145J9466k753
11986E3092j6098l4644n9358o2171k0511M4483Q2323O4653J1900l1552m1298l0266k6830m0342n2278m1980j3029
11969b13906J4289K9911L8639M0214K4231q608l6388l8061j4922J7830M8202O6331O0572L0452n139k6874l5005l8408
11951d6640l4794k0249j0361k7847o7079r0292o6824o316N0157O4805L1824j7044l6878j0874L3571N8558N8031N1857
11933h6395M7035L0028k523l2328m6801n4125n9029m5945n225L9677N3647L2438N855M22J2442J8123J359k8442m2030
11914a61817j8187L0269O6013O7354M8222L1699J8653k955l0099m6362m5996l6447j9615P777L3546L3635P473r033
11896b5870J6061O6087Q8919N4103j5254o8464p5022m3929n784J5293J4967M410j406N478J9922K6372J1767k0100
11878F7550m8033n0369k4056J2775L6519L7328K5167J7339J8987J8023K964j7629k2746p603N317q153m2273o3480
11860d2373m3851J0462O1122O6169J4906n7391r4277o7818m087M5559N5210L9772K5546J9745J2803M90n146J2697
11842D9538N4034R3158R8055O4279K2653L915K878p939l4873n4454m9254k8556n002K4310N5182N7174P060o7950
11824B84208j11144j00698o6007l7447j1428K1051M1184K5600j2801l6590l2269k2006k6194l7186l7036k3628r091
11807a91482l007m760n475N254K6044L8105K6613P166J0291L4653M1377R914k5553k1435J2299K7790Q505j4605j7076
11788c5382j2519j6823j4450J4989N7917Q0295O8109L3733o395l7776m1314q945L3339M3016J0010k8957l4047o895
11770I7905J8409J8043j373k0946l3113m1331m4268l1990q48L6547O4281Q0432Q9999Q5709N4803P669k2058j8147
11752C39723m398j0080k8630l3065k0876j6057k8937m0717l3084j1651P351J6416J5396N738o895j6522k7545m7684
11734E8483o7137o2718l0120N541K2232K8199M3088O5212P4421O0701L4755J1884m252k0749m1743n5807m3209n247
11716G3534K2082N560l5506m5198l407M8295O7736O5232O8699O6836K9353l2318p0250o3975l9165j9480L46K2648
11698A61022K5943k309l8333m9957l4442j0148J2599L2473M2461L5768K0444J1107R287M203j0052k7379l5730k4472
11680A22485O629L9330M7235K2836j3827l9705n0250m8498k8789J1761N4769P1495N0138K498m9110q1340p7929m5763
11662f035j6250j4396l1773m3992m4207l8994k2003J8295O5884Q3624O0508K6603J0477O339l279j6103k0922k1035
11644g259k5004k7332j9693j0812j3224j8831j1190L295K578j2694j4702R739L5642L1692K06k8863l4042j9957n338
11625a65789m275j6085k7034k5281j6386j5649k1825j2369K3832O0113N5220L47o9661j10025j00404n0905Q882M5210
11607d42084M1234J2139p769K807L7967P9186J09396J10932O9937k381o3983p4776l4385K1072N5578N8300L9760
11590A2930J7851P631J3007K4431K9522K4777J2522p227l0996m2628k5656J1993L8834L2268K373k2648k8520k5673
11572D4791l0974m4794m9223k9623M994L0236L5422L2901L2625K3111p065m1853n4592m5265l5416k9280j0360J9305
11554a55060L0366J1541n658J0400M6903O8453O4147M6857K2605q545l1340k7317n530O229O3p751r475j4419k2157
11535B0312j6703L298J4312M87k4073l8059l8684l1152j0692K6166O2988P3980N1562J4985o609M29J7487M651n5447
11516F9238j23769j36170p6167L935M5266M3666L2893K9063J9318m527k9035l7513k6987m498K0239L6257L5380J8427
11498h4984m867k0415j6310M879J9837O549k2975l1240n157K4817K9095J7316J0351k81l1612o6099p0125m7710l3792
11479c22723l3993j5121L3745P2748O6110L2895J5840K3562L2899L1994K9732K8998J9230j750j9121k0512j1590o787
11461d3844j1709j7905j1729J1751M1206N7549N2258L4566J9427J3241J2755J1118J311k0460m9957p5948q7656p9897
11443a43923n4967k5961j2429k0697l1345k0810N627J8963O323j2439j2948O403L2157N2653N8002M1192J1516r014
11425a11697j4678k4257m5627n1595j3686N2674J01034J05280P7298M0715J1272P13J4428L8603M6871K6968r029
11408B45287m1446n8329n5034l3535o267R160L036k1401n0618o3373m2876K03K8450J9463l613n113J1013J2860j549
11389e3682K463L6847O3035M4490k242l5125m3811m9782o2444o5773m7265j6283J0301K5701L3720M1766N3479O1523
11371c082N2026K3610n737k0853k9151m3844n6033m3514n336L2350M7904M4611L4972K1466K522j5204k2962k2096
11353h351k0051j7530q444P334J7600P859k1253m7483m2988k938M4060O1191L9239J157k6679l6988l5006k4671j1012
11334a24954n824j6126k8762j8899K1797P1254R4887P6588L2481m416j5449j3822k6708n7452p4500m7939Q528M7170
11316h2146L8958L163k0298j4637O224K1949K4031J5989Q527J1838K1656J6841j5697n5545o4361k9805K0150N1128
11298d2035N5817M6590L0435N939k2670m2890m4686k7444k73K0042J9660L986m667O211K4253L2840L4225L7683L7190
11279A70206K2157K440k364K849q648m3347p1843o5895l2766j223J1894J0193O037J0717K5262L3063J4015k6655
11261E6092n7991n9899m4358l1449k4304k1590l2542n6985o8266m3928j825K2718K7114L7465N8200O1403L3266o69
11243a47548j1413l262K409K132J0762L6513O8749Q5278O7172J7003l4295n3337m2055l3467m4849n6091m4619j8952
11225a99870r23N354O998L485k867N071L3269N3360L7739P754R371M3614O1439L4319j0183l8334n6418q0183r0707
11206a77712n9050J428M5364N3332M6918M5312L8424J3421j6725k8154j6595J947J4300K1410K7844L0007J9705k632
11188E8544k3835l2000l2371m0375n7244o3575m3486m941L1929N5735O2779M8889J9499k692j807N671p493l5786
11170f2559m5465k3969L347J3067J2373J4988J5208O331L941K5956O1340Q0215O6585K3724m0482j10632j54470
11153a10502j42572p9276J634O8616J04351R6444M4957j8714m8196l0174L17L482j9760l6560k5624J162J7559J4156
11135a58700P780J9761M6854O1850M8199K3962J9873M1043O4678P0272N6113K9632r11k6220m3718o3705r0643j02531
11117C589p2520j2052L3265L7564K0586J0643O774o021k4129k9023j3801R818K5445K4509J1927L350O069L305k3514
11098A5784n6045n1100j727M3489M1490Q413j2297j1216j1560k3601l3918l1174j3475K1942O7768R3753P6661L9264
11080A62451K7377M7898O1266L8656m912m1404o2501o9053n5627k4011O671J9840J8603J2485K458r535j1354M476
11062A23784K6360L5836K7552J0373l284m862K864K316k1525n5539o5708l7581M293K5315J5213j3350m2874n6119
11044b6936m0841p093J2297l329l5230m9339l8946k4396j6073j542K6534N0186M7041K1690K405O676J9542J2188
11026d5166k1350n4406n7583l0900P88J7798K0050J5764J0206O961P750Q138L276j478L027J3228J6631J1908R100
11007f6258R374M159l723j934K342j6176n5702p1908l2436L3671O9132N6885K7281Q292P52m71P003J8952K1215R275
10987A9725n310j2976j5737j5945j1250m503m076j0152j3054p145N284K2537M0761M4966K3178q590j7194N498L1777
10968F7794L6750K5842J2505p240l7366n7303m2063o45K9157K4283k661k5930l3554k9045k0353j3194q319l234j240
10949h5816j3973m4163o9387n9429j3228L5519N5696M8940L5015K1743N294q056j442K7403N4988N4939K5784r792
10931F0035k8587k4918r705J957L403J89J084M795m66k2183n2391p3802p3133m7805p509K7298L8558K9861K2899
10912a50420K5694J6894k1989o9334q1679m6130Q754N3153P9421Q2513N2167K641k0586O773M7912M8252N645l4675
10894E006m6022m4327m6034m1016k1560o770j4682k9079j8487K0051N5883O0921L6468M300j7609k6954l0056k8630
10876a88597j8847n441n881k6573m1363j6418M0568Q0679P5266N3521N6875P5066O0342N16n6921o3550k6114J3435
10858F563L3535M3493M7838L0394j6725o7710q4096n6318j2585J1813M686k0806m1444l9026j2524J8035K8913K0775
10840a05189J9445L8646N3819L1748j8614m8109k6218K0940M3143K2755j6015m4611n6853n7315m2084m768M3096
10823a46184P1614N9906J9696j6744l1676l4565l6548k7682M714M4633N8072L7607J5407K3135N5632Q4127Q9261
10806B70405O8575K7610j7923m2678l4909j3391m034p543r931j5597m1009p6663q7560o1192k7513j7077k4242k9179
10788a43851l1154l4347k1423K4721Q1949J05546Q3674M7176K2958Q242l466m034O582Q260p426j7032j358J7742N396
10769A48155l4749o6935p3020o4896n0637k1446K2064N8815P2602O6936M8014J6838j2893j5141J4455M6181N4177
10752B08520M6356L8439K0670k1981p1282q9217o6373l0125m790J1087K3833K4899M359k9259n4095n5149l5398j1606
10734i1112p99o514j8100k4465k2786j1682J2608M5126O8699P2515O3885N1468L1999Q229P82J7246K5408r025o5255
10715A48227q4851m8628j222R950j1366l0754k9578j3228O040J7240J6389J5294K8833M6699L9766M594k3649j8170
10697G1586L634J0613J410n928q036j2344j2949R60J9567K0841J521k0384l0301k6781j2357O698J6409Q825l978n121
10677B3885L174N885k018j4419k6528l1481j5991J9164M4999L5850P244m273P742J8694J8165K0246K5434R743l3786
10658A11729p3489p8221n5303l0609j1201J0203K7555K2875o296l6055l5775L668N7209Q2253N8677J2402j3438r506
10640C6678m598j9303m0488m9963n2007n5169m8506j9224J9592M1945M1854L3546K4959J0912r409k5268k6064r856
10622a50369J7032L9439L8835J3152j2674j0272J8579M2680L4737m465n0334p2364n3799p989K7561K7613Q133N104
10604h9401K6994M6163L9147J5280l678j4815k9037m4348m2802j5318K3442N1009O0789O2207O0531M7901K0120o923
10586B07261j2053J004N050j2432k9214k1031r63l499l3022n2960l3411R696L5371K5048l901k3516j9543N665L8640
10567H2190N8731M7714N868m2821o8392o0726l4936j0412Q406K3594K4051o849n9039r0337o9953j7410K0111K2592
10549a67618R341J540l02K718K0726N2620P2647O1206L5648K8307M2051M9044K9196j0486n2387q3657r4778q3259
10531h7443o3046n3151n2225m0499j1106J7636K6727J5533r780m5966p9755q6534n9541k3521r60J8773N4576R4280
10513c86002J09440R9683Q9864Q5755O6791K8190k303k837J3779K4585K6293K3687R973j9884n1905p0218p9994r4153
10495a29256j07976j06130q5571n3070j0329L7491O8018O1551L0630O838J494K520N592J8273L1663K1653q898j8966
10477b34473J8299P2888R1553O1781J9205k112l562m699j1009r446R533L3661L6948Q588k9720m3611k3912M129J1811
10458E852k192j6068j1317J0532L1448L3921J9939J1815K4210L8580K3403j8564m5819l0953L844K0357J3849O386
10440A19223N247l333k2515l3297k0082R146L3206L7846K5440J4004K2163M4131M8480J8797j4505q587L0188M9897
10422C55449K1619k8196o4148q5349j00074q9663l6223K9990N3185K2268j6404k3447j2076j6060l9754o1519o7938
10405a58340o0022l6319L856M2202N0516K4582p091j5693j771J3064J2425l329k0952k2003K930L8733N4827M0299
10387d2086J9197J7202K4392J1356k4554n4069n7062m2780k3289N527M0961N6469L3443m382j6010K889J7722P024
10369b8050r517l935K0474L8067L7002K9648L0312L6268L4384J9796K344n778m716m224p007l882R452K0219J3773
10350B24630n304j9852k3520k3188k1820j7919k1925m9058q6510r1470m1675K7480N9743M3530J6963J1644J8793
10333E42J6861O510J843L827K356l222l570L929J3311K3291L6691M5239L1222q064m8917o3659m8284k1531l065M78
10313a4212o204j4197j7450j6358j1509M129L5154O4819O4982L4331O275K073j486l0114n8383m0983R933L0345k557
10294C8588l4121j5266K4441K8349K057k319K6450M3539J9904k1219m9309o3127o5747m4145m4L0238J8115j4982
10276g8598k6586j0398L893r96j0472n747J3577L8666O3144P7624O7039K5409l0265o8139o6901l5722q692j3003
10258f6167l9437n1259k6595J6260M2127L8083J9082L007m576l209Q397K5257L2902J9824p828k7192j6666K3183
10240a4807O4731P4819M6663P288j1842q152n480k0630m0880l8597n638L1039L2836q806n9680p9500o6125m9208
10222a51969m3118k9668L973L5221L5889J5811Q916K2984L3042K6335K3501M1815O1087M7995L656l3997l4811q790
10204E7872R975K717j7845k8675k5366k2247k6348k5733j1816O63o196k0374r680L2987P4407P8744M5027M26k7691
10185H0847k4997O281M3253N5327L5023M468j8909m4464p9115r7508p1229j5749K5525L9591N0683O7651O5045L1263
10167A52986j436j075J6986J6749m942k3644l0897l6563l5403j1112K2341K1616k7354p9855q2584l5069J7366L6846
10149h5044K0237j3406l9369l5879K329N4418Q7759Q4091M8254j346m1836n3738l4698m075J6160K2176K2298J8744
10131F7075Q816k892j0558k1140m3801o7906p2553n8638m8592m9408m0225p678K9022M5221M5146M9159N9733O1537
10113e7682M8242K9136J2362r54p743m032N448J1629J3269J2979O323r081j7951j182L3752N6171N0083K9668J1434
10094B21871q169l5719n9599o2518m4770k1322m688k067j8235m6701o7465o8705o1487n6598l8685J1839P7112J11307
10076a74599R5554N7488K9298J2991p52o674J98M602q439k7320l3446l3854m4195m8933j6431M4642Q2341O7277K8105
10057B7853M185m738j6410k2849n654K2538L0810J7914J0645J4173J110m0174p8510p8321m2180Q58K9662L7442K2785
10038f8861m856k2989j9097p737p714j1468K523L1889M7664L3435J0439J4647N5386J01776J08984O0028j5149o5717
10020B43183o8556m6054l4385m6080o9818r0307r2490o0349L922O3880P7198M4159Q497N117K5182L8911L3208J4419
10002D9637r572l1842l8994j9642J8110M9015N4674M0430K5805K0396J3124j1110m5473o1046l9407K458L1366L6778
9984H4707L5252L9163M1146L4532K9102L3974L9409L0860J1798k701r304j8113l2813m2522l5664j3729R933J9819
9966B54849Q406j7714m3385o0116p0500p3290n5019r885L9488N9919M6042K2612N577j7841n8251r2757q7531m4114
9948a93510Q82K3645L7631O1058Q1317P2157L5930N034N72R208P093r362k5831l0373k0807k358J0907K423k5422
9929D0194m4911l4256q819k406k0795l4419j8546J9548N7493Q0967Q1711N3232L966l8812n3629m5872l4485k8060
9911b7899k4399k1602j6254j131K1187L2526K2313O221L576N898r062l6786m4928j5502L3151P1244Q5064P4206M1899
9892A99722j53l1773m1968l8938l5433l3320k8448k0222r174N760K1087K8637K6653K1446J4211j446k4387m3082
9874I172n4277o7280q0308p2882l7587j5J4793J9330L9962O8981P3424M7563K1193J0842l486l9395p8763r2276p6123
9855b97132m5444r864K3628L8964K6815M631j25J7280L8948N0014M6536K5360j1766m6087n4449l5362o814J8962
9837b15905L9793M6835K8680n226k9703l7647m4496n2666l9892L140N0420P4975Q1707Q4061P2209L4723o412j8131
9819F6465m380K691n457o893N740J1686K670J012J9698L4083J6037k5260n8595o9408o1393l5145Q521N0666O3509
9800A6247L9580o11k7715k2765J2610N2468O2926L7026M923m435M21n548j9504j5277J2153L6457L8432K7871J8145
9781B63404L384k4155n2022o0106m5460k1869l079L557m074j9106k7645k4047j7579j6205j3371j548J0994J1995P473
9762b9459J4935L5505M9279M1898K1752M769n579j3471j4811l20K5424M0145K6649m698k4552j7006K777P877q370
9743A52744k7546l1784k4141j9773k5331l4337l7421k8835o132K6695N4871O0589L9899Q193j3800j6581m447J0844
9725H3707J3982q821n5943r9397r9291m1156M0848Q6742O3277n761o2939p0192l8364o840J278l81J4234M5211O2084
9706g7722M0374o540m1202m2906k3334l851P515J2403J0158j1j2919k1875k2636q662K4684O2315P1719L9891m260
9687C141k4252k1567k2151k7428j3280K0949L9735K1175j1826k8522k9901k8383j5428J8256M9541M6858J7946j666
9669f803k752q545k6979l5598k3106r266o949K957L6138P1620Q0668O7557N3208L6833P288k0236j8104M950P648
9650B10529k2232m4921k5352J4645K5632m776m1864n0740l0941n994L144q093k7113l3228j5262J7412M4446N1617
9632E6909L5207k49l7682n0930l0260k9Q312j277L349L0626M8088K9870m070j8463j3275j5132k9082l2047j4738J984
9612c2889L193N644K9726O4333Q0007O6188L6856P572j4001k0408q998N014Q7k1549l2596j7566M744P522q472k1624
9592A32783k3279k5458l5567m1905l1001o951J4958K5666K5738J8187P299J108O005J8360K6719K2844Q106r276k1062
9573A13274k5997l1513m3105n0163l2000J5579O9136J01961J09030R6515O1239L474m8917n9996l2463p188q991k0748
9555B09127k1890k1157k9955l1858r380J8842K1895N195L43J3400J9999J2255J3785L8511O5150O6428M0599K237
9537D13526l6602o3504o3902l6989q72K6692M0131L6983J7460l482q598q943l2746p3609q5060m7618o316r430l8735
9518A8386m1318j1028Q045p266k8827k3011Q751M3725O3495N7734K7466p121k3225k4171k9957l8181k3710J5481
9500a4732M3797L5464R874o95L787J621j2086k3230k4835k1426j2952L998K2043K9747L0239L3203K9869M61m6936
9481H7211p0212m4455k820k77m0827o8223l8207K3194N3566L2087l061j1976J942J3735J7016K1374K6302K2404J1595
9462C0368L954k514j7445l3036k5374J1154M6272M2081o538o5110r0825p0988l3433j5360k0587j8460J0662M7175
9444b08004O2528N7120M5091K0895k4696o6708o5292k3810J1105J3816O145R405J0767j454n362K1052N8545O9432
9426i425M6787J5997j79L172K0661L9633M5163L6043K4009Q786k4424p0094r2116o8845k3788J0216K9931M0037K5426
9407E6990j7893n2728m5948k1130j7972k0779J3205O6448P1710J6824k8670j4407K2619K4147n207k2205j5816p258
9389A930k922P716J8728J1862q697j6971k333J6436J6171o105l2110l5741m933L9113N4625K4181k2620m3579k9206
9370a4455n22K3659L7977M0739L5004L3543M3020M7505K5768j9006o3514r2481j03832r2548n4803r412R874o966
9352a60450l2192l3421o599L1524O7966R6791J07859Q9296M3048j0270m5162m9277l0843j1891j1390k8938m3168
9335b7117l0420J0303N1986O4989M8465K8189J9693P646k3515n0933l3090K9580Q2034P6085K2748l3431p0536r3870
9317G8806r9943p1698j3353L7410M5113J1475l2020n5734n1479l1913j7622j8980k6912k5090r654R719K5365L8081
9299b08429M8911N5073N4843M7895L1852Q740p298k865J2558J2238j4715m8395o2784n3799l4714j4605O429K5402
9281a43663L1473J5264j9226n1055n3372j7545L0566M8910K1912k1138l7597j5893J8506L4511K1766r868m1580n2565
9263b40594k9354J9068N8257N2394j817o7067r5082o5843M14O4074R4540Q4276M8219J4516O574K4071M3281M1620
9245E1547J9471n866k1039k3450j4099L157J7601K0805K0168K8826M0167L0582l848l1517k3329N677J5054n113k1943
9226A02851r154J4164R874k8431p0501q8360p9586n3069j5046K1689L5351K0718N352J8491M8259N3138J8507k1646
9208a7399k9859j1413J962j128n390k980p138k5164l8204k2475J7964N1303M8181O502m8194p9328o1352J669P4512
9189a47931J14579J05029O5360K7427L429j8258m8406p7830q7472p0738l9602j3293o130j8962l4023k6852M078K8671
9171b40924K3784J1095K9528P3791R5904P5376M9126N0857N7709L1862j3250l3144k3710k4692n3380p9573p5332
9154d4973n1360l0014j4730k904j217r090r157P450K5016K8108K3443K0746J2061r067k4121r007L1690O8571P8776
9135I0221O0214K5620l059p015N675J033l7218p8060q0568n0246k9466l5072l6116j207N6011R1904Q0153L4382p487
9116G9699j5624O844K6850J4794k4213n8576o6457n3010l3354j3185R245L2984N2957O2960N7465L7022J3931N028
9098A35360J4700K9266L0246J0388k2230n0794o1274n3276l9487l0444k2921r287O097R821k288j9698l0722l2739
9080a39282k7796j7656o658j169p69M106J9671L7098L9244J9013j2677l7601m5478l6535j4288J4665L3232K1117
9062a51763j8251m8413l6260N887L5064L3614K5243L0173L4238K0165L092O852K1215J4287j7845m2042l0610Q255
9044a07099M5525O1084N6758N1565O2411P9569O8676J1218o4262j06278q9137k6662M6773R0714P4672J0505m4139
9027B21893m7003k4104k6336m8290l9790O782L9233K6741J646l050n323k9373n4654n1431l2190k3250j3459K1005
9009h0953N9664N5244K420n1539o3263k9255K8025P7270Q6965N0635L770j0878Q300L0993M0963M3040L6353J7065k
8990C04817m84l853l5142o9469n6357k566K5500k537l8336l4081j2103j6744m0331m5476l1160k5564l0248k0608L983
8971a30759J3855n177l3492m7671m1389j7130J5555L4141K3471L380R030M1521O5249N8158L6134K0370R993J60p5
8952E5324J2718J9770M612k0052k9747k1523j0896m720J872N834n315l2236n6227n8284l6356j147L4860N9363O0782
8933b1368L7874Q529J00K3340N6061O0073K0159l7523p2565p2621n9656n6614o1336n6227l0357J3703O1907Q9806
8915i6715P6742L3076J336J1880M3894M9107J0490m2029p2745p5267o3448m9957m3443m7265m8005k1759L2715Q0948
8897b20445Q9876O6314M0414K3046L832j6261k0268n323J0120J6641K5866M1028M2267K0217J54N386J4742q060m9951
8878G9595n3567M228P3404R0729N4513J4496L022O030r19j6377k2643j4023k033N88q555k3119l4413l6319k7493
8859H7144j0564Q938K2193K0582N684p137l739J0124J3988j620k3882l5420l2953k1447r49K7357M7857M0503P464
8840A54123k2816k5163l992J5945J8911J0994P164J3897K6151L6315M1655M2135L3567Q881k9426o2280o8739m9470
8822A47852k7614k2422k8936k9089j6079J49P271J552j3555l1116m2411m1510k9677j2059P913K6202L4752K9253
8804c9524J8215J3867J4076M857j6585l3260k9019q475J0221J4641M497j1342j6410L563L9806N8847L8846K225p942
8785F1104J5624L3431J2131l2242n9468n8437n3178o0795o6460m6763l324L6658M7504K7922K438K447L7690Q2274
8767b1444R7175P2110L6673K3450L0436L1306J2982j4138l7757n3997n5227l0608J1763M2431M4045L1803K5566J7599
8749B64168r808m5688n7634l7095j1374m231p543l292O472Q597M511P115J6643J7756M072p024O510L9993N9018L6181
8729B87347j1269l4919j4573J1489m408n0883o8921l3228J2098J5320j4534k7495k816L0351L5230N119l8561o4940
8711C0407n2518r150K7157K4867m354k1833j1506O621J1399N732J563M13j390k846k502k074j186R11k867j9459l7434
8690f0049l3617l064L3511N6724O5156N9778L3898q642m4600n7437n8296o5096p3620o6668m1721j2058J2173K8479
8672b35149L4756L2482L0345L0980K2878P51j6950j1170N811O526p483n656K3173M9556M3476J5194j737L650Q904
8653C0337r462m5592o9193n6493j5312K1340K8587J4135N006J4872L4351M9877N6520M9109J7757l5268q3444r5852
8635h8725o9622l3558j7393k2999k8983j9096Q22J5537K2467L1613M5143M9697L4888R516r319j5723j4650r737k013
8616a22135O167J7028L9034O9145Q3240O3735K9683J5343K1654J6913j0348k9289j1602K5854M2958K5417n728k2327
8598B54742j2170J5461L3905J9590j9472m7687m5676l3965l7803m7562l7882j1344O075N305M12k519j2831k8818
8580b239l1775j4765N041J0767L316j1435l1533m6887l9462p525K7120M5859N0864M8839L8721K6741L0354N0195
8562A52196N9591M2203J9578J6488J7791q763n8904r4839r6679p7754n0253j1109L1427N1383L9816J8858N958j0217
8544D6771l9622o1110m9336j5954L313m613k0101k3288j4129J20J7563L7033N3195N9396M8850J8112k0416l8307
8526b523k1090P200R964j4051l1762k5005j1502r195q123N099J8207J2139o734j7094j4843j1854j1374q974j1155
8507a52670k5947l8155k3938P661J9400J042j1951Q007L8012M1284K2834J5898K7080L0639J3610o824j4928j6161
8489f5107j7316j1911L645J9625K8624L2792K7360L41l8344n2366k4957J0503J1296j8464l9836l4797j8042RK5029
8470a61916M9893M9936K1427m331m306K610j1990l8712m2776j3883K3802M8671O1952O6001M7209k509n9895q5662
8452e4479o6516k9482r448j1180j2620m54J3113J2988M823L053O552L730n132j0351j2199j4028l93M5110R5500R2899
8432E1486K5200m4266n2613j4302J2588J0342O135R523M47j9769j7620J8709N7362P0749O6307N2536J7346l2645
8414B17515n1882j4420L5743L4996j7598o7893q1084o6937m1901j2687K990j4931m9448n4299j5282K9225M3741L9601
8396h4551M4072N5077N2501L2907O437k5016o0041q0114o7142l2799n900O322K0537M2113N3427M4009K9836K9149
8378F0824L4388K4598j617k2079k0740q712q940k6449m3279m2410k6719r803J722O469j526k2488l4654j2639L2321
8359a21733N5210L4086P86n849N206J017j2620L208N0282P4211L7212k4273m6431k1959j868k1226n8061p1886n4859
8340a79547k9390j2392j357R061J2956J351k0876l1960j0851L9779Q9295J02751P1926K2041j3472k3444k2455k5820
8322b2404k8091j3652J3703K5537K151l8220n8245m5119j8385L890K3766M1750M1802J6651j0408j3134p66l360k5004
8303a07538l9593l3703k5772l4167m9375n0485l2558o082J7283K9506L0472L4458N5571P9089O9610K2715j4332J690
8285e3211M9055O4648K1662m3527q0124p2072l5325Q285M2741N9551O0341N2211L7612J6016o074j8171j8457j2407
8267G2754j664J2443J8742P820q702j2212j0041k8047o4854q2378n6399j1161J6110K3263L1694M4552M6098L4399
8249C2417K5614K5856K2886R197n938j1848q815k151K535k733k0244l5054k7558j031J9399K0537J7234K6337M0584
8230A27224M1686K7416R887n997k5617m7680n9204n1263l0145q921N203J1814J2068P470L88p982j7583k5125k4131
8211f0492j3199P4R026J7233K9693L8825L2145J3690J672o83j3740m7124p3284n8456j2303J9736J4903j381L448
8192a00217K5007L3845J6682j0162k1666q111J6383K4425L437k4175k3132P908K9903J2471l0779o8749r2031j04906
8174c13867r8741o3227j3443K3837M6601P3737J07325J25593J14732Q2988M0916p169m6826n4384k6702P619J8382
8157A7371L470j7141k3331n860L0561O8889R4303J07190J09833Q7440K6884m6757q2972o5269l1689k3050l6002m4291
8139A69579m1701l8875l4321j6015J4745M1823N2280M1332Q332l4836n9488m4857n245K4028K6745J7616J5665K1266
8121A58073K2214J0376j2467l7613n3437n0422k7841J735J6474K843k4732l1552k938L2024L5547J1451n931p585
8103C6219j7643m0384m1896m924L5655M1501K3386J1812M725j3737k5827k299L8380M4451O574k6876j9309R813K3042
8084H2663J1736j1029l3534m4082l2183p680K817q475k0241j8184j5466k2851k6017j3016M60k573j0104m453K075
8065a70137j3295l9107l8168j79M3315O1414N6696M6723L4135J1004j8177l4282k4310M208L1231M1942L4811J6799
8047D4623k324j0649J216K8364N0134N0217L4784K1060J2725M25j5885k1585o840K1798N0444O5433N3680J3657l2623
8028C58654n8015o3253p0938q4892q2992n8381l6826l6098l6922j7901O005Q839k656k593J2140K7030M4837P7055
8010a6907J05192R1718L7454o993k515L1453M7226K6843o411k0820n965K2264L5566J7006k2839n6322o5487n3876
7992A56587l6544k8079l5355m9255m8038k3007M622Q640p045j8188j7371j4965q094J7719N2652O3524M1979J9099
7974G8881J6624J5354o914l5642m4509l5906k7451j7904K514K2585K2232M537j1747k1434k7816k0835P494L4967
7956d4970L1220L190j5782j7856k2736k8546p059L9470O1297K6677k8882m8020k2374J0310K1675J6792J3244K0636
7938H286L6452M6996L9368K1550J5668K1113P067l9460q1767p7857l9248j2918j5506k0195n445J7040K6638J7824
7920c4394n308l3707m7325k8185J3117M4159M9663M4333M2681L8473K2257j030k1604l5058l6448k2800q082j4801
7902c4059m1260n7201m2457j0303J7802L8401N3801N7043M7453M0174L9838K4737j8306o1036o4969l3966n580L550
7884d6338J2018L2334M5281K7079j5901n1255n1693j8488J9459L0487J0881j2367j4945k556M505K459M002J4960
7866a0078K7845L4191K9777J3882l803n525J0130J8969N488q620L102K4203J5535k1258l8592p559M5047P4348O4050
7847B71132K5887j9833n0802n5181n0396o6053r6694r8543m9457J4323M2876L1635J2659O938J2488K5216M2088M9578
7829D7861L5014Q069r640j5504k7268n2217p2582o7494l8188m704J7453L2165N3116Q0131R1285O6933J8262k0114
7811A42578k5975o300J9359L6421L6713K1096K940q358k5387o0588q9208p0247j1529K6638J1638j7082j2006J2154
7793a7143J2961m512K289M1784P6517Q0975O6158M1575m659p1888j24592j24701p1198K197N4889O1468K5228k0859
7775B6489l8918j9888J2525K9378J9482q963l5797m1332k3502O78J7970L1876M3196L7533J1952n583P905K9765J9935
7756A14701j9133m4477l0117R763N0925P8448P8068M4404J611j6192r043p157k4390m7810o9613r0102r0965n2075
7738a23154J165J7944L71P552O1550J04966Q5134L1019M334J4089K4906J8523J144k5377n5199o2551l7033j5492
7720E3891l4569o9084o5119k1801J0243P068k413P430K2983K3843J3880M728l380j1049j2058n520K490J2929K9962
7701c5546M2808L3957P444j2572j2485K464K7768O1009Q3832P2048K9655j2782l8240n5319o6588n6953k5184L274
7683D8590J1978J6024K9845L6457J3792k4626m1947k4626L945J4429Q62j9942k6776j1297J5717L4343L3640J8533R15
7664A29856r715q635J555J0267Q870J078l274r55O240J7849K6951J6401j7963m8792m6209k0029n760j1693j2227M121
7644C7936J6865J4366J6405L7023N6312N2423L4670J9681L78l1429n3540l9804m785J2988N284j628N755J0160k264
7625A86796j8834k2550j6679j4859j9678k1561j2795K566J0497J228j4754j3577J0494L0900J9648j7117n0245o4405
7607b4925o4091n2034k7810n227l269j5521j4167P532K1198N035k0930j9920J2791M2882L4734j3442o8281q9801
7589b95246o6459k3765Q387L1972O7216J05460J05840N3322p125k1321N812K3505Q191j2471j2224p158k3813n0775
7571a10652n1342j7062J7967K0458l624k2868j8559L902L2400N8882P2407N9612K3355r244j2230Q059K0286O755
7553G8502j8876l5593m0889m1875l4353j0059J9700K8745R808j3128j6380p467j0001k5632k9208l371L6739N9529
7535e3809M8537J2524k6718m8195m0376q745K4114L4177J6565j0305k1136m730K7081M8723M3745K2048R022J3384
7517H5906J4784p058l9669n0391k8348L972K2359K5266K0525O675j9039m6214n8711m9540k0021K4369O6183P7916
7499B8964N0021Q392j4966k1890l7718o6126q0013o0102j9107J8973M1583M2285J7705j4874j9072J9036O4773P2386
7481C0250L8862r14k2894l2151l7380l6104k9088k4001j7241M551L5428M7125L0114J4128K5826M5846L6888J693
7463A10938k0721j3086N32j568r072p464m928r518m749K2942M9538L9900J468k2403j3559n82j0479k9630l0751j5629
7443C1179p954j7144l1081l7403l3156j8016M752K2978K6245J9985J5446R798o298k2810j3984K3901N5707M2827
7425F4972j1631o3670p1273l0408K6688O1280N8073L2755J3328J4482K9325M1002L6987J6095r765k2606j6818r118
7407A59698j8223l6006l5921j3216M348k626j4215k021K3558K4688r011m4712n0319k9855n146J5047K9852K6725p851
7388A4794o0348r2445p7285k5091K8928N4750M6116J8683o137j9314k7332l5852l6355j8135J0322K5883J9450P693
7370a71675R950K4183L4902L6183L4379L2068K3188O694n144J319K3734M2033L4868O0l8605m8277j7718K8186N0156
7351A00484L3177K7j5073j780K0242K5848Q258k1944n3270p9810r2558p8227l8180j331Q0k9537n0070l4813k650
7332c11127J2279P986R886K6737L8131K9388J6144K3637N5959R4480J14931R9587M6835k0787o8506p9356o5279m3768
7314a2843j6815J8084N0539O6125O4235N3467L5967R590j9226l6919l5023j4850J2689K6747R904k7130m8623l6270
7296I9648j3363q832j4878o651J1256J3337J295M366K8139M0825K0987j5501m9419q3059j10459r8728l2627M5931
7278a67733P9034O0121K8775J1213J454m734L519K4863L6419K3889o76k0593l4128m3334m2612l0361j6893r452k377
7259a03606Q176J4051J2005J7089M1987P1076P3316M0409k154k5111k6888l0286n1637p7702p6835l6385J4646L0905
7241a06944J015l8245m3867j2109K6613M7071M9012M3943L9105L5155K6887M733l3344p0287q2031o3338l0335M239
7223b02727M2904Q4517J10653J05806Q0710N8816M4550K2068j4718m6749m9822k1153J6640L1548M637n1393r5820
7206A20467r5811o1439l1663k3942j7832L526K0179N535k6475l3669j259M0818N8346M7581K5062N474j121R557K4842
7187F8176K1701k222j9698j0456R527J4037O404P418J3257k168m0494o5139m7123k331L2493M3268M0032K9218P719
7168A03619k0024m0573m8853n0204m2815j6822K0943L9326J7376k2686l6816j2279J9279K5787J2081Q16o929k8622
7150h7396o2655p9101n6120q298L2166M9861N0952M6441M5703N6602P2821O6298J4747o0249j03167q2200k3201K2599
7132a04197L1020J3787j0594l4381n2184n4101l4297J129L7480N7822M8716J0727l4354n6835m5705j6896Q011K4229
7114b10623M0356O0169P6840Q2179P3583N2769K4882j198j8626l0349m5604o6849q5062q9812p8946n6609k7535L133
7096b97302K9971N1523O9543P9845P0640L7435n922l9894n8549o5816n7827k6187J8405M3379K7259j2534l5357j7340
7078a88728L0312P7255J00187R6249P8104N7036L1115n337m2646n9030m7507k5675r781N872K9032M4084L0067l438
7060A97171k4884k4659k3669l3261l4610j1705J9036L2024K8379K6908L0919K6545P854j7421m3543o7764p7152n6054
7042d5886j0685L1419N1514N3998M7424L0295M329j6204k2428k5078l5979m6073l9005j9416q644j3982k0307j5333
7024a00041p068q372j5771j4120K494K2706L0006J9311J521p969o116m600j1925j8707j0270R596K1572J9302J9291
7005e9160L4339N1212M8906L0390J8646K1844J8739j3888o6726r9332p8032j2209M9620O4621L5630k95j9248k9091
6987d034l7938l1154p73K3888R800k3372j9287L6776R1510R1035M3867n119l6267o0247p9141p7490m9537r359K6512
6968a10330M7512M4039J6090j4870k4463j5920j0900j0813O194M3824P0202N6261J2320k8192m5695m0743j8803J2316
6950a1971L7988M6516M0430K8120J0770j1979l1034l5390k5841j0481P130K3105K3281n168n2578r0576r8167p4460
6932b30305k8881K5988P0648Q5122O8589M2546K5619J2740j1317m3817o2018m9939j7356J2166K5233K4053J3520n004
6914d2413k4933l2332k3125j4729k5470m4431l9380R3M3728N5925L6832J2995k582j9261l8853m1167j2220K7811
6896a83512M3856L0388J8856L3822N5962M5804Q21l2925j6761K9530N2003K8520j3775m4028o0157o6287m8856j159
6878a27898M6559N2403J4197k9005m5723l9972k9347j9079o949L795R019J1458J4699J5692R336m278j9912k9850
6860a74855k7622j6622j2156k3551l6273k6524N390L2208L3934J8966N916J547N714K0798M1794N0199L4800J1250
6842e5087N614K2280M0188L7095P747l5620o9156o9738l6613N61Q588j2610k9283j0539M0885R2609J09871Q2066
6824A28858L1579m485q579K902L810j1265l0090m5774n8382n8870l5060J516J5812j1130n5610p6147n6417j4236
6806b81568K2246L5103K1442n621k0385k902L9559P5656P9958N6916L1454J9118J2782K38j3939j4371m76Q103k035
6787F1278j8328k0807j1182o899j0522m749J9264M6355N7372N0435L4047J2709r829k4593k7811k9380l8492m7392
6769C1476m2506k6437j4640j2351r121K512J5762K1777K4018L3511N2336O6074N4771J4024l5325o4539o5528n4067
6751h253m2384k2346J3374M5621M2867l60n2212p1019l7578L2323R5962J12628Q1296M4499L8526M7433K8382k4051
6733C24708o9323p8573o8068o2849n6598k8567J9930O6672R2072Q6118M9062K626j7640k710J3107j388k7711k6041
6715B14827L580K3467J6163L445L633L808j3890m4755p2745q7327p8341l7292K0424N3728L5850j4414n5563o7191
6697i2593n7384l7456q746K5467M8876M1646K977l7447m0541l97M2311M5160J5536m117K499R436k815j7001j2959p94
6677g8342L153P595K4796L7522K0803j3475k5594J071M3323O9190O2274K0343m2481r0976r3290n7487k4371j9473
6659a55419l0408l4628k8467k1288j8771k0480k0599o404K8843O6979P5823M6129L414k2707k6067j6465m503k978
6641a87996k2874n2192n5798j6784L2859M5245J6233r638K792L5266M1699P783l0743l1654L749L5488L5717J8084
6623a32764J0326J4655J2863K20r755j3332k5005n0339p0431o5824m1770j6642M573L1350O6524R4747R3881N7593
6605c9130R108j3664J748K1850M704m3111o9912m4459O683L9391M5329M5218M8577M6392L4000J6506n376l4277o1603
6586G974p1002n7245k9942n66K3266L5154L4420K9882K7986K2515P783o144p319l433r729j9943j2891J0072J7648
6567a514j0936n3937o7957l3805K4971O3779N5321J3940j6247m439L5657O4124O0126L7579J9877J5562J9754K2717
6549B44572J2718j4268m2462m8918l4445k5707l7395m9377l6426p001P885j738j3421o711Q852R687p753k1330j1986
6530g5224J0784J9334K254k0861k4496r206L073J376l327k218m849j9129k9714j6021J4001K9204J7434M205J9432
6511h3948N7679Q4273P4995L8023l28j9604j5013L704J7882J3667l319j3614q926k003l695k386J7010M0473L3637
6492B28507j3270o7988r1719p7514m5574j5808K902R261J0655K0127L9803N4317N1281L8233K6302R867j7221l4698
6474A27463j3004M0679P8323O3309J0497l5075m6224l1231j5599j8225l9551o3265p0932n8656l6642j3030J3289
6457a07874M1267N9042N4343K8914k746k5847l3257k6307j3455n873q413j3152m457K5794O5408Q6237O7117J4997
6439B01738l9426o6697n5926j4116L6541O1585L6930j9715n7617m8583j8484o386r791L004L7843O5219O5591N3284
6421B24994M7094M2089K3340r159m1045n8756n7937m5732l6743l7322l5938k0751q67O393K705J439j237k0678n0217
6402f8328o2740m9508k8365q679J9444N1366N7881K7453r767k0340p210O100P092o425l2879n4032m2746n083J3703
6383b13063r431l7355k7316N848K0717J8739L3970O6603P8678N6677L1801K8365L1164J8901j198r479k732Q106J4391
6364A13386J3857Q959N427L476o374k6387l7979k3178P066K6826L0322K9298K3218K819j9330j6030J1984L1991K5389
6345B04740P822n597k3134m9452o5283n4654k9904r743P514K8523M1211K9803J088k5938m7284p0577r1925r6283
6327b49073p8495m7301j0224K9859O2148O7117L6879q475l2503j4281L0480O3255O0171L1882M013j2548k3429l3594
6309a24119m3226n3062n7286l9309M312M2772M1110R776n379J4373L9470M1613L1416L0115L3356K5653P880j2472
6291a3007l8062o4875o7961l2520J3971K9986J3505P66J5136M2722N9659O0535N3032M0265J7681j6829n1877o3684
6273a557l8931R35J6038j658j5647J7J6055j0911o7993r6062o8375k0736N160J2294K3769L8048L7712K5817K2323
6254a23702K8468K2555l375k5229j8054Q811K3883J3793o436k2079l7260n5833o1548l5978J1798N2298O9201O8255
6236i0432N6222L4122J4540K0359N2683P8064O4244J8534k2379l2972j9238o312j4624m2251o6143o7657n5729n1096
6218a30065n0519l0160J2043M5669N0835M4046M4774M4065K8457R602L874M826K720Q121K4643K2284k1885p4005
6200C9325p9261l7770K21R951J5773L6507N3666M6466K0434j1449m2893o0725n2776l9307n8567j06742j30792r9895
6182d97834m6471j2943M817L0510N7714O5395O0042O3365P1656O2390L3265N009q615q936J169J4930J5089n109k2700
6163a17257j2523J3364K0935M115q493M170L2958N9058P1821O2868K7323k0590n2093n2688l4314j6477r177j4008
6145d1008k4073k0869R129M9647O4599M0230J549k0215k0583j3892q622l517K740J0841K2906L5326L5421J4494j9381
6126A14722m7846n7961m7950k4679k083L217j6228m9579p1845n8646m159O6307J06232Q6927L1249n416M704L2508
6108E9474L1597n481m4350n3560l5417j4608j1353k6940m2921l2065J6937P9646J10923Q8295L4101j1837l3559m2944
6090F5938m9660m4164j4063L5026Q1508J02859Q5242L0745l4792p1899o2032k9446j4987l0354n2666o0995n7097
6073a20837m6750k4965O425K6234J9172J384OJ4866K1777J0467k192J881K1514M5080O3004O6580N0026K1922L443
6054A79037P631K6941M3524M3496K2168j1275l3316k6616n574m649l3940o3321o0997l1562k661J0579J1146L623o809
6035F7425o727J2472L5767L7360J2764j7613l6874m7300n5580n8604n0659l3957j5894k216M504N486N219N119J437
6016a37871l978J003K0588L7193L4015K4190L3583N8328O8685N6879M6889M6429K6975k4648o8953o4062k9729j9656
5998A05860m3798o3205n7569m8680m7394k5278L4815R5952J09478P9091M9002M0972L6554J8052n386j9133k5294
5981B34039l1382l3906k7029j7620j7982k7220l1529k4179j6448k2802l9128m4527k7626l199N689k631q276J917
5963a33839K0062L4264M4316N1315M5817K1721n631j1913O637K8137K9837R741j4777k2701q097Q291o539n8518
5945C8123j07133j03123m4862J9903M9170M3674K5474M675j6427k5585j2313R077J1811n880j5002N216L8209N1850
5927c3143L9226K2293J7559J5081j039k2968k4679L426L7728M5150J7466k3643n1002n4700m2950k8409j7386j0369
5909a12359r171j8066l4332m2739k9415j321J8916K0059J2672Q819O597L981J1607L4615N3667M5493J6962k763k355
5890a9133J210n208r690M902L5009N9876O1421L5610o046m1968n6756n4992n0900m6688l4589j8099j1893j7747j9462
5871a95143p168J1673L0300N0283O3087M7921K591m4069o6754p1355p0853n5929j5752K8929M5523L5473L0226M1907
5853a39110M6291K1460j8365l8004j8508K6656O3829O5412L1657j1713l9206m3136k6143M883K7484J0511m3656q2593
5835a62251o0933j472L6281L9557M9573Q3059R6761N3150j7750n5475m3954j7099n545j0125k1786l8101n5685o4586
5817a96381n6401l1873k650J1834Q06j7524q430L2523O1929L9726j4311m1846j8086K5661N1700N6964N3722L8151
5799a4486K795l4107l9528p914K6233K6951j695k2812j2342J3061J8495o029l5076l9292j6045J5531L8415M6649
5781d1196L9069J9264J050N11J8085L6407L9548K8469J4525L670q450k8023n2120o6355n6441k5533M118J3374O627
5762e3401J171j97j1393l5532n1338l8013l921K2642K6684J8099J1758R178M246k631m399J412Q164Q347K986n39K87
5741h6390j125r493j6596j0351M992R786l810j7114r506J0884J7921N631l805O279K4484L2106K9988K9761L0103
5722D3745K0063K60j7479k9942m3556n2996l7768Q677N8330P1372L7342j5323n0242n6438m8617m0368k6444K903
5704a76481L6734M7913K7411o79j0076n060n322j0443n717K151j1242m1954m8713q730M4449O3811M8559L1720K4647
5685B978J1169p651l000L5272P2165O7482K4333k1458m8485o5470q3512r2737p5719l6151k892j103k2817l3597j0648
5666b91841L2168O1580N9796L4638K258k7251m7900n3813m2298j7486R532K3732J6983J283Q71K0235L0870P599k9739
5647b08783l4748N430N3170P0493O2176N4700N3001M2102K2817J9326M4596P4722P0758K2796l6812o5855n1693j5019
5629A83177J7303L1129K1961n259k6427j1525L3710N7926K2844l9876o2907l0618L506p134m4955o3969n1334k6482
5611A070q88K8025N0713M4658N807l8526n7438m7523k9344j8208p466J5118M0182M0684R366k3552k6874r455m28N30
5591b3549J8318M9371N5228K1834j3489j6499l546o786k1683k3495j3447j1026j5284j0540o93k772j3033j2912l409
5572d7412l51j92J4487L7846M5410L5991L0964K8450R2n4494r0321p4706l0214J383J0094J1421J5520K5745M4547
5553D260N8005L8100j4049n0394l2183J4580L2810Q912k1620l2119k8378j7235O395L1340K5607k0826p2696q7403
5535a56894n9998j7228J6134K9934K3413N761n907k869P605J9345L8715O5523P7302N4851J5987k45J7510M2051M7393
5516B18383L5238J4449j9495o5471r6199q3599l8748l420j800k0325l5959m2256l9972k3634N740K8153K5208Q621
5498a35086Q865L2782M9435K8923j4340l3104m370L8584M3862M795l2861l2103j1852j4675m3207n7910l5038M214
5480b03086K9129L4558K7083M640k6856l9095j3117K7318M2960L1358K3079L0944L5447K4028J3996K4183M6117N6927
5462A69613M5431J5428k2417n2850o4071o2590o6792p7369o9610k8553K0796L5726M746l8832n2606k7170Q074J7938
5444b45108n96j6361l306K5516L4994J4598q945o812K0111M8561N6751L6776j035l0614l2902k1652k8575n6004o6195
5425b80798l0393L2065P9764R4084P8633L5709k6109p2870o7859j5189M2727P1077O5097L1945j8934o2458o6538
5408a10047l0931L782M068j5327j5954J1878M2526N4066N1326M8274M6200L7631K0699J375j2532j4478l311R730O412
5389A35387j5649l1851j7526J5234K6639J332k8082k4915N61P480j7312m5794n3314m6535l7777k0302J2013M1812
5371i8599M8982M0655L7208L7693K4074l956k2999j8074j140Q257O194K141M556J3949K3057K1683P679p591j1415
5352A12354m090O816J9975L4955L9098J8060k0203m9043n3444m1730k5436o085J2285J6386J929j4319j3301L327
5334C7534J8277J9326P373q334j5779q706M026N644o430j5665r812K666Q100O984O373M675j919p736p696j0182k2737
5313E982l2651k1824L545J8973J5741P343K213n121j1049J612L1839M8463L0445Q14l839J4398J9608o171m2900o5817
5293A1604p3178p2494o0718l2839K546K9608M0037L3513J3265r715j8704r720m8n516j7147j5905m605m972k2259
5274b17247l2902j5312K1718N1172N7266M3168J9489k291j1412o870l678j7468m0545m3767r152M4751P7448O6600
5256a9032K9032j10n161j428j0008l0341m3902l8248j7072R699L2718M0986K8797R426N972J9454K1525o674m1872
5237a6239m5097j2795K1783L6220M1931N3135N8825M3303J7278N756J2001J4863J359j6700k2199j3196K128J7172
5219A99528K4526J3610j6021m5045n1350l5785k0476k1710l4438m4673m6376m1695l2969k0989o438J1293L2793N3666
5201h2549O5784O5359N4044L2445L175j8153j1245K0035M1687K7469p536k7886k3842j7106k5084m0636m8399m3194
5183c5632k9555j7848k0680l6513l9371p333L7734M6180M586m2825n0181k1913R033K8695M0479L5708J422m7074
5165a45088p2105n5957j6230K2708N2606P1775P3624N6663L4723K5568L0968L2469Q751l9031p8963p4630k4425L4948
5147f1626O8707P3508O0117K9292j5242m8548m8172k6882j4318j3466n894N383l894l1501l9135o021L9333O0112
5129B1753N6514M7746L3987N915k4193l2356j7148K597J9289L8976N4102M3504P765k0169j4093J2589K7873K1535
5111B86186P226o058k2861m2254n0922m3226l3040l4485m2142m3332m0492m4989n5048n9300n9469o6514p1512m6334
5093d68566J4107P1952Q6120N6847J5484j3521k2534j0482J2761K3489J0503m569L217K2929K5293R438n00L59o337
5074a74010k1097k0036J354J2976o604m0446o1011o1112m3967j0792K4948L7455K2504R153J9735M0232M7300M0475
5056a82943K8374Q253j7327k7040r860J2748J8502J7091K5414L3285K4533J0400O966l44k9425n5477l8091J4162
5038a60779N2269N6564N2056N3739M6079K6779K2523M1549N1886L1185L190k710J232j5494n2397q1105q3313o1207
5020a7954k3266J6819L6843K3366j2849n1312q0473r0201o5992j3543K6637J8843j9777l8595j9134O671P933l569
5002b99553J477K2450K8855M199k8497l3129n330K0348J1402k3518m6816l8071j2036J0196K8155N0031P1004Q0191
4984a58642P8373P1556N5333K4891n085j2325R79Q901j584j5104j7163j9310l9355o9109q0163n8026j6217K1961
4966b30089M2882M3760K8230P050n268k535P481J4275J7578K2992K7580J9524m415k8697l3978k0235p466j2244k9882
4947a43457m2359l7224j3690K2628N9393P4687N1183J527l3018k4606O062J3934j2020l5491k4771M494J6675Q354
4929a07699M852J2374P783j6990l1741p984L9029O9559O6188M1156J0701j3586j7816Q28J5975l802m8223o9961m5931
4910i5288q737j214k1106l3132k1180j902R197J9025L7211N3680M9604K4263o38m832Q288J7728J1591J626P139K9499
4890H0822N0926N6510M6924K8630M590j9164l0041k3931j7085l0205o2198r0130r5467q1399o2695m6730k9573p180
4872c27396J4887K5196K0313J2294J6670L2135L9441K5251O63j1079m15K2789M4228N5266N1199L3604J6821J8753
4854I0620L7429M6031K0648l1422p8265r4085p6892m1272m384K1326L1203K8291J7299k93k1124l4395l0833j5891
4836a36009l565K983J2686K6582L1027J7241n688k5102l8011m0507k2246J1027K7096N836k3455j5246K6416N1512
4818i7423L7118J7822K7690M8378M2215J0007j5980j9330r083N163J8009J7993K228o715J0567L2074K0491j4981
4800A26243k4352P212L0618J715n4491p8523n3601j6228j158p118j6014j8741j3169N136L5505O0729N5536J2963
4782E2262m0133o2679m0256p56J7765Q318o380q219K86R683J2472j378l4778o4655n5854l734N6313R0202R4744P7685
4762A00908L7783j3998m0030j5700K9574M3532J7406j0267j5559k1157n3676r4409r6160m2818K4658M6971P490m9784
4744a45236o6817l3147R417K4180K2816L7843O8534P9833N2191P864j8655j8433o856K020P245J2532J6840J5126N304
4725G2601p421j4754j4028r159j867J1649L1315M7498N1412M5442L5777K0624n037l6696o1418p0388o4689n1954
4707b1093m1777l8138l1004m782L6059O0273M2647l004l7770l9781j8469Q207L2780N2682O0260M4844J574n8696
4689D4812j04355r9902m2334K6626O0505N4721L8230K8748K0570J2276J6296L3349M2458K9546Q333N4O215J3493
4671A89641J4727J3973J7735K8356L9974L9018J8236r693k5760l1266m2222n6106n0259k3517j1294l6775o8293n6242
4653d9767l402L3328J4924l1552m8558j6319K9021M0473J0765k6640m0802l5457l2070l2889k0512P363K7123K3958
4635a51013J6467K8207M9716N2028L0548J0838J0299J6529J0864l530q469L235J8602J8700k856l4068n5180n5665
4617d4748l9751j5797J2339L8751M9542L5800R438o044j295J2040K0209K2543K5232K9169K8850J8700j373k3020
4599A70585l3996l1739k8910l5868m1825k8674k881O809q718j9541M217M8642P3261O3533M0880K2023j663l2678
4581A63457m2605n096N8427R4218P7676L6211N927j1453l4500o2813p3653n3246j3865K0789L4925K5451J6k6663
4563A93203m3112m9529m9700l8546j0388K2729L8972L6509L6682M9192N4108L4176P243K419J3842O792k9766o4199
4545B10627o5323m2268k6267k9381l9949m8341n5467n7435m1586l833M1406P3390P9400N6975J5225k1854k8848p108
4527I363J1548K798j8493k2218j0457j4770m4068o3822m2918R05K5174J7901K598l595o287o764J0190M7303P7487
4508b8125P5806N3946M1710M3633L7041J0865j6587k5021j9926k1629l6184m9312m6785l2012k1146k4329l4610l6587
4490a29252k4862r422l66O017J7559K7389J9316n375k1839j2656P133J1674L413R118L5768N3515L4580q354m0028
4471b6672m6588m0570k9422n673K7954M8136L8526J1965p211j0763n466K102N509m760k6677l7058j6004K2684M4027
4452e5961L4241J3229L846O464R412Q617O755K103j0795l0149m1578k7593J1825M8273M7316R528k5024k6990j6432
4433c2913k8098n1208l9188J8938P2085O7283J2525l7062l9168K649N0872O6479M2263J3082J9537N4851O6668K2444
4415B82039m6444q1101n9702j0114K7364L2630J1866j2690k4185k8916m2827o0108n8023l7957l0812m6853n3773
4398b39606k8915l15j817j6159n033K5759L8316K6313J7918K2120K1787J8650L3205N3844L9202j3271n0826m0091
4380i8919j2446o224o943J5713M5116L8636n406m3840m5926k1944K408J2948Q918j280o250n848j2317k6813k9771
4361b00188j0517J0983J3885J1376K7864N3612N4534K3187j0327j8972l917K0842M1535L9855M055m6132o9465m8633
4343a06423p064K5546M2211M5087K9957K818q185J8027O2302Q0628N0529r008n9093p2814n1861k1914q228j0564r345
4324g394J5n133l9821p7932p4230j6722N9122J07007J06834O8029J4009l1593n6065o2762o1293n2612l0205O156
4306a54590M6467P8553R1377P5308L3329r559k4588r973R390J3198J431j9934m6010o1036m5046m916K5291L0609
4288B9301L6315O1236P7777N2444M545j9048j5815k5034n4158o1695k8928J812r054l6123k9324J0905M0539L8188
4270G3883K3833J7265J4672Q995M077K374l28l757l388k764j0548k6357m2858n6556o1727m3478J493M4513N0473
4251a0183K1055j0496k3772k4739j8906k309J7887K3855J5184J0201J3892J2433N062R283K4214K2854k679k1068q877
4232E2891J2219J1840j311J092J9094K7729J5922n518k4522l1502j4388K3042M7651L0474j1261l1905j4116J6047
4214A23478K7586J4390j1467l3353l7268k5610k1201l6976m6953j4727M8698Q5537N9495L2l4894k3316P469K0618
4196A01538Q156q302o539J1663K7852L3743L5384K8644m793o0442r3745o8948j1171K1489Q371k3957n2990p9983
4178a34030r7423q1832l4611O187J5440J3421K7991N0953N7447M8247M3957M7288L7602L406l5854m4544n240N7771
4160b3824R1833O4842O35m7657n5837m1501k5343j0344j290r551k6890k7427j0363p013k6619l1425O539N6751P2807
4141e1677N6897M4029M3423L5865J4449j0476l5066n4553m6611l127L4494J8916l0898n1329k7016o939j8547k3979
4123a12145J1548N7309O1969K7344k855p330l211q866k1961l0455k3817J696L3070M4927K9435J0694J2812K6084
4105A06248K4683O599p484q449p359j0881j0576q43R847J1654N094m234j2735j7353j6036j3448j9240l6796n7262
4086e8571o5978n2882j9737J7331L5294K3194m086j7584m438J7041J8648j167j0698J6487O2361Q0794N5616K0888
4068A12513J1115J4760K877j6174j0513J4056J4240j9902m0363j1029L6985N2495L5553K2104J9559L075l1692n4830
4050A54829m5599j7809M321J1300N872k864o20J6759K9712J6989j1424k6649k3010k0375k4872j8686M188K1663J5163
4031H8888o554k6695m1434n0260m6714l1042j3707L184K7537N1934N1499K0743j0719j5146J739K0890L7738N1712
4013A13593N2250L7607K5691K2875N429l9838p9703p4841l8098j3284r771l226N953j1983n3231o3285q452P1333
3995f0981J10828R5588O0548L2054N573k4418m3569l5298l808K8022L7284J6260k4212o3696q6794r0124p7742n5881
3977a80366l2978j6649n955O881K1911K5476P623j7940k2598M556M0382N1633L2565Q972L323Q559N804m032n195K310
3957f5718J623r391j2139k931p005l7751o5920n5754j3882K6020N0904O7147O5188K8471k3140m2272j7453R667O292
3938i8044o485P019M1378O2449N7624M5043M0691L9789K9751P020j8437k9076j6694K443J516k1392l6382j9774J5347
3919A03786L7965L4370J1733j9385m9045o3510n3401k3884J1185L9213M9184L5959J2414K837J3568K3505J3587r879
3901A70202l1811m9507o2614o1064m1757k0431p767Q446L4968M6462J7617l1409n5449m4374l0100l4598m2843l3342
3883b69371q979J2147J8037Q743m555m677J3026K9433K5485J2485J7192L9541N0511L4560R672j483J094M665L358
3864i116j138n576o055k468j478l946L845K8014M3439J8974l3926o5755m8114m573K3767K0715l518l0114m2052l5824
3844a54899k8641l5938m2867k4407P029J0430j9306l5123m376M5197P1184P3972P5475O9179L3922j6577l9645j9585
3826c4976J3105K2512N876j2529j1148Q118K2007J1666j1454j7374J976K3942L3550M3356N8668N2793O260n0910
3808A65438o9909m3979q627P669K960j6659m0692m4794j2126L5030N4231L4362J927k1231l5819m0836k6434J97J2018
3789d7274q65j4308l007K7559N1858N1591K6131q493k6956j7462K14l522k8473m7088m5020l3249j8321Q630M4303
3770h3752O4990O0434M9182M3772K7153j3992n4689n8404k7065K02n578l3867m9542k6561K7744P5018Q0795N2036
3752A27876K7773K8664L4620K0785o477k5191l0198l0535k9264k6178k9233m3689n8605o1291n6014n1593m0767j1754
3734b61071K6535M9866M5743K1149j0097l3449l5313j4474J3791L6641N6486P4065P6738O2177N4163O7844P5703
3717C06497M1940j9692n9326n7750m1782l3654k6915j9968k9881n4036n6496j8996K5382L8549L0950L5100M6775
3700A06697L3393o904l4602k2607J0337L0174K7448J3526m635k8109n1324n8779m0143n602J6800M760l2460n7797
3682i9827m5526j2850Q74j4270k5293k036L9923N9165M2774J8871J2831J4119J084j9493k3783j5296k5095n7719
3664a51547o7596j5827O7280J09083Q0039K2849o186L436K4199L1502K0791K190o120P018K5170J5365k5929n6287
3646G9430l7286J4066M7977M4791K8085K0295J4622m562l6197o5109p5350n8373k2809L386l150l3790n9244o5136
3628b08354n6954l5364L347M0074M1906J2618J139L6297Q0531P8347L0377j4136k4703j3230L310K4741M5671M4727
3610I0344J1905l3178o3192o8130n0018j1022L8246P1482O5812K6645j6132l6166l1134j8480j4019j3875r06K6310
3592b5508M0171J5937k7155l9973n146L7749M2757J4295p791o806m718j8671k8832n257M5509P9038O0807N712l7201
3573A34917l6066l630K7199M1709M5484L8615J1303l0439n5947m1663q13L2064L8536K5653N710j6387l5925m3777
3555A36543l5698j9871r962j1688j8004j8747j5199j9429l3438l7847j7568O590k210m0687n9162k8520J4787J8928
3537a91182j0448k5227j0443n42j7325l4531k1735R236K5715K0439J1853J1390J3117J0501O114N968J3896K8114
3519a55090L7341K8008K551j7686j5482M173K5319L9978M7618M6778L8657L1083K7676J9693j114k7128m1396l4604
3501E6375j0038J9592L4633K1369o679j3669J6972N6208O1010K4013k5034n8777p2963p2780o0849m1247j9561K445
3483h8980K0703K2340J453k4463l4322l4993m7601o3833m8057P772O2128P4904N4990L4428J7607j2193m7318n2609
3465a58044j2617M3983P7672P8530O3009M4696K3899J134j4424j5242p331m595j2217k2254k7766l3150m3028m8103
3447f5848l5783j2848j275p952j4146j876K4194M9841O9336P6824N7329R368l4423l6728m010J9975J1850n888n072
3428I2868Q537J2989P245O888J3361J1844k442j7052k4261l1698m4114n0033l8158j7124n627p337q653o10J0522
3409h2855J8573L0003M9977O5257N8043L5053K3717L3695M1135K4591l72m651O392l139m6368r1497j02774q0709
3391b5929m7735j5185J4963L1663K4387N983K590J9315L3398K4108l441k6034k4274J102K5329J7785k3248o0567
3373b5790n7820k1565J4179L4799M9918N9021M7633K0595K840l326k5587o9307r3384o4715p291L2915M7081N4813
3355d991N8954M7823K7898J4519j256l7714p9171q6882n4299j6304j472p991k6051m6432m5772n521M7733O4717M6788
3336a05424M8858R0378J14403O8422j7272p2442p3032m2533k04M1859N4536K1243j8544p927M7907Q8091Q0717N2814
3318C71850L3577J9417P380J2067K6018Q123n6230j18121j24153q7893o5899p8811r3064p5024l0499J2469L5498
3301b03295L8078L0149K3349K1972K0770J5512J1038J2430J5196J3890J4371K5160L9158L6264O645l5579o4122o3199
3283d2213l9433j4652o546j4849k6509l1497k9061k1722j1324m30R551J9055K1118j013m9950r2024q3489k4073L8354
3264d00707O5175O5248O3231N7760L7416J7727K6519N7399P0367M3579m07k6903k6250r735J1550K8673K8874N960
3246A15476k5718m0958k9995p743N836Q182J0715J6480J2895p376k8851l0105j2890K594R517J9701L3390K9725J671
3227H2546k3079j8190K064M971j2957k8904l4167l8980m0870k3872N595J5938m116k6123k3765q495m333r750p561
3208a94048M479J7585L3884N8918P8910P0412L2529r396l2450l3174j8327L508K0539K4617K2669K7947L8666L9366
3190A86634K4786P006m096j1219j5203p300J4223L3779L6725K7276J6779M699j4782l5787m6348m6082m2428l2430
3172I6232o122L0464N2577M2869Q007l4678p2556r3596q4010m4750j61K5000L1205L3619L4029K1908j27j4232j5378
3153A0300k1113m2859o4333o3612m4690k8961k1783p148K3345N3940O4728N6885M8144M8160M7252L0261k564l0802
3135E5150l1532l362K8785L6634J6432q773j3908M670K9556M1049L4086J9760J1668J0003J259k3541n4054p0449
3117H3433o6062n1808l7811k0777N206L3054M5928L4394O348j8437k2917p250R092O201j2341k2725j2679J800J699
3098d5652n653r24J1493P734j4265k5884j2680k282k4060n8892n9743j6037L3422N4344N4706N8666O8345O8479N1181
3079A42298J9443j9424m8243m4652j1871J0147r687m6901m9648q813L2321M0438L0440L0051L7384L3808J6418m470
3061A49039k4035l8518l5964j2463J3104K0482J4299R944N777o090j2286O772L6599L6571m388m8543n8248m0322
3043A1730k6368k9101l7105l8616k9965q270K5369N7360P0154N9559L5879J1954j686M080K9269N6343O0715L4060
3025B85361o449l2609k7655P06K4449J7035k1727o4624q5504q3907p5529o6528n0866k9705j5967j4793j3571m57
3007b62340J7389K4480J7930N371j1616l5096n2752m2387k854L6538N2062N7430P9262J09338J09211O5955J6615L425
2989A87961K4836M8521N5966N1080L5809N702k9330m3924k5780P978K7838J5350k8914q4245j14587r3696l5023J6560
2971B2102L1722K4353K5087M0219M9396L5981O627j8013k4212j6523j0438j2888j3833l999N058o519l5967n8304
2953C9849o1700o2679p5937q6568o7784j6895L8459O3458M0482j6343o2944n7225k111N4298P0960N1961K3965k247
2935a29001k8725m7951m9189l6658j8802J0021N3540Q9272Q7491N0372Q636j5636j9768l458K8246M9514L5634K988
2917F6526n385K0221M2603L2285L196j8674k9895l4781k5524j194J5464M933k0342l3995k8950j6301o337o594k2164
2898f4908m1951m2844k3877j4174k6388k7342J4963P6185J03718Q6523N9277M4965L3126J4796M49m603j1057k2591
2880A54267k8070k4123k1479k3920k4957k7317l7585m0508j3866K5301L0617l245k3878N29K9312J2527l1570m9741
2862i7706l6375k7860l0877j6978J2761J8589q444k2512O157M2848M3668K0953J3795K3017K1635J1967K2279M9982
2844D6899N6062K5816n444n583Q451K666k0083k8328j2219L719k316k2049l2011k0699M528K7048L2173J6869o048
2825F9451j7383q594J1801K7111K4202J077k8577m1242k6362m521r120m3713p0529n2855k6M3270M7232K1888n389
2806f2279j9271j8228l487J9746L6365L0284J565l0468m2004k1954J9579N4746N6481K4230j0818j6931J824J2271
2788C1651l037k2876j8206P997K8343L1010L1537M3228N5416N0740L0332R482k812p089k264J3829L2747L6777J6157
2769C62962k1237n8817q4009r2012q3696o2119k8670J4296N2649O0635K6168k6133n4047m4095k3666k0910k9567
2752a12268k6092o904J0514J6195J6995J7918J2545l195k1730l4221l8646l1294k689M5952Q9593R8551P2492M2877
2734A46593L4570L4108R293m1604p7395o1352r622K5774J9690k20M541L4465N7841N1439J9809j6466l5720k6231k
2715A69511R656j6987n6667o8334m6384k6367l4699n6456o1706m1478m620L9634P6681Q1098M1582j4678m4422l4475
2697h9111r582L303J87j0951k5683l8253l5452r380K7761N1928N1229L6878K9516L7760N2139N7809M8783K8362K319
2678B09562k1185k9130j2873J8036M0536L9470J7210j6685n1618o9856n3163p267L3642M0532J8648p343k5548m0808
2660H2160n7316p2497p9794o5509j7154M8250Q1684N4927L950j1169J8640N0972O0577O3967O9141M9249q191o3763
2642B08124p2277m2385j7220j4006j6890j6944k2680l3063l1702j2149J3559L3325M2008L2027R81k9148k5328J5678
2624A1910N9081P2536N7440L2078L078l1218o1330o8352m4916p228J4755J646l3809n2232k6783K3353N1743L7418
2606C9170K912k1439k9687k9125k0193m710L901NK009K5223M7928L3818j2266m1171k1800J8660L3925J8780O850
2587E2790J7843L2862K5515k230k5562k6978j0061J1059K5267K8123K0652Q514k33K51R177J7137J0019j8068n1922
2568A24155o2537l6834K741J9449L782j7313j5908M394J9269J6520N345k194n665j1302k1645l1685k9875n175L8506
2549e972P6080Q0199M9723J1530r253j3208j6473k4812k7919j8438o562q042j9884j8587R734M4674N2004K8520O993
2530A90307Q194J0141j4239m6851m5447j0046R887j4415m7965m2277l356K0806O041k7055n2079o3277n9226l2586
2512b13443Q503L3305K4684O915J4229M1435N1925L1867P400O80k624k2924m6472m4428k0234m797n879K614L1752
2493a05492N2546M0706J7652J7217L2227L0027R309J627J6469K3613J157l0676m0514k6860j0799m914m915O19K2708
2474D1707O0138Q7620P3889K1287l1819n7866o6546p2112o3377l0406L507Q663p674j6496j4275k1259l8488m1585
2456a65092k0806K247N250r302k4410k5683o391K5059M1365K0731k2267m8720l9043o060L1661O3780P6102N6007
2438d5572J8212k503M824J5177Q061p395j8936l1182m1066k5400J9536N2871L7664m210k1694o025O472k123p070
2419e0359J1566L3802L1506J1273L786K2625N1045O2919M4159n78m9598p5065o4133l2107q376o567j2616m878J8078
2400a3518L6392L5608K5119K2258K4649J3641j2825k7124l672M4779P6652O6256K8439k850j2011j2955k7245n7558
2382B04035q5343r1595p3608m0076Q01L9622N9610M7088R140k9891n0475m7762k3691J4506M8149N8165M7491L6262
2364A22428L0698J5982j2953l5848l5916k5060k4102l3767m1676m2699l4971j1571K3668M6223L8856J7450P530Q516
2346A2788N926M429J7368L2965K5996k60j8313k2079l1290m6355l9273m186J9952R87l9918n9019m6239k4786j0481
2327b21788J287J5745K9729M1279N2383O2740O9985P1865O2120L3863n102l1730l2697j8882n314R223K9020M2121
2309B05847L3362Q655j1461j7100j3025m518L986K171j6210l9544n0899n1194n3446n6992m6783j9354Q498K1023
2291i6984J9421J3722J1934J8705L0872L3552J6448n039l988J9419L5733L0867K7509M4413N7819L2486k1401n5099
2273B10389m3989j3124N671J3434K6170M1028M1380K1280j4894o4090j12966j26371p8926J801N4294N2958L1339
2256D5384K4854K2086l657m0983n3382l2493m083J3527K3446K3953M653k3322k8081l897J3308l18j4096J4773P2213
2237E3885R5857N1841k4859p3405p0372m0512j8192j2165p555O450K0092J8210M670j497O117J2831P092j839J036
2218B7685J6550L5187M8010M5279J9855j6583l6913l2041k3445k5547j7121K2559O6428O5268J6017l1050l6838j3270
2200A30030Q599J8786K1249J2052j3481m5138o7058p5635p6418o9718m9636j4635K5741N3143N2502K9381J0168J2257
2182c7811J9311M139k7776m2141k5628m854m962j3897n496K0201L9973L9748K5753R484l777j4025k2654k6778j6307
2163h7497J3292M4188M8680K5111M457J1658L6244N1777M7967L1316R836r350k1078l1155m7887n7457l4826O659
2145D1935J1209m4063j00362q5501j0727M6552M4325J0727j7636l6642m4241k2317K5821N9425N0241K0169N261R374
2127c6450J7671K8496M2269M1418J3863j9738l2952l3515m4571n8705m7502j2035J3817J3418O301R193J1046K280M23
2108h5273K3245N4167N9167L1122k680j6042j1433q919j7088k1470k428L7007O6969O0965K6108p345k3583l2634
2090A29855m3364m6524l6253k9259m1509n6273m0523O981M6801M5717J5030r520j2712r099j4148k3917k6001j7250
2072a61968k930J3553L0596M1601L8846K6194J9137K6225L6010L0072O085k0385l5553l8557l1659j2907J2539K4183
2054A082N089l2389n3675l9154m853J8910K1224J5883J8773L0055L9522M1676L9799L6870K8991J2093q324k1882
2036A49690k7966l6033m7380m8275l0763q604L106J3998M0968O9056N9706N440n1595p0182n4631l1123n285K8795
2018d1078N7550O1351M9565M7591N2805L8595L391k0716j6589n389q377j7033j8477k1349l4134m2611l3424j9802
2000C1869j9029k2724j5970r458k2915m8143n8419m7459l1213j7389j711J0566R857P531K5856O0740Q3274Q1194
1982A6457O8755N0616J0834m7662q4286o6256j3739K3497K3051M860k128Q992K2786K1638O429k544Q374K3972J9787
1963I3433J253q3K6035M9554L9381N04l9700o1688n8215l0910K080J5766J1130J6266L9088M7378K0167j1024p978
1944A52437J1721K822l1533m2131j0710K4174K7833J2211J282p408k2200k9200j4050P643Q807j2308l6346n3194
1926a0150o5316o7437m6411l626L8193N5480M4140J9643K689L135J3190J8508J7458K2090L6631M6162L6812J9169
1908A80360J7122L4366M4607J9978l6716r2058j11448q6687l8232M400K3547K1343J4628K1149M1813N4487L5593p344
1890A40908l6959k9838p156o001k8972m2153k0724K2161N2627M6294K489n3695q3244o6295k5726q1N787J9245M8866
1871f2467O7022N4578L0860J9007R526j4286l7058l1215l612J1500K401q012k315O612o55k0956l3473k3273N218
1852c0598L0990L3337J4187K84J3032M1189N5500M4533K1579J858r486j0567l235L36j0081k3806k0887l044O272n572
1832A45821k7601m7325o3384p1003n8548k9095m442M754J2699K8826L5941J8160p103j0361O781J4900m43k2206k9119
1813a02748j9594m370Q491J4206Q478p475k3139k4641n308K6585M9948M9071L3996L1326M6271M8740J4371l3397
1795A10811m8160k2624L539J015j5269k2795l1603o0884r4487r3327m9099K403K6007K3629J9468K7376M3584N8268
1777a22148O2568N1433K8440K954k0573m1181m6874j8832L6758P6169N9374m52m8788n1376k5071m751p13L06Q320
1758e4437K0303K9066K8255J3690q416j8663k422K9622M8657L6852L564k6605l6161k6900j5594j6047k1610j0861
1740b7707K2936N5717N8374L4307J5360J9332K8009J4890j8805m7995n6150n0182m3886l8899k8108j1544M38J281
1722g2632j860O66L837o610k9314m0353k0414J9505N0726N9392N4051M6237L9644L7796M4169M9324L3930m988m2095
1703B21011n0164l1803j3268j0295j2738n346O694K907k2199m3819l2438O408L1895J5681k1703l6214j4004J8297
1685H902L3005K8523J3968j0316m3739p2621q1509o9734m6812k0025L863J3890M626j3515k2536j2779J2006L6997
1667b37806M0667J0788l5413o0375m6419j4646O877J7672L1070M2513L6891J9309J1704J9864K6963K1468J0419L151
1649i5303K262J2779L8147O3121O4297M4879L4308M1720L6446m974n5059o7012l7016n041J758l815k071J334r611
1630F1149l2247m7980m5499k8056l236K2303L9782M1018K6310M015j8122l6211m5899m2204k6037m914J5226L2904
1612h7698M2999L5202R792j1728n935K3158M8110N4374N6659P0333Q2095O6899K5862j3145l2088l9935m8470n0675
1594B25809l6802j8543j8280l7217n0825l9681j3211L134m205k8880n7079p6525p5785m9136q296K1288K5785J8218
1576b20231J8146K3416J8099M657N333K5119L5801J3903k0585k4709J4438O6032R1775P8853L8811p152l8480m6421
1558G6805m0856l6329l1106j2887J4704K8876J6711p362k0802j7291m585R455J9048J8787R993K549L379R074J4218
1539E2381J8583K1873K1306J8312J5691M466k9256p5248r5603o6617j1095K8146L5638K6476J4595K030o174k478N426
1520b1548r25k3165m0118l5323j6535l038n972k4258m6458n3538l4402l013J4552J4707K0711M4837O5919O0067L7427
1501e0073K5843K5941Q459l9574q7258r2311n1608m681J2281L801N88J6540L4298L4902K6015K7250L5776K6200j2242
1482e9853n4110o2927k9998J9030N0685N0840L0443J0439O23n686j3314r694J7637N1727N7399K9114N132J8304N1260
1463A57051O2115M1089J5591O253N848K015o288k1058m8904q0741q9235o2992k8286j8983l4332m3408k5963O637
1445a63591K9264K9184J4351M372J3158L4642M7850M0036J8873k814k3915m6198n9232n0445k4645L641L2786O8162
1427c4521R4674Q1466K4747l5332n7159m2920k5141k0719j8614o061J5001L7719N7358O5404N3718L0197J5100J3827
1409B48744P021k2271o3425r2368j00546r4894p7056m3147l463J8816J6676J0583J9036L1431K6667R883R276L5853
1391f3184O6562P5027O2758M7802L5664J8554l479j9762k7422l5229m4945m4433k7513p484L74N7N732J7686K1673
1372G8438J0458o512j5897j3140k473N499l299l2312n9521n1516k903M8573N9795L0355n64l203J2453J9786J3668
1353H7685J1009J9088K1121K47l3127n0528l9840j8864j1210j8640k5215k1986j5376j1563m985J1385L1827M2457
1335b6515L7473K3581Q568p113k4025l4650k7839k811K6071M0794L3029N581l2490o6276p7220n7638k3785k344M23
1316b07186M911K7664N7541P3408P3740P1484O6725M5893Q119k7890m8519n8792o4012n6087l0869m791J787j0730
1298g7604k6797l7072l8505k1889J8410O2487P4995M5981O204r456k798l474k5478m7065l7116O690N1458N9739K5608
1279B4318j9064l4654j1653K1322K8033K022k8729l3731j1915J2307K1458K3676L4313M7559M0076M290l4528m3710
1261D1390k0664M286K054k5040m8737m5606j8836R068K1021J8596J1047k03j7099k9463j9198J4953M9449O1876N5056
1242F3950M4547L2480J1673r092o517K3997N4351N5059K8647j408k5248n1846q1865r5230p4488k8759J5859M2765
1224a125N2262M8579L2465O180k4946n6368p9911p7292l5137K8018O7709N9830K8104J1171J5844K2354K3020K7027
1206A47784L1456J9925m616j6522q628p905l2016n6444m9677k0658k187j120L017J6282K0039O148n476M315K5366
1187F9083L0568R147j8588j8213K2619P0945P3882J8918m5332o6050m7785l1378k7262r762K4687L8635P996l9825
1169F2285o3522n7650m3349l0550j2870J2803M0266N9077N6762L0906N995J5229N2889P0187L6616k0210n7237p0008
1151H7619p4660o5243l1747r66q554l6274k8427K3924O3969M9311O663j6786j7073j6135j1302J6690N8478P7101
1133G6588N4631J0823k6708m7835n1254l2473N956M2830N1209K4634j4375l4571k4832j712J1323P571k568p202j63
1114D1872K0334M5577N2855K7556r197j6313J5254M5834L5815n936l9455m5227l7069l2197l1931l2136l3684l7600
1096c5648m1018m0340l1363r877J8427L4941K8621J4131J3168K1874J7164m986k0833j4444J25L634m04K275J1714
1077c2839J8456K2806L0786L6893K9484J1601k01O56K460o332k1829l1775k8457j1118J5406L9558M8075L7444J5683
1058A76757r263l5081n5682n7334l5095o795L057o752j2983p56J4825R984j3177k8617k2005q322o982j3081p319
1039a14621J2515K6725K0832L524o289O81K0757M2479N0476L6195J1811J940J3672K7036K4004J1450J559j2710l9490
1020A32546n8997m3691l512K0986J3630r35l591r366l1927n0497l9949j2556K71n862r997m330j002m421n374k673
1000a21247m200m680J1144L8375N0438L5852J3945M860O210R858J8255K8405K0898j3608n1396o0757m1547k1406
982h0601j9332k9844l7679l2192j1186J5248K8740K3066J4238J6919J9788L479k3265k8796p08L8570O2116O4593
964B3154N2761L1296R599M810K1662M0174L8523K0710P518O286N555k208q572l983O709R847j935k4956m9662o5606
944A21682o5573n1862l7573l4445l6983k5762P077M0691M5004J7388j2474j9147r616m298l074R685L1288L6467J3209
925B1684j7663l0434k5106j4619L139L6752P0768P1092K8408k3188m3307k8527o372L615N713P957M579j3363l9559
906A1569n5398m9943k9772q408P654J8298K0263P632j5179k8582j5442J6649L9159L2833R292k314J2657L9591M9499
887F0058K5255k3445o6244p5746n1323j9402o858j6793l3990m6436n0646m1484j4491J9335L8013L5865L2726M6327
869a89279O7505P3963N7583K5879j1947m4135n2242k8833N115K0350J3971M052n819k9129o0240o5738k7638K6302
851b20280N3751M4722K1100K898o450r685q627m871L101J8312L3426L1270P754j7727k7410k7701l1127l0449j2345
832a80338J4162K8074K8612L1128L4829K2986l335k0141j5671n444l933n779n328r698j7522q558K5267N7065N5694
813B2070K6030k634j6400k1872k0672n676J7871L0329K1145j160k4115m1666m9356m5105l6342l1059k1536M795L6806
794a58547M5229K5365J0557K6324N1185M6956J4515r266n516N776L685l112J994J3336J4855Q791J0474K0382K2351
775A45334R659n168j0145q525q484j0726j3285j9098l0888m3748m7867l6028r178J9232K8290J1342q899k638K8713
756a2107N5026O1219O4577P8047Q2044N3601L964l7260o0458p2677o9878m4007j1061J71j3048k8177l5356m3356
738b8736m7815l0730N97J2482j836n704K0535L8777Q151m6157o2009k5143J7271K5791J2537Q816K1407L5417L8456
719g893K7425O085j2151j0373J1801L1812K6319m262l7639n0827l6844o596K0644L0862K2504K591j8894k9557j9703
700e4696M359J9551R858j3907k8494k5821j3313N493L1038N1082M6752K0246l025p723o292j3351k0362j1418Q656
681a367K0368J6628O819k050j1188j7928j4820m531p66p318q361J0430L9366N4871M7705K9639J3572k21j4796k5415
661A30637k6327k1765k0146k0569j4956l627Q99j1025l3121m8221m2897j7241J4204L0955K3385L802m818O555K4751
642b9525L1628K2989Q553l66j629o003k7788o2289p7221m4522J7675N5684M1084J405k0594j6376l364J0576K7449
623g2634L8101L1192J7209J5829K3051J8665M341L280J8996K6393J2609m232j0580k0856m4544n7265l4343L969J2293
604a8526k1120o1584p1960m7633q375K4165L7530L2988K3860K0466J8163R689K684Q335J6900O056k3797m3984l5813
585a31956j5534p953j0183K80K8990N4315N3904K8128m688k6291k9257j8844q505p663j0807m212J4311L0280L2237
566c3448K7885L0514L5864K7954P489l383P371K0837J2442j2118k4729j4268K082Q278Q773R912J958k2967m7698
547D2748m5882j7441J0379J7804J1154L749l405j2047j3030J199J7843J5126p167k3662j4834R105K3286J8428O502
528C9855J777P013J6764K3981K2190R932m353q975l349N47p026k3723m0759m9134l9080o906L1254M7019L2762J4907
508F4696J9968L8701M2999K9476K1740L1164M0762L3067J1392j4533m2309o5183o7134m5071j9352o717Q12J2682
490H7160J4045j0949m3178m7293k2430k579l630j830K3742N5754O4409M7311K2730j09j9980k5625p601J5372J0465
471A55784k3640m9738m0854j4643m154j2479j7927j3460j5151l1165m5163l9348j8564p85O204Q283J2603K2134L7792
452h4271N5781O4473N2397K0164j8962m8174n5128l8643j3441R0L01R688M2392P4402O6728J7320l2043m6525l5236
433C1313k6856k8064k5017j3523m841l621L21J4273L0282L6431L2032K5988K4131K1660Q145j7613l7262k6195J4988
414E6572N0604M5698Q551j8472j1372R523J1778q789l3059m9690o1171o4114m5567m949L5070M9455L5315R500j0779
395D104j7497r436P850K0656J5802o095l0406m2178l6227j5855J0455K9877L0997J3998q227k2047k3862j9348j7098
376a14537k3064l4446l8454k5609o044k045j9513l7491l3552r948J4259K7732L2906L5727M0890N0236N5443M2337
358d5173J5820P339L5738P0014N9673J727n1788n9399l5290j6723j3181r024K508J3308J9534K4516K5348J4150p571
339E1526k8828m2348m7072l9882j7460J2726L3782L5725K5512J8986K5127L7479L9464K0156j4281m7019o6246o8523
321g1176n1019j4352K5573M4225L4691J5985Q625J3393K0577K5884K7180J8813K136q987n434M276R764J5775K9617
302A45546M2960M2357K9151J3461k732k0097k8954k0885o608l178q628p997Q16P205R362J3943J6420L770k2176m3770
282A59966n0889m6544l0047L075M1191N8472M4347J5531n481r476J409J5648J2611j6440m5277l6169O943L4707J3332
263A66909l3970o0285m8184j4552J7010K9679J5659j4694l5476l1592j3230M907K2669M0808M7384L6171K2480K0639
245A72332J9448J266k6694m2366l9668k7283p501J8310L2205J7214j0814j8368k308O445p682k1422j0638J3460K3119
226H9055J0745j0345k7864l6083k9658r223J1662J8515J1737R55j0191k1961k7003j6191M199J5398J0647N906J9099
207I399M5324O0381M6657J0100k6971m5154m1525k9632k6810l6770m3752k9121M594L3036L7478K5588J7490J8672
189B8984J9057J4538J2439J3150L414k2425m6596m5954k0108Q650J9422Q869j1549k5077k0077r34J2550M844j6905
170f3708l1036k6915j4953j0872j6512j8805n273K0257L7944L1778R500m592K64Q081O46j4433j3792P599K7057K1362
150e6403o917l3841l7914j6713J4606L7791M6133M5458M1286L0929J2547m522q211n63K711r200l0155m4750m4317
131f2045l4763k9919l5131l8047k2886M942K0510J2797L413J7978M8070N9437L4562r755m5537n7221m1822m997L5829
112a44585N8598N5879L9314K1802N728q298j4788j2569r255q539l026J1780K6127K9032K5228K7199L4110L0303N669
93A69709k9724n3038m7864j7534J7217L4790K9758J3680L82o056r626j4585k1049k4428j9015o112L616K218m222n970
73A2147q315k5317n3859p0463o0677l6572j6020Q06K1646M2137N2099N2476M8256L1461p313n1566o5807l7472N158
54a67195K7816K9823L4632M9137N1571K4181j5952l1930j0994J8599K1079m640k7409k5012p232N732J0755J5056
36a983J4859O81k0043k5846j0151R627J8512K3422L4458L9910J8820k4425n5960m9179j5156J1277R659r634k3035
17e4187j7658L449K9314M6736M4192K1047o783j9306j2894j208M856O762M038j3827m7020o8545m9609
0a30643
##END=